LAMMPS (5 Jun 2019)
Reading data file ...
  orthogonal box = (-1020 -1020 -1020) to (1020 1020 1020)
  2 by 2 by 7 MPI processor grid
  reading atoms ...
  14000 atoms
  reading velocities ...
  14000 velocities
  scanning bonds ...
  2 = max bonds/atom
  scanning angles ...
  1 = max angles/atom
  reading bonds ...
  15734 bonds
  reading angles ...
  13600 angles
Finding 1-2 1-3 1-4 neighbors ...
  special bond factors lj:   0          0          0         
  special bond factors coul: 0          0          0         
  3 = max # of 1-2 neighbors
  4 = max # of 1-3 neighbors
  8 = max # of 1-4 neighbors
  11 = max # of special neighbors
  special bonds CPU = 0.528433 secs
  read_data CPU = 0.871405 secs
Finding 1-2 1-3 1-4 neighbors ...
  special bond factors lj:   1          1          1         
  special bond factors coul: 0          0          0         
  3 = max # of 1-2 neighbors
  4 = max # of 1-3 neighbors
  8 = max # of 1-4 neighbors
  11 = max # of special neighbors
  special bonds CPU = 0.00242812 secs
WARNING: Using 'neigh_modify every 1 delay 0 check yes' setting during minimization (../min.cpp:168)
Neighbor list info ...
  update every 1 steps, delay 0 steps, check yes
  max neighbors/atom: 2000, page size: 100000
  master list distance cutoff = 26.9
  ghost atom cutoff = 26.9
  binsize = 13.45, bins = 152 152 152
  1 neighbor lists, perpetual/occasional/extra = 1 0 0
  (1) pair lj/cut, perpetual
      attributes: half, newton on
      pair build: half/bin/newton
      stencil: half/bin/3d/newton
      bin: standard
Setting up cg style minimization ...
  Unit style    : real
  Current step  : 0
Per MPI rank memory allocation (min/avg/max) = 1.481 | 3.433 | 9.605 Mbytes
Step Temp E_pair E_mol TotEng Press 
       0    30.664295   -7166.3122    33036.681    27149.939  -0.13318831 
    1476    30.664295   -7940.1248    4005.8208   -2654.7333  0.019635928 
Loop time of 2.99009 on 28 procs for 1476 steps with 14000 atoms

99.5% CPU use with 28 MPI tasks x no OpenMP threads

Minimization stats:
  Stopping criterion = energy tolerance
  Energy initial, next-to-last, final = 
         25870.3685117     -3934.04677428     -3934.30405317
  Force two-norm initial, final = 374.999 2.90704
  Force max component initial, final = 10.8828 0.943079
  Final line search alpha, max atom move = 0.11365 0.107181
  Iterations, force evaluations = 1476 1604

MPI task timing breakdown:
Section |  min time  |  avg time  |  max time  |%varavg| %total
---------------------------------------------------------------
Pair    | 6.0905e-05 | 0.21327    | 1.5562     | 107.6 |  7.13
Bond    | 0.00012373 | 0.022135   | 0.15348    |  33.3 |  0.74
Neigh   | 0.45662    | 0.46717    | 0.47441    |   0.9 | 15.62
Comm    | 0.014314   | 0.60561    | 1.9148     | 105.3 | 20.25
Output  | 0          | 0          | 0          |   0.0 |  0.00
Modify  | 0          | 0          | 0          |   0.0 |  0.00
Other   |            | 1.682      |            |       | 56.25

Nlocal:    500 ave 3436 max 0 min
Histogram: 24 0 0 0 0 0 0 0 1 3
Nghost:    362.036 ave 1852 max 0 min
Histogram: 17 4 3 0 0 0 0 0 0 4
Neighs:    10642.4 ave 75508 max 0 min
Histogram: 24 0 0 0 0 0 0 0 2 2

Total # of neighbors = 297986
Ave neighs/atom = 21.2847
Ave special neighs/atom = 9.39243
Neighbor list builds = 92
Dangerous builds = 0
Setting up Verlet run ...
  Unit style    : real
  Current step  : 1476
  Time step     : 0.1
Per MPI rank memory allocation (min/avg/max) = 1.443 | 3.124 | 8.48 Mbytes
Step Temp E_pair E_mol TotEng Press 
    1476    30.664295   -7940.1248    4005.8208   -2654.7333  0.019635928 
   11476     268.0334   -6552.9256    10759.383    15391.052 -0.040797658 
Loop time of 10.1644 on 28 procs for 10000 steps with 14000 atoms

Performance: 8.500 ns/day, 2.823 hours/ns, 983.831 timesteps/s
99.5% CPU use with 28 MPI tasks x no OpenMP threads

MPI task timing breakdown:
Section |  min time  |  avg time  |  max time  |%varavg| %total
---------------------------------------------------------------
Pair    | 0.00034288 | 0.82046    | 6.0777     | 213.0 |  8.07
