LAMMPS (5 Jun 2019)
Reading data file ...
  orthogonal box = (-1020 -1020 -1020) to (1020 1020 1020)
  2 by 2 by 7 MPI processor grid
  reading atoms ...
  14000 atoms
  reading velocities ...
  14000 velocities
  scanning bonds ...
  2 = max bonds/atom
  scanning angles ...
  1 = max angles/atom
  reading bonds ...
  15734 bonds
  reading angles ...
  13600 angles
Finding 1-2 1-3 1-4 neighbors ...
  special bond factors lj:   0          0          0         
  special bond factors coul: 0          0          0         
  3 = max # of 1-2 neighbors
  4 = max # of 1-3 neighbors
  8 = max # of 1-4 neighbors
  11 = max # of special neighbors
  special bonds CPU = 0.78037 secs
  read_data CPU = 0.905015 secs
Finding 1-2 1-3 1-4 neighbors ...
  special bond factors lj:   1          1          1         
  special bond factors coul: 0          0          0         
  3 = max # of 1-2 neighbors
  4 = max # of 1-3 neighbors
  8 = max # of 1-4 neighbors
  11 = max # of special neighbors
  special bonds CPU = 0.00174172 secs
WARNING: Using 'neigh_modify every 1 delay 0 check yes' setting during minimization (../min.cpp:168)
Neighbor list info ...
  update every 1 steps, delay 0 steps, check yes
  max neighbors/atom: 2000, page size: 100000
  master list distance cutoff = 26.9
  ghost atom cutoff = 26.9
  binsize = 13.45, bins = 152 152 152
  1 neighbor lists, perpetual/occasional/extra = 1 0 0
  (1) pair lj/cut, perpetual
      attributes: half, newton on
      pair build: half/bin/newton
      stencil: half/bin/3d/newton
      bin: standard
Setting up cg style minimization ...
  Unit style    : real
  Current step  : 0
Per MPI rank memory allocation (min/avg/max) = 1.481 | 3.433 | 9.605 Mbytes
Step Temp E_pair E_mol TotEng Press 
       0    30.664295   -7166.3122    81991.711     76104.97  -0.13689457 
    1534    30.664295    -6561.082    10590.414    5308.9026  0.059867704 
Loop time of 2.50136 on 28 procs for 1534 steps with 14000 atoms

99.4% CPU use with 28 MPI tasks x no OpenMP threads

Minimization stats:
  Stopping criterion = energy tolerance
  Energy initial, next-to-last, final = 
         74825.3992582      4029.72881206      4029.33185017
  Force two-norm initial, final = 503.419 4.34071
  Force max component initial, final = 11.6699 1.53643
  Final line search alpha, max atom move = 0.0635366 0.0976195
  Iterations, force evaluations = 1534 1558

MPI task timing breakdown:
Section |  min time  |  avg time  |  max time  |%varavg| %total
---------------------------------------------------------------
Pair    | 6.0365e-05 | 0.1997     | 1.4374     | 103.9 |  7.98
Bond    | 0.00013201 | 0.021615   | 0.14886    |  32.6 |  0.86
Neigh   | 0.56376    | 0.57655    | 0.5856     |   1.2 | 23.05
Comm    | 0.010015   | 0.52159    | 1.7127     | 101.3 | 20.85
Output  | 0          | 0          | 0          |   0.0 |  0.00
Modify  | 0          | 0          | 0          |   0.0 |  0.00
Other   |            | 1.182      |            |       | 47.25

Nlocal:    500 ave 3361 max 0 min
Histogram: 24 0 0 0 0 0 0 0 1 3
Nghost:    361.179 ave 1865 max 0 min
Histogram: 16 5 3 0 0 0 0 0 0 4
Neighs:    9769.36 ave 67982 max 0 min
Histogram: 24 0 0 0 0 0 0 0 1 3

Total # of neighbors = 273542
Ave neighs/atom = 19.5387
Ave special neighs/atom = 9.39243
Neighbor list builds = 117
Dangerous builds = 0
Setting up Verlet run ...
  Unit style    : real
  Current step  : 1534
  Time step     : 0.1
Per MPI rank memory allocation (min/avg/max) = 1.443 | 3.125 | 8.48 Mbytes
Step Temp E_pair E_mol TotEng Press 
    1534    30.664295    -6561.082    10590.414    5308.9026  0.059867704 
   11534      270.466   -5475.8522    18405.544    24215.795  0.017941846 
Loop time of 8.9906 on 28 procs for 10000 steps with 14000 atoms

Performance: 9.610 ns/day, 2.497 hours/ns, 1112.273 timesteps/s
99.3% CPU use with 28 MPI tasks x no OpenMP threads

MPI task timing breakdown:
Section |  min time  |  avg time  |  max time  |%varavg| %total
---------------------------------------------------------------
Pair    | 0.00033882 | 0.75491    | 5.5157     | 203.6 |  8.40
Bond    | 0.00058952 | 0.11366    | 0.77727    |  74.1 |  1.26
Neigh   | 0.023569   | 0.025036   | 0.026183   |   0.7 |  0.28
Comm    | 0.0032847  | 2.1095     | 6.8907     | 203.7 | 23.46
Output  | 0.00011274 | 0.00089143 | 0.0013833  |   0.0 |  0.01
Modify  | 0.0010495  | 0.2473     | 1.6796     | 109.3 |  2.75
Other   |            | 5.739      |            |       | 63.84

Nlocal:    500 ave 3366 max 0 min
Histogram: 24 0 0 0 0 0 0 0 1 3
Nghost:    360.607 ave 1860 max 0 min
Histogram: 16 5 3 0 0 0 0 0 0 4
Neighs:    9769.68 ave 68116 max 0 min
Histogram: 24 0 0 0 0 0 0 0 1 3

Total # of neighbors = 273551
Ave neighs/atom = 19.5394
Ave special neighs/atom = 9.39243
Neighbor list builds = 5
Dangerous builds = 0
4000 atoms in group rxnSites
Neighbor list info ...
  update every 1 steps, delay 1 steps, check yes
  max neighbors/atom: 2000, page size: 100000
  master list distance cutoff = 26.9
  ghost atom cutoff = 26.9
  binsize = 13.45, bins = 152 152 152
  2 neighbor lists, perpetual/occasional/extra = 1 1 0
  (1) pair lj/cut, perpetual
      attributes: half, newton on
      pair build: half/bin/newton
      stencil: half/bin/3d/newton
      bin: standard
  (2) fix bond/create/random, occasional, copy from (1)
      attributes: half, newton on
      pair build: copy
      stencil: none
      bin: none
Setting up Verlet run ...
  Unit style    : real
  Current step  : 0
  Time step     : 25
Per MPI rank memory allocation (min/avg/max) = 8.908 | 9.843 | 12.53 Mbytes
Step E_pair PotEng KinEng E_bond E_angle Temp Bonds 
       0   -5475.8522    12929.692    11286.102   -7439.4054     25844.95      270.466    15734 
 1000000   -3267.5591    6854.7531    13045.989   -5707.7974     15830.11    312.64083    15518 
 2000000   -3092.0326    5817.7829    12938.673   -5797.4434    14707.259    310.06905    15526 
 3000000    -3074.196    5350.2538    12931.441   -5714.6318    14139.082    309.89574    15537 
 4000000   -3133.5687    4851.5612    12922.516   -5965.0079    13950.138    309.68185    15556 
 5000000   -3104.0801    4568.6294    12898.293   -5969.3505     13642.06    309.10137    15574 
 6000000   -3012.9988    4555.8763    12988.841   -5947.7965    13516.672    311.27132    15573 
 7000000   -3041.5949    4257.9181    12946.126   -6093.6049    13393.118    310.24766    15582 
 8000000   -3095.2416    4016.9544    12776.335   -6169.2879    13281.484    306.17871    15594 
 9000000   -3128.1752    3918.8069    12809.918   -6127.7628    13174.745     306.9835    15596 
10000000   -3020.8477    3933.9884    12856.972   -6031.0003    12985.836    308.11113    15586 
11000000   -2955.8085    3704.4641    12832.511   -6114.0267    12774.299    307.52494    15595 
12000000   -3036.7001    3667.4163    12926.152   -6090.7825    12794.899    309.76899    15585 
13000000   -3067.5201    3482.1401    12950.733    -6103.997    12653.657    310.35807    15580 
14000000   -3046.2855    3315.0049    13001.787   -6168.3583    12529.649    311.58154    15599 
15000000   -3102.8146    3133.1876    12914.678   -6148.2805    12384.283    309.49402    15608 
16000000   -3083.0699    3176.0359    12908.132   -6171.0449    12430.151    309.33716    15605 
17000000   -3055.8138    3124.7518    12893.326   -6178.6303    12359.196    308.98235    15599 
18000000   -3123.6446     2885.382    12800.553   -6233.7826    12242.809    306.75908    15601 
19000000   -3065.9068    3019.4053     12887.45    -6163.455    12248.767    308.84151    15607 
20000000   -3104.2829    2808.2574    12950.123   -6231.9452    12144.486    310.34345    15605 
21000000   -3088.6072    2800.0803    12905.187   -6171.6825     12060.37    309.26658    15611 
22000000   -3043.1374     2950.097    12865.015   -6239.0769    12232.311    308.30387    15612 
23000000   -3117.1057    2747.9809    13019.118   -6314.9075    12179.994    311.99688    15620 
24000000   -3072.3314    2809.7508    12913.202   -6205.5646    12087.647    309.45866    15620 
25000000   -3142.7796     2712.654    12945.868    -6367.383    12222.817    310.24148    15627 
26000000   -3107.4365    2555.1752    12698.908   -6319.0675    11981.679     304.3232    15630 
27000000   -3045.7285    2602.7259    13097.031   -6374.4861    12022.941    313.86402    15631 
28000000    -3105.002    2500.1297    12904.757   -6492.0663    12097.198    309.25627    15633 
29000000   -3065.2475    2471.6532    12886.891   -6380.2161    11917.117    308.82813    15627 
30000000    -3081.536    2361.3818    12901.278    -6396.923    11839.841     309.1729    15627 
31000000     -3162.59    2512.0181    12871.637    -6330.824    12005.432    308.46257    15628 
32000000   -3152.8587    2511.9833    12961.527   -6236.4878     11901.33    310.61673    15628 
33000000   -3181.8224    2443.6852    13058.471   -6301.7171    11927.225    312.93994    15623 
34000000   -3161.8887    2516.7017    13098.304   -6259.9762    11938.567    313.89452    15620 
35000000   -3172.2366    2248.6809    12930.664   -6234.8578    11655.775    309.87711    15621 
36000000   -3118.5633    2426.6743    12880.544   -6202.1667    11747.404    308.67603    15625 
37000000   -3154.0865    2350.0183    13024.314   -6368.7165    11872.821     312.1214    15623 
38000000   -3181.7318    2139.0415    12953.491    -6346.898    11667.671    310.42416    15632 
39000000   -3107.1257    2388.0333    12982.926   -6301.5268    11796.686    311.12954    15634 
40000000   -3162.9748    2227.3221    12944.029   -6396.5142    11786.811     310.1974    15636 
41000000   -3174.8997    2291.7258    13102.258   -6307.0233    11773.649    313.98929    15637 
42000000   -3182.2035     2175.614    12947.347   -6363.4903    11721.308    310.27691    15636 
43000000   -3169.4109    2251.3985    12973.698   -6271.9887    11692.798     310.9084    15626 
44000000   -3211.7843    2096.5553    13027.722   -6442.8592    11751.199    312.20307    15642 
45000000    -3171.544    2166.4366     12948.32   -6221.4391     11559.42    310.30025    15626 
46000000    -3201.012    2085.3097    12887.473   -6438.0994    11724.421    308.84207    15637 
47000000   -3221.5951    1998.2204    12818.255   -6359.9838    11579.799    307.18328    15639 
48000000   -3221.1327    2030.1059    12659.035   -6341.0984    11592.337    303.36767    15631 
49000000   -3162.3752    1995.2537     13049.65   -6362.3651    11519.994    312.72857    15632 
50000000    -3187.086    1987.4673    12982.986   -6454.5855    11629.139      311.131    15644 
51000000   -3201.7441    1791.2292      12845.6   -6467.6893    11460.663     307.8386    15645 
52000000   -3218.2837    1799.1248    12944.448   -6444.9758    11462.384    310.20745    15642 
53000000   -3230.7417    1976.0928    12945.156   -6336.7962    11543.631    310.22441    15644 
54000000   -3239.3016    1794.0818    13027.794   -6368.4349    11401.818     312.2048    15646 
55000000   -3229.0829    1670.9037    13088.253   -6535.1586    11435.145    313.65367    15649 
56000000   -3243.0688     1776.592    13052.421   -6359.5191     11379.18    312.79498    15645 
57000000   -3223.0139    1901.5252    12838.928   -6363.6924    11488.232    307.67871    15644 
58000000   -3201.2071    1633.8982    12888.528   -6516.8121    11351.917    308.86736    15657 
59000000   -3244.5242    1927.8923    12942.655   -6330.8759    11503.292    310.16449    15646 
60000000   -3219.5796    1661.4719    13004.986   -6524.4821    11405.534    311.65821    15657 
61000000   -3211.9636    1736.3015    12929.584   -6503.9222    11452.187    309.85124    15652 
62000000   -3210.7899    1650.8538    12859.474   -6474.3944    11336.038    308.17109    15654 
63000000    -3237.331    1679.9045    12929.867    -6499.648    11416.883    309.85803    15656 
64000000   -3250.4978    1570.9043    12986.616    -6462.426    11283.828    311.21799    15650 
65000000   -3296.3741    1517.0639    12926.583   -6550.1256    11363.564    309.77931    15658 
66000000   -3227.2151    1443.5172    13020.006   -6578.4436    11249.176    312.01815    15652 
67000000    -3252.254    1624.3252    12909.314   -6379.2831    11255.862    309.36548    15650 
