LAMMPS (5 Jun 2019)
Reading data file ...
  orthogonal box = (-1020 -1020 -1020) to (1020 1020 1020)
  2 by 2 by 7 MPI processor grid
  reading atoms ...
  14000 atoms
  reading velocities ...
  14000 velocities
  scanning bonds ...
  2 = max bonds/atom
  scanning angles ...
  1 = max angles/atom
  reading bonds ...
  15734 bonds
  reading angles ...
  13600 angles
Finding 1-2 1-3 1-4 neighbors ...
  special bond factors lj:   0          0          0         
  special bond factors coul: 0          0          0         
  3 = max # of 1-2 neighbors
  4 = max # of 1-3 neighbors
  8 = max # of 1-4 neighbors
  11 = max # of special neighbors
  special bonds CPU = 2.28055 secs
  read_data CPU = 2.54305 secs
Finding 1-2 1-3 1-4 neighbors ...
  special bond factors lj:   1          1          1         
  special bond factors coul: 0          0          0         
  3 = max # of 1-2 neighbors
  4 = max # of 1-3 neighbors
  8 = max # of 1-4 neighbors
  11 = max # of special neighbors
  special bonds CPU = 0.00165752 secs
WARNING: Using 'neigh_modify every 1 delay 0 check yes' setting during minimization (../min.cpp:168)
Neighbor list info ...
  update every 1 steps, delay 0 steps, check yes
  max neighbors/atom: 2000, page size: 100000
  master list distance cutoff = 26.9
  ghost atom cutoff = 26.9
  binsize = 13.45, bins = 152 152 152
  1 neighbor lists, perpetual/occasional/extra = 1 0 0
  (1) pair lj/cut, perpetual
      attributes: half, newton on
      pair build: half/bin/newton
      stencil: half/bin/3d/newton
      bin: standard
Setting up cg style minimization ...
  Unit style    : real
  Current step  : 0
Per MPI rank memory allocation (min/avg/max) = 1.481 | 3.433 | 9.605 Mbytes
Step Temp E_pair E_mol TotEng Press 
       0    30.664295   -7166.3122    15248.721    9361.9798  -0.13318831 
     488    30.664295   -8281.0926    770.64187     -6230.88  0.007518378 
Loop time of 1.03181 on 28 procs for 488 steps with 14000 atoms

99.3% CPU use with 28 MPI tasks x no OpenMP threads

Minimization stats:
  Stopping criterion = energy tolerance
  Energy initial, next-to-last, final = 
         8082.40908973     -7509.70791959     -7510.45071834
  Force two-norm initial, final = 352.139 5.57084
  Force max component initial, final = 10.6204 2.12621
  Final line search alpha, max atom move = 0.0561105 0.119303
  Iterations, force evaluations = 488 489

MPI task timing breakdown:
Section |  min time  |  avg time  |  max time  |%varavg| %total
---------------------------------------------------------------
Pair    | 1.9262e-05 | 0.077288   | 0.72716    |  67.3 |  7.49
Bond    | 4.0707e-05 | 0.0069117  | 0.048225   |  18.7 |  0.67
Neigh   | 0.14578    | 0.14859    | 0.15067    |   0.5 | 14.40
Comm    | 0.0018765  | 0.26816    | 0.81699    |  68.2 | 25.99
Output  | 0          | 0          | 0          |   0.0 |  0.00
Modify  | 0          | 0          | 0          |   0.0 |  0.00
Other   |            | 0.5309     |            |       | 51.45

Nlocal:    500 ave 3451 max 0 min
Histogram: 24 0 0 0 0 0 0 0 1 3
Nghost:    361.929 ave 1918 max 0 min
Histogram: 17 4 3 0 0 0 0 0 0 4
Neighs:    11081.5 ave 78374 max 0 min
Histogram: 24 0 0 0 0 0 0 0 2 2

Total # of neighbors = 310281
Ave neighs/atom = 22.1629
Ave special neighs/atom = 9.39243
Neighbor list builds = 30
Dangerous builds = 0
Setting up Verlet run ...
  Unit style    : real
  Current step  : 488
  Time step     : 0.1
Per MPI rank memory allocation (min/avg/max) = 1.443 | 3.124 | 8.48 Mbytes
Step Temp E_pair E_mol TotEng Press 
     488    30.664295   -8281.0926    770.64187     -6230.88  0.007518378 
   10488    269.18309   -6903.3942    6560.6677    10889.843 -0.076077655 
Loop time of 9.7925 on 28 procs for 10000 steps with 14000 atoms

Performance: 8.823 ns/day, 2.720 hours/ns, 1021.190 timesteps/s
99.3% CPU use with 28 MPI tasks x no OpenMP threads

MPI task timing breakdown:
Section |  min time  |  avg time  |  max time  |%varavg| %total
---------------------------------------------------------------
Pair    | 0.00034151 | 0.8713     | 6.3156     | 220.7 |  8.90
Bond    | 0.00057609 | 0.11503    | 0.80215    |  76.4 |  1.17
Neigh   | 0.024876   | 0.026017   | 0.02701    |   0.6 |  0.27
Comm    | 0.0028056  | 2.3324     | 7.6871     | 217.7 | 23.82
Output  | 0.00011026 | 0.00095412 | 0.0015043  |   0.0 |  0.01
Modify  | 0.00098031 | 0.25086    | 1.7187     | 112.7 |  2.56
Other   |            | 6.196      |            |       | 63.27

Nlocal:    500 ave 3456 max 0 min
Histogram: 24 0 0 0 0 0 0 0 1 3
Nghost:    361.786 ave 1917 max 0 min
Histogram: 17 4 3 0 0 0 0 0 0 4
Neighs:    11096 ave 78712 max 0 min
Histogram: 24 0 0 0 0 0 0 0 2 2

Total # of neighbors = 310687
Ave neighs/atom = 22.1919
Ave special neighs/atom = 9.39243
Neighbor list builds = 5
Dangerous builds = 0
4000 atoms in group rxnSites
Neighbor list info ...
  update every 1 steps, delay 1 steps, check yes
  max neighbors/atom: 2000, page size: 100000
  master list distance cutoff = 26.9
  ghost atom cutoff = 26.9
  binsize = 13.45, bins = 152 152 152
  2 neighbor lists, perpetual/occasional/extra = 1 1 0
  (1) pair lj/cut, perpetual
      attributes: half, newton on
      pair build: half/bin/newton
      stencil: half/bin/3d/newton
      bin: standard
  (2) fix bond/create/random, occasional, copy from (1)
      attributes: half, newton on
      pair build: copy
      stencil: none
      bin: none
Setting up Verlet run ...
  Unit style    : real
  Current step  : 0
  Time step     : 25
Per MPI rank memory allocation (min/avg/max) = 8.909 | 9.839 | 12.5 Mbytes
Step E_pair PotEng KinEng E_bond E_angle Temp Bonds 
       0   -6903.3942   -342.72647    11232.569   -2566.1079    9126.7756    269.18309    15734 
 1000000   -3468.7143    4569.3382    12889.562   -1167.3414    9205.3938    308.89212    15397 
 2000000   -3286.4935    4533.8206    12880.231   -1170.8687    8991.1828    308.66852    15400 
 3000000   -3319.5998    4277.4443     12873.96   -1291.5942    8888.6384    308.51824    15408 
 4000000   -3287.4292    4508.6334    12999.552   -1138.3994    8934.4621    311.52799    15358 
 5000000   -3251.3414    4636.1327    12879.265    -1076.786    8964.2601    308.64536    15357 
 6000000   -3287.0433    4676.1868    12919.026   -979.96921    8943.1993    309.59822    15350 
 7000000   -3258.3847    4489.8431    13074.573   -1059.3098    8807.5377    313.32583    15369 
 8000000   -3399.9832    4377.9132    12867.823   -1079.9928    8857.8892    308.37116    15362 
 9000000   -3316.6796    4288.1039    12964.956   -1210.0109    8814.7944    310.69891    15372 
10000000   -3324.3386    4272.6874    12912.436   -1066.4787    8663.5047    309.44029    15369 
11000000   -3502.7106    4312.5128    12775.938   -1141.9345    8957.1579    306.16918    15398 
12000000   -3571.0022    4077.9799    12940.724    -1158.972    8807.9542     310.1182    15398 
13000000   -3399.7727    4110.8216    12933.511   -1230.4234    8741.0178    309.94535    15388 
14000000   -3510.5437    3920.9687    12948.478   -1307.8253    8739.3377    310.30403    15387 
15000000   -3520.6615     4150.833    12952.563   -1147.3324    8818.8268    310.40192    15386 
16000000   -3510.4421     4037.729    12996.666   -1153.1647    8701.3357    311.45882    15384 
17000000   -3544.7701    3789.4587    12841.699   -1243.8727    8578.1015    307.74513    15392 
18000000   -3636.6038    3646.6295    12972.052   -1348.2521    8631.4854    310.86898    15412 
19000000   -3617.7132    3646.4421    12820.343   -1314.9097     8579.065    307.23333    15422 
20000000   -3632.5763    3759.6502    12935.752   -1182.6164     8574.843    309.99906    15416 
21000000   -3636.9356    3821.2772     12884.46   -1063.2097    8521.4226    308.76986    15398 
22000000   -3706.4213    3715.4516    12915.155   -1219.8149    8641.6878    309.50546    15403 
23000000   -3570.1371    3895.6475    13014.553   -1150.9302    8616.7147    311.88748    15377 
24000000   -3614.7589    3842.1949    12906.015   -1295.1344    8752.0882    309.28642    15399 
25000000   -3729.9182    3703.7959    12938.013   -1294.1495    8727.8636    310.05324    15411 
26000000   -3598.2527    3809.8318    12956.091   -1199.3485     8607.433    310.48647    15384 
27000000   -3690.7707    3725.1272    13015.233   -1202.0719    8617.9697    311.90377    15409 
28000000   -3593.6303    3888.0018    12919.722   -1188.5167    8670.1489     309.6149    15386 
29000000   -3652.1043    3796.4486    12931.635   -1195.0645    8643.6174     309.9004    15403 
30000000   -3847.0996    3418.6016    13028.612   -1369.8055    8635.5067    312.22439    15422 
31000000   -3775.3741    3646.3139    12868.731   -1198.8163    8620.5043    308.39292    15392 
32000000   -3654.6387    3709.2537    12979.385   -1298.1029    8661.9952    311.04469    15399 
33000000   -3693.0348    3786.6537    12929.876    -1153.878    8633.5665    309.85824    15402 
34000000   -3732.1952    3791.3396    12933.622   -1144.6066    8668.1414      309.948    15395 
35000000   -3652.6591    3753.2625    12987.698   -1196.8624    8602.7841    311.24392    15380 
36000000   -3680.2286    3610.9399    12967.005   -1203.9046    8495.0731    310.74802    15399 
37000000   -3815.3936    3492.5871    12835.743   -1218.9688    8526.9495    307.60239    15422 
38000000   -3765.5674    3642.0961    12964.707   -1239.3096    8646.9731    310.69293    15420 
39000000   -3789.8726    3466.8379    12905.362   -1237.2023    8493.9127    309.27078    15432 
40000000   -3759.3611    3595.8621    12902.884   -1222.8507    8578.0738    309.21138    15407 
41000000   -3767.5394    3458.8241    12860.591    -1356.293    8582.6566    308.19785    15437 
42000000   -3775.8519    3381.3474     12892.69   -1327.5135    8484.7128    308.96708    15425 
43000000   -3853.6497    3477.4992    12909.537    -1212.161    8543.3099    309.37082    15418 
44000000   -3747.6285     3560.283    13013.274   -1236.7567    8544.6682    311.85683    15392 
45000000   -3766.4353    3378.0107    12873.882   -1326.6458    8471.0919    308.51638    15426 
46000000   -3758.1102     3468.273    12958.721   -1282.7923    8509.1754     310.5495    15418 
47000000   -3820.1809    3715.2031    13006.496   -1184.3921    8719.7761    311.69439    15390 
48000000    -3785.915    3519.1133     12987.25   -1238.2886    8543.3169    311.23319    15412 
49000000   -3844.7707    3432.2629    12946.789   -1219.3368    8496.3704    310.26354    15418 
50000000   -3751.8909    3663.8074    12883.653   -1170.1915    8585.8897    308.75052    15402 
51000000   -3842.9395    3442.9753    12962.532   -1249.9372     8535.852    310.64082    15418 
52000000   -3877.7909    3343.3933    13140.207   -1276.8643    8498.0485    314.89871    15421 
53000000   -3778.4945    3384.0566    12973.896   -1214.3007    8376.8518    310.91315    15415 
54000000   -3817.1428    3379.1342    12905.219   -1229.7058    8425.9828    309.26735    15409 
55000000   -3920.6649    3331.2893    12847.731    -1285.921    8537.8752    307.88966    15434 
56000000   -3836.0276    3400.0136    12925.386   -1247.0156    8483.0569    309.75064    15405 
57000000   -3832.3281    3304.4772    12918.382   -1451.0479    8587.8532     309.5828    15443 
58000000   -3762.1408    3446.0183    12948.781   -1254.8331    8462.9922    310.31127    15410 
59000000   -3846.6924    3421.5722    12871.609    -1314.021    8582.2856    308.46189    15413 
60000000   -3840.6897    3462.4394    12982.371   -1302.5226    8605.6517    311.11625    15435 
61000000   -3740.1077    3679.5714    12865.222   -1125.3482    8545.0273    308.30883    15414 
62000000   -3810.0552    3438.4392    12766.194   -1288.4288    8536.9233    305.93568    15423 
63000000   -3697.0187    3390.5553    12917.062   -1361.1795    8448.7536    309.55116    15430 
64000000    -3736.417    3522.1089    12871.994   -1148.2339    8406.7598    308.47112    15408 
65000000   -3639.3858    3598.0482    13031.677   -1233.2521    8470.6862    312.29786    15404 
66000000   -3827.8988    3495.1876    13003.051   -1229.0286     8552.115    311.61185    15420 
67000000   -3737.2161    3528.2097    12841.402   -1297.0628    8562.4886    307.73799    15418 
68000000   -3768.2802    3322.6488    12740.672     -1363.33     8454.259    305.32405    15435 
69000000   -3734.6016    3706.5536      12927.6   -1225.5796    8666.7348     309.8037    15401 
70000000   -3880.6031    3412.3099    12942.026   -1258.3361    8551.2491     310.1494    15423 
71000000    -3816.953    3523.7265    12858.263   -1310.8999    8651.5794    308.14206    15433 
72000000   -3808.8416    3540.6849    13124.985   -1180.3305     8529.857    314.53393    15386 
73000000   -3764.7759    3377.4479    12907.077   -1244.7456    8386.9694    309.31186    15410 
74000000   -3795.6861    3445.9846    12802.611   -1203.6884     8445.359    306.80839    15396 
75000000   -3844.0831    3516.4709    12943.377   -1237.8663    8598.4204    310.18179    15427 
76000000   -3741.5946     3701.182    12823.741   -1237.8632    8680.6397    307.31477    15409 
77000000   -3850.3322    3521.4684     12930.78   -1288.7959    8660.5965    309.87991    15437 
78000000   -3750.9961     3335.907    12967.758   -1334.7973    8421.7005    310.76606    15426 
79000000    -3822.073     3490.655    13013.858   -1183.1621    8495.8901    311.87084    15398 
80000000   -3784.1399    3536.6545    12982.276   -1244.9436     8565.738    311.11399    15412 
81000000   -3811.8315    3575.7684    12937.153    -1288.339    8675.9389    310.03262    15422 
82000000   -3923.3201     3420.465    12972.578   -1212.8871    8556.6722    310.88156    15429 
83000000   -3884.9613    3347.8973    12882.723   -1227.3552    8460.2137    308.72824    15405 
84000000   -3762.2084    3513.1624    12790.346   -1295.3613    8570.7322    306.51446    15424 
85000000    -3910.866    3254.4535    12976.402   -1349.9737    8515.2932    310.97321    15434 
86000000   -3841.5522    3517.5923    12742.041   -1258.2011    8617.3456    305.35686    15417 
87000000     -3787.32    3424.5717     12869.75   -1341.0478    8552.9395    308.41734    15437 
88000000   -3814.9637    3520.6175    12880.447   -1284.4145    8619.9958    308.67369    15417 
89000000   -3824.0565    3418.3015    12918.056   -1275.9077    8518.2657    309.57498    15417 
90000000   -3811.6649    3566.3691    12947.569   -1145.9176    8523.9516    310.28224    15410 
91000000   -3646.5561    3753.2603    12988.019    -1189.029    8588.8453     311.2516    15394 
92000000   -3849.2467     3255.111    12962.191    -1341.495    8445.8527    310.63264    15423 
93000000   -3887.2648    3372.1241    12794.414   -1321.9987    8581.3876    306.61196    15440 
94000000   -3865.1822    3174.4891    12927.065   -1296.6514    8336.3227    309.79088    15433 
95000000   -3818.2182    3357.2798     13028.28   -1264.0121      8439.51    312.21643    15425 
96000000   -3842.7206    3509.3971    12940.915   -1303.6734    8655.7911    310.12277    15418 
97000000   -3852.3342    3519.6414    12751.142    -1246.666    8618.6416    305.57496    15410 
98000000    -3847.302    3483.6395    12860.479   -1227.1579    8558.0994    308.19517    15422 
99000000   -3813.0416    3247.1683    12944.473   -1440.5553    8500.7652    310.20806    15440 
100000000   -3862.7405    3451.6298     12959.66   -1323.3865    8637.7568      310.572    15424 
101000000   -3869.7441    3620.6409    13104.612   -1132.8912    8623.2761    314.04571    15414 
102000000   -3837.4821    3348.1514    13009.036   -1351.9654    8537.5989    311.75527    15430 
103000000   -3860.5284    3399.6515     12853.15   -1316.5889    8576.7689    308.01953    15405 
104000000   -3940.3557    3334.6559    13082.211    -1345.532    8620.5437    313.50887    15430 
105000000   -3896.6095     3182.437    12928.299   -1252.2211    8331.2676    309.82044    15431 
106000000    -3857.881    3461.8356    12990.161   -1245.9216    8565.6383    311.30293    15408 
107000000   -3852.5841    3420.1836    12827.392   -1238.7244    8511.4921    307.40226    15418 
108000000   -3814.4884    3367.9704    12968.304   -1280.8964    8463.3552    310.77915    15440 
109000000   -3852.2524    3210.8101    12895.882   -1303.5862    8366.6488    309.04358    15411 
110000000   -3860.6488    3316.8534    12926.159   -1303.4778      8480.98    309.76917    15434 
111000000    -3943.612    3256.8978    12763.916   -1347.4563    8547.9661    305.88109    15427 
112000000    -3928.941    3349.9566    12883.495   -1266.0081    8544.9057    308.74674    15413 
113000000   -3851.1899    3449.7299    13000.854   -1217.1793    8518.0991    311.55918    15407 
114000000   -3885.9033    3403.4977    12915.399   -1204.1724    8493.5733    309.51131    15414 
115000000   -3865.5171    3176.1991    12678.049   -1397.2869    8439.0031    303.82333    15431 
116000000   -3839.4766    3251.4795    12863.122   -1391.9791    8482.9351     308.2585    15434 
117000000   -3887.5042    3286.0955    13008.033   -1279.5644     8453.164    311.73124    15423 
118000000   -3863.7481     3315.483    12943.182   -1376.0277    8555.2588    310.17712    15447 
119000000    -3831.633     3387.921     12896.18   -1276.7208    8496.2748    309.05073    15422 
120000000   -3812.3184    3459.6086    12873.965   -1281.8163    8553.7433    308.51836    15441 
121000000   -3918.7614    3203.9882    12835.565   -1390.7922    8513.5418    307.59813    15432 
122000000   -3872.9228    3302.7778    12952.225   -1340.5886    8516.2892    310.39381    15438 
123000000    -3967.001    3456.6003    12902.483   -1200.3955    8623.9968    309.20179    15417 
124000000   -3938.2014    3104.9397    12945.895   -1403.6454    8446.7865    310.24213    15443 
125000000   -3992.4348    3144.3127    12903.221   -1286.8645     8423.612    309.21946    15421 
126000000   -3934.8247    3272.9656    13019.323    -1338.867    8546.6573    312.00179    15431 
127000000   -3902.0391    3331.9863    12793.273   -1248.7156     8482.741    306.58462    15415 
128000000   -3904.9122    3391.7922    13023.185   -1215.2946     8511.999    312.09435    15412 
129000000    -3912.547    3401.0458    12908.726   -1262.1124    8575.7052    309.35139    15401 
130000000   -3858.2106    3423.5652    12844.325   -1281.8088    8563.5846    307.80805    15404 
131000000    -3938.736    3172.6494    12834.685   -1292.0653    8403.4507    307.57702    15429 
132000000   -3969.0587    3183.2397    13207.459   -1379.1574    8531.4558    316.51037    15437 
133000000   -3951.9396    3076.3011    12992.008   -1343.1675    8371.4081    311.34721    15442 
134000000   -3927.0796    3268.9418    12884.702   -1367.8464    8563.8678    308.77566    15448 
135000000   -3959.1227    3126.4241    12984.666   -1297.8005    8383.3473    311.17125    15411 
136000000   -3880.3029    3348.2175    12993.524   -1307.5725     8536.093    311.38354    15431 
137000000   -3945.2846    3289.9681    13108.216   -1294.2358    8529.4885    314.13207    15437 
138000000   -3913.3465    3230.8009    12736.435   -1298.9915    8443.1389    305.22251    15426 
139000000   -3912.9761    3235.3105    12930.839   -1392.8331    8541.1196    309.88131    15437 
140000000   -3836.0852    3313.8865    12876.925   -1330.7114    8480.6831    308.58928    15433 
141000000   -3914.5748    3307.8834    12876.902   -1267.1606    8489.6188    308.58873    15422 
142000000   -3844.5814    3371.5609    12835.347   -1183.9686    8400.1108    307.59289    15407 
143000000   -3868.1299    3277.7205    12943.237   -1319.7931    8465.6434    310.17842    15429 
144000000   -3917.4904    3118.5256    12929.505   -1431.9062    8467.9221    309.84935    15448 
145000000   -3849.9248     3271.616    12942.949   -1292.4819    8414.0226    310.17151    15431 
146000000   -3900.8859    3410.2967      12871.8   -1180.9249    8492.1075    308.46647    15422 
147000000   -3919.3212    3157.2463    12975.433   -1335.2999    8411.8673    310.94998    15435 
148000000   -3881.7419    3435.3572     12947.66   -1226.0805    8543.1796    310.28443    15416 
149000000   -3891.1746    3436.9497    12899.865    -1249.675    8577.7993    309.13903    15393 
150000000   -3884.2251    3320.3704    12987.689   -1214.9687    8419.5641    311.24369    15418 
151000000   -3904.3316    3255.4512    12979.399   -1364.9189    8524.7018    311.04504    15432 
152000000   -3948.1508     3141.517     12933.19   -1321.3613    8411.0291    309.93765    15417 
153000000   -3833.5964    3384.9561    12921.563   -1260.3567    8478.9092    309.65903    15396 
154000000   -3886.7319    3260.6429    12951.887   -1310.0454    8457.4202    310.38572    15418 
155000000   -3955.4683    3296.5461    13184.175   -1304.8708    8556.8853    315.95239    15400 
156000000   -3954.6453     3249.397    12999.032   -1247.4414    8451.4837    311.51553    15421 
157000000   -3911.8126    3349.8049    13094.566   -1186.7937    8448.4112    313.80496    15409 
158000000   -3949.4849    3105.2858     12814.41   -1395.5575    8450.3282    307.09114    15450 
159000000   -3931.8824    3424.1123     12892.13   -1274.9054    8630.9001    308.95368    15415 
160000000   -3980.3116    3145.9194    12927.568    -1317.034     8443.265    309.80292    15419 
161000000   -3877.0676    3259.9828    12849.689   -1272.3112    8409.3616    307.93659    15416 
162000000   -3962.3606     3115.572    12968.683    -1320.739    8398.6716    310.78822    15434 
163000000   -3928.1765    3390.4737    12961.297    -1198.553    8517.2033    310.61122    15405 
164000000   -3901.9399    3202.8744    13071.907   -1427.2015    8532.0158    313.26195    15438 
165000000   -3901.0066    3108.2873    12990.152   -1293.0022     8302.296    311.30271    15405 
166000000   -3826.5602    3524.7006    12805.583   -1130.0801    8481.3408    306.87961    15397 
167000000   -3840.3832    3302.6179    13020.109   -1312.2805    8455.2816    312.02062    15413 
168000000   -3944.2537    3272.6647     12965.96   -1336.5596     8553.478    310.72298    15424 
169000000   -3879.2963    3262.3575    12902.379   -1366.6958    8508.3495    309.19928    15414 
170000000   -3921.7384     3298.989    12904.372    -1319.194    8539.9214    309.24704    15425 
171000000   -3943.7512    3130.2549    12875.383   -1271.7681    8345.7742    308.55234    15428 
172000000   -3914.0991    3092.9976    12870.349   -1391.9774     8399.074     308.4317    15464 
173000000   -3940.0939    3269.6329    12945.256   -1262.1931    8471.9199    310.22681    15425 
174000000   -3942.5721    3144.5875    12922.889    -1326.093    8413.2527    309.69079    15435 
175000000   -3999.9293    3225.7537    13051.093   -1296.2692    8521.9521    312.76314    15418 
176000000     -3935.25    3226.6629    12819.886   -1254.4539    8416.3668    307.22239    15410 
177000000   -3856.6473     3221.891    12866.674    -1378.214    8456.7522    308.34362    15440 
178000000   -3994.9108    3376.4295    12888.841   -1196.3933    8567.7336    308.87486    15408 
179000000   -4001.4686    3205.1823    12824.055   -1297.0986    8503.7496    307.32229    15439 
180000000   -3874.0258    3391.3279    12917.215   -1218.6995    8484.0533    309.55482    15417 
181000000     -3867.47     3214.282     12961.04   -1328.6452    8410.3972    310.60507    15416 
182000000   -3837.7659      3410.11    13130.014   -1170.6847    8418.5605    314.65444    15398 
183000000   -3856.8035    3371.4261    13000.459   -1245.9705       8474.2    311.54971    15415 
184000000   -3916.2942    3048.7946     12951.48   -1391.2075    8356.2963    310.37596    15439 
185000000   -3860.5637    3345.6922     13059.25     -1213.03    8419.2859    312.95862    15414 
186000000   -3918.7541    3362.5129    13035.249   -1281.8738    8563.1407    312.38344    15436 
187000000   -3948.2907    3201.1605    12973.054   -1264.5376    8413.9888    310.89297    15423 
188000000   -3853.5238    3376.6316    12996.399   -1215.1108    8445.2663    311.45244    15431 
189000000   -3861.1246    3247.2909    12831.079   -1270.0694    8378.4849    307.49061    15422 
190000000    -3878.824    3394.6392    13011.653   -1248.3684    8521.8316    311.81799    15421 
191000000   -3829.8169    3219.6942    12822.494   -1318.5486    8368.0597    307.28488    15419 
192000000   -3974.0354    3340.2027    12710.204   -1246.1228     8560.361    304.59389    15441 
193000000   -3968.9414     3290.219    13045.184   -1227.2522    8486.4127    312.62154    15428 
194000000   -3957.2735    3282.3817      12951.2   -1225.9172    8465.5724    310.36925    15427 
195000000   -3899.0221    3296.7437    12959.744   -1273.0751     8468.841    310.57402    15427 
196000000   -3947.0562    3405.0943    12919.831    -1283.038    8635.1885    309.61752    15415 
197000000   -3913.1943    3345.0703    12854.449    -1216.959    8475.2236    308.05066    15413 
198000000   -3858.2852    3229.1374    12855.117   -1333.1223    8420.5449    308.06667    15421 
199000000   -3991.5226    3167.2989     12902.53   -1287.6831    8446.5046    309.20291    15415 
200000000   -3958.0473    3163.0001    12959.574   -1361.6005    8482.6479    310.56993    15446 
201000000   -3798.9213    3463.5821    13016.065    -1192.745    8455.2484    311.92371    15426 
202000000   -3844.0041    3376.4511    12880.494   -1216.0477    8436.5029    308.67482    15409 
203000000   -3878.3931    3417.4357    12769.838   -1211.1981    8507.0268    306.02301    15406 
204000000   -3905.0556    3399.2714     13054.51   -1197.0548    8501.3818    312.84504    15403 
205000000   -3803.7135    3244.9754     13061.18   -1332.0353    8380.7243    313.00488    15441 
206000000   -3911.8714    3250.4226    13089.276   -1207.5679     8369.862    313.67819    15414 
207000000   -3971.7292    3198.8291    12918.967   -1264.0316    8434.5899    309.59681    15416 
208000000   -3838.8193    3411.1092    12842.012   -1222.5405    8472.4689    307.75261    15409 
209000000   -3870.1579     3206.603    12966.997   -1352.0723    8428.8331    310.74782    15428 
210000000   -3953.7401    3261.1601    12728.038   -1222.8259    8437.7261     305.0213    15434 
211000000   -3966.1309    3177.4469    13048.254   -1362.1561     8505.734    312.69511    15431 
212000000    -3879.976    3162.7657    12959.978    -1253.435    8296.1767    310.57961    15425 
213000000   -3863.2218    3306.0306    12969.224   -1333.6691    8502.9215    310.80118    15433 
214000000   -3900.7024    3378.0034    12956.145   -1210.3784    8489.0842    310.48775    15406 
215000000   -3971.1086    3243.6916    12944.141   -1234.4006    8449.2008     310.2001    15404 
216000000   -3993.4676    3174.9638    13006.838   -1232.8724    8401.3038    311.70259    15427 
217000000   -4021.3731    3077.9677    13056.247   -1185.0072    8284.3479    312.88665    15409 
218000000   -3929.0421    3204.1674    12903.318   -1306.0081    8439.2177     309.2218    15419 
219000000   -3957.6846    2999.8657    13047.078    -1357.378    8314.9283    312.66692    15433 
220000000   -3942.3663    3189.4421    12879.368    -1212.596    8344.4044    308.64783    15417 
221000000   -3944.3822    3072.2083    12964.282   -1339.7706    8356.3611    310.68275    15442 
222000000    -4064.698    3090.8376     12873.77   -1303.2967    8458.8323    308.51367    15422 
223000000   -3890.5497    3309.2422    13043.297   -1225.0593    8424.8512    312.57632    15428 
224000000   -3985.4977    3062.4909     12997.59   -1299.8909    8347.8795    311.48098    15433 
225000000   -3885.7086    3252.2321    12949.579   -1248.8262    8386.7669    310.33041    15417 
226000000   -3864.1347    3194.3397    12936.413   -1441.3772    8499.8516     310.0149    15438 
227000000   -3952.0932    3121.5374    12997.137   -1312.2752    8385.9058    311.47012    15421 
228000000   -3947.4377    3123.6004    12920.648   -1444.0891    8515.1272     309.6371    15448 
229000000   -3947.9964    3195.3117    12881.892   -1314.8078    8458.1159    308.70831    15419 
230000000   -3864.0237     3127.021    12932.968   -1370.6187    8361.6633    309.93234    15438 
231000000   -3922.6408    3303.1478    13081.003   -1293.0558    8518.8444    313.47993    15427 
232000000   -3984.3957    3096.6121    12989.042   -1196.3313    8277.3391    311.27613    15400 
233000000   -3997.2213    3018.6941    12962.164   -1345.1752    8361.0906      310.632    15445 
234000000   -4021.4897     3007.763    12916.031   -1249.4753     8278.728    309.52644    15421 
235000000   -3917.4584    3156.8364    12884.337   -1249.3433    8323.6381    308.76692    15408 
236000000   -3958.6581    3044.7941    12750.302   -1230.6423    8234.0945    305.55484    15403 
237000000   -3869.9782    3304.2919    13063.273   -1176.4622    8350.7323    313.05503    15405 
238000000   -3857.6926     3304.947    13016.197   -1310.6712    8473.3107    311.92689    15436 
239000000   -3904.5581    3283.4514    12984.081   -1248.6428    8436.6522    311.15722    15427 
240000000   -3867.1314    3293.9766    12887.272   -1291.3143    8452.4223    308.83726    15412 
241000000   -3860.6596    3267.6451    12862.221   -1288.7859    8417.0905    308.23692    15409 
242000000   -3816.5446    3125.7756    13073.028   -1475.3668     8417.687    313.28879    15434 
243000000   -3862.4443    3096.7381    13033.493   -1362.7227    8321.9051    312.34137    15423 
244000000   -3944.3748    3299.0156    13046.374   -1209.6363    8453.0267    312.65005    15416 
245000000   -3878.4366    3392.7076    12939.564   -1230.4859      8501.63    310.09041    15427 
246000000    -3896.033    3302.1017    12860.824   -1214.7188    8412.8536    308.20343    15408 
247000000   -3967.7035    3143.7025    12955.564   -1353.4345    8464.8405    310.47383    15446 
248000000   -3973.3131    3183.0511    12903.356   -1273.6515    8430.0157    309.22269    15427 
249000000   -3901.7281    3311.7502    12813.368   -1296.8765    8510.3547    307.06619    15430 
250000000   -4001.9153    3003.3644    13003.907    -1405.082    8410.3616    311.63235    15452 
251000000   -3790.5877    3177.9215    13000.217   -1320.1405    8288.6497    311.54393    15405 
252000000    -3938.672     3217.412    13071.775   -1305.9004    8461.9844    313.25878    15427 
253000000   -3795.9662    3509.7784     12805.49   -1232.2142    8537.9589    306.87738    15422 
254000000    -3760.002    3431.8413    12734.326   -1282.4318    8474.2751    305.17197    15422 
255000000   -3882.2473    3386.2374    12976.909   -1168.5228    8437.0075    310.98536    15411 
256000000    -3933.609    3060.0133    12833.756   -1399.1785    8392.8009    307.55478    15436 
257000000   -3850.8234    3302.9535     12790.98   -1163.5574    8317.3343    306.52966    15407 
258000000    -3841.815    3176.2624    12982.767   -1351.6892    8369.7667    311.12575    15422 
259000000   -3925.9532    3395.6951     12995.88   -1142.7288    8464.3772    311.43998    15403 
260000000   -3822.0605    3408.1163      12935.5   -1175.7188    8405.8956    309.99302    15405 
261000000   -3963.1326    3271.5286    12931.143   -1237.6244    8472.2857     309.8886    15407 
262000000   -3991.0043    3064.3701    12889.241   -1375.7908    8431.1653    308.88443    15437 
263000000   -3862.1655    3295.9245    12968.938   -1388.5523    8546.6422    310.79434    15444 
264000000   -3882.6846    3099.1506    12943.135   -1310.2025    8292.0377    310.17598    15429 
265000000   -3932.3095    3280.7963    13061.909   -1299.3667    8512.4724    313.02234    15416 
266000000   -3845.4508    3198.3761    13102.732   -1384.6277    8428.4546    314.00065    15426 
267000000   -3973.1309     3280.746    12918.784    -1224.198    8478.0749    309.59243    15413 
268000000   -3911.2045    3265.9386    12867.459   -1213.4293    8390.5724    308.36244    15418 
269000000   -3904.7724    3299.1272    12964.745   -1293.2641    8497.1638    310.69387    15427 
270000000   -3829.5435    3447.1682    12877.187   -1170.3911    8447.1028    308.59557    15401 
271000000   -3928.9454    3199.9046    12881.535   -1294.3774    8423.2274    308.69978    15419 
272000000   -3810.1601    3361.5697    12809.536   -1277.0349    8448.7647    306.97434    15426 
273000000   -3886.1757    3225.4107    13097.668    -1323.263    8434.8494     313.8793    15431 
274000000   -3840.5565    3460.4675    12935.713   -1191.9089    8492.9329    309.99812    15402 
275000000   -3870.1953    3335.4098    13088.038    -1242.032    8447.6371    313.64851    15405 
276000000   -3923.7291    3215.4609    12965.537   -1298.0184    8437.2083    310.71283    15414 
277000000   -3866.7431    3298.6054    13009.408   -1225.7856    8391.1341    311.76417    15398 
278000000   -3897.5069    3196.5211     12985.25   -1205.4015    8299.4294    311.18524    15413 
279000000   -3913.8268    3192.4676     12909.72   -1278.2842    8384.5786    309.37521    15414 
280000000   -3838.1576    3152.9062    12955.167   -1308.5931    8299.6569    310.46432    15422 
281000000   -3918.1385    3059.6823    13015.086    -1415.149    8392.9699    311.90025    15437 
282000000   -3814.6514    3385.5814     12883.87   -1235.3184    8435.5511    308.75574    15389 
283000000   -3777.2754    3362.2708    13018.792   -1280.4685    8420.0147    311.98905    15412 
284000000   -3874.4775    3290.1041    13006.825   -1225.8302    8390.4118    311.70229    15418 
285000000   -3903.3993    3087.2917     12927.68   -1396.3516    8387.0425    309.80562    15439 
286000000   -3916.2979    3239.5577    12944.787   -1289.9194     8445.775    310.21557    15432 
287000000   -3936.6506    3130.9949    12930.609   -1326.3768    8394.0223    309.87581    15438 
288000000   -3904.0364    3415.4553    12863.767   -1195.9391    8515.4308    308.27396    15402 
289000000   -3824.1153    3257.7604    13066.792   -1292.3352    8374.2109    313.13936    15417 
290000000   -3886.8098    3421.2289    13063.586   -1158.3213      8466.36    313.06252    15381 
291000000   -3831.7641    3210.4072    12986.589    -1317.977    8360.1482    311.21734    15426 
292000000   -4016.1018    3169.5045    12917.285   -1201.0541    8386.6604     309.5565    15407 
293000000   -3908.7099    3126.6785    12918.532    -1346.039    8381.4273    309.58639    15437 
294000000   -3874.6672    3266.3256    12912.196   -1276.0956    8417.0884    309.43455    15411 
295000000   -3764.4489    3479.5814    12924.887   -1221.9801    8466.0105    309.73869    15423 
296000000   -3871.4763    3284.4866    12951.882   -1250.9451    8406.9081     310.3856    15418 
297000000    -3887.474    3247.5193    12848.418   -1284.5171    8419.5104    307.90614    15415 
298000000   -3780.6088    3502.2368    12905.205   -1271.6823    8554.5279    309.26701    15424 
299000000   -3780.5826     3353.098    12973.687   -1327.7072    8461.3878    310.90814    15415 
300000000   -3866.2563    3335.6737    13037.437   -1288.7028    8490.6328    312.43588    15433 
301000000    -3947.231    3354.7641     12852.25    -1248.739    8550.7341    307.99796    15429 
302000000   -3881.5465    3250.6715      13120.5   -1316.6137    8448.8317    314.42644    15430 
303000000   -3978.0573    3205.7721    13062.482   -1363.1321    8546.9616    313.03608    15439 
304000000   -3962.9863     3285.211    12854.593   -1253.8596    8502.0569     308.0541    15427 
305000000   -3931.8668    3144.0286    13125.295   -1365.7927    8441.6881    314.54137    15428 
306000000   -3808.0296    3322.6374    13028.042   -1216.1408    8346.8078    312.21073    15400 
307000000   -3908.9847    3130.2745    12896.045   -1342.0709    8381.3301    309.04748    15416 
308000000   -3876.4649    3256.4335    12974.971    -1274.488    8407.3863    310.93891    15410 
309000000   -3815.7778    3506.5632    12991.721   -1158.3962    8480.7372    311.34032    15385 
310000000    -3881.456     3252.462    12949.305   -1315.2052    8449.1232    310.32384    15423 
311000000   -3875.8526    3419.1767    12813.988   -1156.1385    8451.1678    307.08103    15396 
312000000   -3954.3106      2984.05    12972.039   -1439.6853     8378.046    310.86866    15441 
313000000   -3902.4118    3222.9332    12975.635   -1305.6633    8431.0083    310.95483    15427 
314000000   -3851.9552    3371.6999    12938.728   -1237.4524    8461.1075    310.07037    15419 
315000000   -3940.1188    3150.3799    13004.664   -1423.0173     8513.516     311.6505    15421 
316000000   -3964.4821     3033.678    12962.578   -1414.2395    8412.3996    310.64193    15438 
317000000   -3932.2851    3031.2599    12913.857   -1433.0826    8396.6276    309.47435    15460 
318000000   -3874.8581    3276.1982     13086.64   -1224.6426     8375.699    313.61501    15418 
319000000   -3916.5431    3383.5292    12856.676    -1242.437    8542.5093    308.10403    15402 
320000000   -3954.1973    3123.0755     13038.47    -1386.577    8463.8497    312.46065    15434 
321000000   -3828.0672    3321.0792    12926.025   -1239.7019    8388.8483    309.76596    15415 
322000000   -3985.6182    2999.7568    12980.077    -1421.935    8407.3101    311.06128    15442 
323000000   -3946.8769    3278.0606    12863.041   -1174.4946    8399.4321    308.25656    15412 
324000000   -3926.8169    3137.9479    12691.247   -1286.4552      8351.22     304.1396    15424 
325000000   -3892.7574    3197.6165    12762.222   -1282.8728    8373.2467    305.84049    15410 
326000000   -3975.9369    3202.9477     12904.26   -1287.0561    8465.9406    309.24436    15434 
327000000   -3980.6526    3038.9494    12778.009   -1378.5298    8398.1318    306.21882    15441 
328000000   -3962.8387    3267.5594    12920.414   -1258.9002    8489.2982    309.63148    15401 
329000000   -3957.1301    3268.0526    13085.335   -1202.9367    8428.1194    313.58374    15415 
330000000   -3938.6591    3094.7285    12942.051   -1460.4193    8493.8069    310.15001    15445 
331000000   -3960.8934    3113.3565     12964.08   -1414.5863    8488.8361    310.67792    15445 
332000000   -3918.6953    3081.9888    12780.171   -1305.7328    8306.4169    306.27064    15420 
333000000   -3937.3047    3279.6837    12967.927   -1350.3591    8567.3474    310.77011    15445 
334000000   -3827.1874    3269.1562    12934.247   -1287.2823    8383.6259    309.96299    15428 
335000000   -3831.0392    3206.3582    12891.176   -1299.5106    8336.9079    308.93082    15418 
336000000   -3966.8188    3218.0431    13003.654   -1318.7018    8503.5636     311.6263    15430 
337000000   -4006.3312    3052.0177    12900.498   -1317.6702    8376.0192    309.15419    15409 
338000000   -3970.3264    3058.2225    12973.538   -1317.3691     8345.918    310.90458    15424 
339000000   -3909.5479    3126.0027    12836.404   -1307.2457    8342.7964    307.61823    15418 
340000000   -3933.0969    3134.1965    12889.928   -1292.8551    8360.1486     308.9009    15421 
341000000   -3875.8407    3201.7377    12978.198   -1346.1338    8423.7122    311.01625    15448 
342000000   -3980.5595    3164.4995    12901.827   -1285.1586    8430.2176    309.18604    15430 
343000000   -4057.8595    3095.2945    12977.724   -1303.5618    8456.7157    311.00488    15437 
344000000   -3996.9546    2962.0621    13033.891   -1339.1741    8298.1909     312.3509    15431 
345000000   -3903.9613     3205.986    12770.808   -1278.6809    8388.6281    306.04626    15416 
346000000   -3951.3547    3233.3943    13084.078   -1302.4455    8487.1944     313.5536    15411 
347000000    -3926.493    3254.4023    12986.635   -1198.7078    8379.6031    311.21844    15398 
348000000   -3985.9256    3090.4876    12903.253   -1262.6105    8339.0237    309.22022    15419 
349000000    -3887.894    3108.4308    12847.312   -1405.6036    8401.9284    307.87964    15431 
350000000   -3902.3692    3188.5062    12836.481   -1239.3199    8330.1953    307.62007    15419 
351000000   -3860.9346    3352.2462    12972.358   -1273.2709    8486.4516     310.8763    15410 
352000000   -3912.0135    3201.1873    12847.159   -1334.9714    8448.1721    307.87596    15404 
353000000   -3930.3039    3164.2965    12951.716    -1343.482    8438.0825    310.38162    15429 
354000000   -3885.6881    3279.4632    12985.807   -1301.6358    8466.7871    311.19859    15426 
355000000    -3823.299    3271.7753    12871.754   -1307.6205    8402.6947    308.46536    15428 
356000000   -3875.3633    3342.3502     13010.09    -1172.097    8389.8105    311.78053    15393 
357000000   -3900.4212    3359.5852    12934.015   -1280.5436    8540.5499    309.95742    15422 
358000000   -3924.0906    3258.9898    12914.509   -1248.2979    8431.3782    309.48996    15422 
359000000   -3867.6086    3291.3846    13055.033   -1274.6865    8433.6797    312.85756    15423 
360000000   -3960.3087    3322.2663    12861.897   -1206.6717    8489.2468    308.22914    15422 
361000000   -3944.9313    3332.8066    12967.829   -1176.6887    8454.4267    310.76775    15402 
362000000   -3905.4248    3262.6258    12957.995   -1270.5951    8438.6457     310.5321    15413 
363000000   -3930.8815    3300.4726    12916.351   -1215.7792    8447.1333    309.53413    15413 
364000000   -3913.2935    3221.3928    12938.549   -1318.2782    8452.9645    310.06609    15421 
365000000   -3881.3433    3468.0391    12771.901   -1274.8143    8624.1968    306.07244    15391 
366000000   -3913.9977     3343.147    12900.026   -1273.8608    8531.0056    309.14289    15423 
367000000   -3893.3586    3102.6529    12842.663   -1233.3681    8229.3796    307.76823    15411 
368000000   -3897.0951    3184.3552    12991.503   -1266.6214    8348.0717     311.3351    15410 
369000000   -4007.3784    3063.4487    13008.822    -1321.447     8392.274    311.75014    15436 
370000000   -3960.8015    3207.1119    12852.024   -1200.7793    8368.6927    307.99255    15405 
371000000   -4032.7202    3137.4382    12851.057   -1271.8613    8442.0197    307.96938    15434 
372000000   -4079.7958    2943.5636    12873.741   -1424.7407    8448.1001      308.513    15450 
373000000   -3978.9867    3032.5418    12964.353   -1315.8217    8327.3502    310.68445    15426 
374000000   -3856.3585      3395.69      12893.9   -1221.0343    8473.0828    308.99608    15427 
375000000   -3957.9793    2990.4482    12949.167   -1390.9849    8339.4124    310.32054    15428 
376000000   -3990.3677    3048.8534    12904.295   -1345.7025    8384.9236     309.2452    15427 
377000000   -3903.2934    3343.1388    13041.629   -1103.5714    8350.0036    312.53635    15406 
378000000   -4022.1396    3065.9461    13011.895   -1381.5231    8469.6088    311.82379    15434 
379000000   -3936.8967    3167.5987    12955.499   -1295.9676     8400.463    310.47228    15417 
380000000   -3952.2418    3075.2046    12919.907   -1341.5495    8368.9959    309.61934    15431 
381000000   -3862.5446    3213.2702    12920.236   -1304.2613    8380.0761    309.62722    15416 
382000000   -3951.3892    3220.9802    13130.554   -1312.9438    8485.3133     314.6674    15414 
383000000   -3974.0162    3136.0911    12908.436   -1259.6633    8369.7705    309.34444    15406 
384000000   -3958.5572    3067.1208    12921.964   -1279.3989    8305.0769    309.66862    15416 
385000000   -4100.2639    2900.5312      12917.1   -1315.9756    8316.7707    309.55205    15442 
386000000   -3922.5075    3309.7848    12920.804   -1173.9702    8406.2625    309.64082    15402 
387000000   -3907.0043    3264.9047    12924.565   -1253.0134    8424.9223    309.73096    15398 
388000000   -3908.2822    3149.9729    12963.711   -1357.5358    8415.7909    310.66908    15433 
389000000   -4055.7821    3046.5089    12983.036   -1270.2346    8372.5256    311.13219    15416 
390000000   -3810.7689    3174.9814    12991.244    -1298.838    8284.5883    311.32889    15410 
391000000   -3988.5619    3222.4109    12914.833    -1299.767    8510.7398    309.49775    15427 
392000000   -3917.7855    3281.2746     12889.01   -1223.9516    8423.0117    308.87889    15417 
393000000   -3898.8046    3462.9243    13048.405   -1175.2947    8537.0236    312.69873    15409 
394000000   -3973.1154    3224.3134    12962.361   -1342.8123    8540.2411    310.63673    15415 
395000000   -3940.0433    3323.2966    12881.461   -1200.6799    8464.0198    308.69801    15413 
396000000    -3933.675     3344.414    13120.906   -1195.7489    8473.8379    314.43618    15423 
397000000   -3940.4401    3322.4958    12840.551   -1321.3783    8584.3141    307.71761    15418 
398000000   -3885.3466    3148.7565    12728.183   -1265.3316    8299.4348    305.02476    15407 
399000000   -3878.5893    3307.5133     12989.12   -1269.6239    8455.7265    311.27798    15415 
400000000     -3863.68    3416.8577    12959.132    -1155.669    8436.2067    310.55935    15402 
401000000   -3928.9047    2990.9144     12768.63    -1376.099    8295.9181    305.99406    15443 
402000000   -3934.1999    3470.2398    12814.156   -1145.8327    8550.2724    307.08506    15403 
403000000   -3802.5968    3339.8323    12937.701   -1237.1834    8379.6125    310.04575    15410 
404000000   -3920.7082    3260.4777    12813.535   -1307.3548    8488.5408    307.07019    15439 
405000000   -3890.3031    3216.5593    12819.515   -1329.2643    8436.1267    307.21349    15420 
406000000   -3817.8819     3345.124    13047.443   -1220.7695    8383.7755    312.67567    15421 
407000000   -3868.4665    3313.8221    12945.954   -1153.4215    8335.7102    310.24353    15393 
408000000   -3848.8465    3208.1594     12969.14   -1330.9853    8387.9912    310.79918    15431 
409000000   -3916.9177    3094.1663    12709.281   -1359.8464    8370.9305    304.57178    15426 
410000000   -3930.8868    3344.2279    12943.546   -1193.7774     8468.892    310.18583    15420 
411000000   -3923.1075    3224.4513    12999.318   -1234.6909    8382.2497    311.52239    15405 
412000000   -3880.7109    3265.4909    13061.075   -1203.8487    8350.0505    313.00235    15409 
413000000   -3866.0802    3168.6994    12935.426   -1219.5684    8254.3481    309.99123    15399 
414000000   -3911.0538    3125.4607    12899.436    -1424.908    8461.4225    309.12876    15431 
415000000   -3993.0033    3251.7937    12825.214   -1233.2139    8478.0109    307.35006    15421 
416000000     -3956.92    3136.9254    13017.741   -1329.1474    8422.9929    311.96387    15425 
417000000   -3887.0839    3283.8379    12965.016   -1350.3476    8521.2694    310.70035    15417 
418000000    -3987.359    3352.2721    12912.404    -1196.361    8535.9921    309.43953    15406 
419000000      -3962.3    3292.3816    12964.298   -1223.7549    8478.4365    310.68314    15392 
420000000   -3943.5918    3326.3066    13024.557   -1218.3895    8488.2879    312.12723    15413 
421000000   -3985.2365    3310.4195    12978.183   -1261.8304    8557.4864    311.01589    15417 
422000000   -3934.6638    3287.8203     12957.34   -1310.9626    8533.4467     310.5164    15425 
423000000   -3921.5456    3135.2462    12889.241    -1297.481    8354.2728    308.88445    15421 
424000000   -3893.9722    3281.9174    12853.565   -1319.4719    8495.3616    308.02947    15440 
425000000   -3884.4125    3280.6392    12734.869   -1215.9922    8381.0438    305.18499    15406 
426000000   -3946.4971    3192.3925    12788.065   -1268.4605    8407.3501     306.4598    15416 
427000000   -3910.1964    3278.9096    13006.125   -1150.6727    8339.7788    311.68552    15407 
428000000    -3848.035    3200.4445    13067.013   -1320.6567    8369.1362    313.14465    15407 
429000000   -3860.3779    3163.3066     12887.84   -1405.5995    8429.2841    308.85086    15422 
430000000   -3942.5475    3182.8237    12880.508    -1271.572    8396.9432    308.67516    15416 
431000000   -3890.1411    3295.4684    12995.446   -1211.6456    8397.2551    311.42959    15417 
432000000   -3920.9291    3070.5607    12872.936   -1350.8833     8342.373    308.49369    15433 
433000000   -3948.7987    3202.8264    12754.788   -1217.3584    8368.9835    305.66234    15418 
434000000   -3915.6452    3177.6535    13069.925   -1316.8318    8410.1305    313.21444    15411 
435000000   -4030.1738    2972.7823    13034.729   -1327.4548    8330.4108    312.37099    15439 
436000000   -3930.5559    3296.1697    12928.232   -1296.5011    8523.2267    309.81885    15426 
437000000    -4050.634    3034.0975    13031.554   -1275.6767    8360.4081     312.2949    15430 
438000000   -4021.4187    3160.4015    12808.561   -1260.9036    8442.7238    306.95099    15416 
439000000   -3949.4607    3188.4209    12814.446   -1265.8611    8403.7427    307.09201    15433 
440000000   -3997.0617     3012.275    12978.022   -1315.5251    8324.8619    311.01203    15423 
441000000   -3922.2442    3234.2693    12905.438   -1297.4793    8453.9929     309.2726    15408 
442000000   -3872.2222    3072.0303    13013.259   -1339.9673    8284.2198    311.85647    15432 
443000000   -3943.5488    3014.5187    12909.767   -1392.0747    8350.1422    309.37635    15444 
444000000    -3888.047    3308.8773    13076.205   -1181.4078    8378.3321    313.36493    15407 
445000000   -3844.6904    3145.7643      13125.1   -1337.8258    8328.2805    314.53668    15411 
446000000   -3831.0069    3268.3915    12796.197   -1258.9212    8358.3196    306.65468    15408 
447000000   -4033.2947    3185.7076    12977.785   -1227.7477    8446.7501    311.00636    15418 
448000000   -3907.5451    3352.3733    12961.308   -1301.4305    8561.3489    310.61148    15417 
449000000   -3968.7572    3011.4863    13001.113   -1336.9484    8317.1919     311.5654    15424 
450000000     -3943.29    3154.1519    13077.293   -1266.5461    8363.9881    313.39101    15424 
451000000   -3833.4872     3370.798    13072.228   -1277.0765    8481.3616    313.26964    15418 
452000000   -3878.9446    3226.8149    12750.631   -1307.3673    8413.1268    305.56272    15430 
453000000   -3921.1046    3196.3426    12893.924   -1276.5131    8393.9603    308.99666    15431 
454000000      -3836.2    3279.9979    12925.844   -1212.6244    8328.8223     309.7616    15406 
455000000   -3828.5062    3378.4288    12805.874   -1230.4843    8437.4193    306.88658    15407 
456000000   -3815.7933    3319.1356    12908.221     -1280.92    8415.8489    309.33929    15425 
457000000   -3968.7191    3279.3985    12880.188    -1306.289    8554.4065    308.66748    15425 
458000000   -3887.8419    3284.7042    13025.637   -1231.3313    8403.8774    312.15311    15409 
459000000   -3879.4034    3304.4927    12952.233   -1237.4589     8421.355      310.394    15403 
460000000    -3873.369    3264.9795    12797.987   -1301.5039    8439.8523    306.69758    15426 
461000000    -3838.355    3212.1502     13074.87   -1329.9231    8380.4283    313.33294    15409 
462000000   -3949.7059     3119.829    12806.169   -1231.4607    8300.9957    306.89366    15409 
463000000   -3958.4034    3236.6055    12850.532   -1234.0527    8429.0617     307.9568    15403 
464000000   -3876.7232    3315.2634    12790.256   -1339.3262    8531.3128     306.5123    15423 
465000000    -3953.875    3157.8099    13008.944   -1255.5474    8367.2322    311.75307    15393 
466000000   -3911.6499    2988.4763    12964.897   -1351.9275    8252.0537     310.6975    15415 
467000000   -3877.7464    3134.9872    12980.421   -1383.6527    8396.3863    311.06953    15429 
468000000   -3965.2611    3251.2793    12855.593    -1211.776    8428.3164    308.07809    15421 
469000000    -3853.764    3367.0337     12923.61   -1296.5509    8517.3486    309.70808    15410 
470000000    -3892.736    3227.7803    12980.994   -1270.7712    8391.2875    311.08325    15411 
471000000   -4004.4286    3180.6441    12989.364   -1339.2833     8524.356    311.28385    15427 
472000000   -3862.6841    3418.7263    13009.743   -1115.2449    8396.6553    311.77221    15391 
473000000   -3909.6098    3432.8159    13064.707   -1154.0572    8496.4829     313.0894    15403 
474000000   -3975.6581    3212.9587    12917.899    -1243.453    8432.0698    309.57121    15430 
475000000   -3862.8423    3191.7551    12835.384   -1203.8899    8258.4873    307.59379    15405 
476000000   -3912.6219    3099.0559    13020.419   -1290.4796    8302.1574    312.02806    15419 
477000000   -3878.5267    3357.6427    12817.355   -1269.5409    8505.7103    307.16172    15419 
478000000   -3872.5526    3659.2434    12943.525   -1061.2944    8593.0904    310.18532    15397 
479000000    -3863.651    3337.3052    12924.113   -1282.3547    8483.3109    309.72012    15429 
480000000   -3824.4805    3351.8144    12972.315   -1271.1868    8447.4817    310.87527    15419 
481000000   -3898.1747    3210.0171    13082.004   -1344.2845    8452.4764    313.50392    15438 
482000000   -3846.3917    3369.4027     12839.32   -1306.8462    8522.6405    307.68811    15422 
483000000   -3867.9411     3170.437    12973.517   -1318.3411    8356.7191    310.90407    15409 
484000000   -3851.5164    3232.5357    12851.075   -1359.3144    8443.3664     307.9698    15415 
485000000   -3911.4935     3210.199    12828.514   -1215.9334    8337.6258    307.42915    15408 
486000000   -3848.7862    3177.1692    12774.272   -1373.1155    8399.0708    306.12927    15426 
487000000   -3849.6293    3316.4942    12991.557   -1215.2608    8381.3842     311.3364    15411 
488000000   -3924.7067    3165.1756    13037.349    -1371.247    8461.1292    312.43377    15435 
489000000   -3888.3393    3299.3765    12945.502   -1292.1117    8479.8275    310.23271    15422 
490000000   -3876.9837    3113.8093    12972.493   -1450.4618    8441.2548    310.87954    15443 
491000000   -3929.0886    3330.1633    12965.215   -1284.1486    8543.4005    310.70512    15435 
492000000   -3894.4669    3169.2193    12908.199   -1286.3553    8350.0414    309.33877    15418 
493000000   -3883.2899    3232.2286    12755.626   -1330.6019    8446.1204    305.68241    15428 
494000000   -3927.6196    3329.1507    13056.891   -1215.5943    8472.3647    312.90208    15410 
495000000   -3893.8577    3373.0895     12749.59   -1212.2624    8479.2096    305.53776    15392 
496000000   -3859.5482     3220.057    12968.509   -1290.2467     8369.852    310.78406    15419 
497000000   -3907.6469     3292.192    13040.356   -1206.6396    8406.4786    312.50585    15409 
498000000   -3931.4293    3179.8037    12963.971   -1287.6634    8398.8964     310.6753    15425 
499000000   -3811.4824    3362.3923    12783.834    -1250.389    8424.2637    306.35841    15410 
500000000   -3941.3428     2918.272    13052.366   -1324.5865    8184.2013    312.79366    15416 
Loop time of 230777 on 28 procs for 500000000 steps with 14000 atoms

Performance: 4679.841 ns/day, 0.005 hours/ns, 2166.593 timesteps/s
99.4% CPU use with 28 MPI tasks x no OpenMP threads

MPI task timing breakdown:
Section |  min time  |  avg time  |  max time  |%varavg| %total
---------------------------------------------------------------
Pair    | 22367      | 31064      | 36974      |1994.1 | 13.46
Bond    | 6068.6     | 8654.6     | 11813      |2350.0 |  3.75
Neigh   | 80684      | 81309      | 82160      | 135.4 | 35.23
Comm    | 52382      | 61539      | 75788      |2316.5 | 26.67
Output  | 1.0686     | 1.0701     | 1.0716     |   0.1 |  0.00
Modify  | 27350      | 27698      | 28125      | 135.4 | 12.00
Other   |            | 2.051e+04  |            |       |  8.89

Nlocal:    500 ave 539 max 465 min
Histogram: 3 3 0 5 6 0 6 2 2 1
Nghost:    803.964 ave 1133 max 544 min
Histogram: 5 2 4 4 0 4 2 2 4 1
Neighs:    7113.64 ave 9074 max 5376 min
Histogram: 2 1 4 2 5 7 4 2 0 1

Total # of neighbors = 199182
Ave neighs/atom = 14.2273
Ave special neighs/atom = 8.80729
Neighbor list builds = 99795956
Dangerous builds = 0
System init for write_restart ...
Total wall time: 64:06:31
