LAMMPS (5 Jun 2019)
Reading data file ...
  orthogonal box = (-1020 -1020 -1020) to (1020 1020 1020)
  2 by 2 by 7 MPI processor grid
  reading atoms ...
  14000 atoms
  reading velocities ...
  14000 velocities
  scanning bonds ...
  2 = max bonds/atom
  scanning angles ...
  1 = max angles/atom
  reading bonds ...
  15734 bonds
  reading angles ...
  13600 angles
Finding 1-2 1-3 1-4 neighbors ...
  special bond factors lj:   0          0          0         
  special bond factors coul: 0          0          0         
  3 = max # of 1-2 neighbors
  4 = max # of 1-3 neighbors
  8 = max # of 1-4 neighbors
  11 = max # of special neighbors
  special bonds CPU = 0.301262 secs
  read_data CPU = 0.547458 secs
Finding 1-2 1-3 1-4 neighbors ...
  special bond factors lj:   1          1          1         
  special bond factors coul: 0          0          0         
  3 = max # of 1-2 neighbors
  4 = max # of 1-3 neighbors
  8 = max # of 1-4 neighbors
  11 = max # of special neighbors
  special bonds CPU = 0.00162947 secs
WARNING: Using 'neigh_modify every 1 delay 0 check yes' setting during minimization (../min.cpp:168)
Neighbor list info ...
  update every 1 steps, delay 0 steps, check yes
  max neighbors/atom: 2000, page size: 100000
  master list distance cutoff = 26.9
  ghost atom cutoff = 26.9
  binsize = 13.45, bins = 152 152 152
  1 neighbor lists, perpetual/occasional/extra = 1 0 0
  (1) pair lj/cut, perpetual
      attributes: half, newton on
      pair build: half/bin/newton
      stencil: half/bin/3d/newton
      bin: standard
Setting up cg style minimization ...
  Unit style    : real
  Current step  : 0
Per MPI rank memory allocation (min/avg/max) = 1.481 | 3.433 | 9.605 Mbytes
Step Temp E_pair E_mol TotEng Press 
       0    30.664295   -7166.3122    86400.559    80513.818  -0.13318831 
    1072    30.664295   -6599.6327    16878.026    11557.964  0.080939047 
Loop time of 1.77896 on 28 procs for 1072 steps with 14000 atoms

99.4% CPU use with 28 MPI tasks x no OpenMP threads

Minimization stats:
  Stopping criterion = energy tolerance
  Energy initial, next-to-last, final = 
         79234.2467776      10279.2797345      10278.3932583
  Force two-norm initial, final = 495.236 6.00055
  Force max component initial, final = 11.6699 1.79141
  Final line search alpha, max atom move = 0.0475011 0.0850938
  Iterations, force evaluations = 1072 1120

MPI task timing breakdown:
Section |  min time  |  avg time  |  max time  |%varavg| %total
---------------------------------------------------------------
Pair    | 4.5809e-05 | 0.14571    | 1.0372     |  88.9 |  8.19
Bond    | 9.0686e-05 | 0.015443   | 0.10432    |  27.7 |  0.87
Neigh   | 0.41236    | 0.42034    | 0.42625    |   0.9 | 23.63
Comm    | 0.0060281  | 0.36841    | 1.2207     |  86.4 | 20.71
Output  | 0          | 0          | 0          |   0.0 |  0.00
Modify  | 0          | 0          | 0          |   0.0 |  0.00
Other   |            | 0.829      |            |       | 46.60

Nlocal:    500 ave 3405 max 0 min
Histogram: 24 0 0 0 0 0 0 0 1 3
Nghost:    362.071 ave 1861 max 0 min
Histogram: 16 5 3 0 0 0 0 0 0 4
Neighs:    10069.6 ave 71016 max 0 min
Histogram: 24 0 0 0 0 0 0 0 1 3

Total # of neighbors = 281949
Ave neighs/atom = 20.1392
Ave special neighs/atom = 9.39243
Neighbor list builds = 88
Dangerous builds = 0
Setting up Verlet run ...
  Unit style    : real
  Current step  : 1072
  Time step     : 0.1
Per MPI rank memory allocation (min/avg/max) = 1.443 | 3.125 | 8.48 Mbytes
Step Temp E_pair E_mol TotEng Press 
    1072    30.664295   -6599.6327    16878.026    11557.964  0.080939047 
   11072     270.0145   -5490.1061    24632.113    30409.269  0.052611687 
Loop time of 8.86979 on 28 procs for 10000 steps with 14000 atoms

Performance: 9.741 ns/day, 2.464 hours/ns, 1127.422 timesteps/s
99.4% CPU use with 28 MPI tasks x no OpenMP threads

MPI task timing breakdown:
Section |  min time  |  avg time  |  max time  |%varavg| %total
---------------------------------------------------------------
Pair    | 0.0003351  | 0.77248    | 5.5602     | 206.5 |  8.71
Bond    | 0.0005694  | 0.11261    | 0.75335    |  74.4 |  1.27
Neigh   | 0.023092   | 0.024345   | 0.025332   |   0.6 |  0.27
Comm    | 0.0029432  | 2.0752     | 6.8525     | 205.0 | 23.40
Output  | 7.4845e-05 | 0.00082763 | 0.0013043  |   0.0 |  0.01
Modify  | 0.00099994 | 0.24435    | 1.6349     | 109.5 |  2.75
Other   |            | 5.64       |            |       | 63.59

Nlocal:    500 ave 3397 max 0 min
Histogram: 24 0 0 0 0 0 0 0 1 3
Nghost:    362.071 ave 1860 max 0 min
Histogram: 16 5 3 0 0 0 0 0 0 4
Neighs:    10073.7 ave 70819 max 0 min
Histogram: 24 0 0 0 0 0 0 0 1 3

Total # of neighbors = 282063
Ave neighs/atom = 20.1474
Ave special neighs/atom = 9.39243
Neighbor list builds = 5
Dangerous builds = 0
4000 atoms in group rxnSites
Neighbor list info ...
  update every 1 steps, delay 1 steps, check yes
  max neighbors/atom: 2000, page size: 100000
  master list distance cutoff = 26.9
  ghost atom cutoff = 26.9
  binsize = 13.45, bins = 152 152 152
  2 neighbor lists, perpetual/occasional/extra = 1 1 0
  (1) pair lj/cut, perpetual
      attributes: half, newton on
      pair build: half/bin/newton
      stencil: half/bin/3d/newton
      bin: standard
  (2) fix bond/create/random, occasional, copy from (1)
      attributes: half, newton on
      pair build: copy
      stencil: none
      bin: none
Setting up Verlet run ...
  Unit style    : real
  Current step  : 0
  Time step     : 25
Per MPI rank memory allocation (min/avg/max) = 8.908 | 9.842 | 12.5 Mbytes
Step E_pair PotEng KinEng E_bond E_angle Temp Bonds 
       0   -5490.1061    19142.007    11267.262   -2854.5128    27486.626     270.0145    15734 
 1000000   -2856.1591    8021.2479    12817.267   -811.21795    11688.625    307.15961    15274 
 2000000   -2828.1634    7184.9462    13091.716   -844.33557    10857.445    313.73665    15296 
 3000000   -2900.3272    6536.6093    12960.275   -868.71585    10305.652    310.58674    15324 
 4000000   -2982.6072    6073.0586    13154.318   -973.54527    10029.211    315.23687    15358 
 5000000   -3024.4555    5608.7252    12944.461   -1146.3131    9779.4938    310.20776    15387 
 6000000   -3166.6573    5096.7241    12714.023   -1371.7391    9635.1204    304.68541    15429 
 7000000   -3210.7478    4823.5042    12931.497   -1334.5905    9368.8425    309.89709    15434 
 8000000   -3243.1925    4773.2962    12994.014   -1281.9146    9298.4032    311.39527    15422 
 9000000   -3318.2953    4697.3733     13042.29   -1231.6783     9247.347    312.55219    15413 
10000000   -3232.0268    4368.0843    12851.021   -1446.3134    9046.4245     307.9685    15431 
11000000   -3275.6342    4459.3943    13007.558   -1325.2538    9060.2824    311.71985    15448 
12000000   -3389.1198    4214.0059    13006.826   -1261.6136    8864.7393    311.70231    15439 
13000000   -3401.0961    4029.7025    12915.548   -1489.7221    8920.5207    309.51488    15470 
14000000   -3450.6089    3899.0891      12983.6   -1485.1467    8834.8447    311.14571    15475 
15000000    -3529.113     3701.999    13071.766   -1475.0923    8706.2043    313.25856    15485 
16000000   -3626.7519     3602.002    13002.654   -1541.0765    8769.8303    311.60234    15482 
17000000   -3668.1612    3406.5602    12853.788   -1613.6177    8688.3392    308.03483    15502 
18000000   -3638.8159    3297.0798    12992.282   -1642.7327    8578.6284    311.35377    15521 
19000000   -3800.3244    3297.7014    12975.817   -1601.6009    8699.6267    310.95918    15490 
20000000   -3715.4701    3232.1274    12935.453   -1637.5291    8585.1266    309.99189    15499 
21000000   -3776.1003    3188.7995    12937.984   -1566.0325    8530.9324    310.05255    15495 
22000000   -3805.8528    3144.1779    12807.244   -1615.3786    8565.4092    306.91941    15503 
23000000   -3746.3891    3046.3355    12963.094   -1698.3284     8491.053    310.65428    15533 
24000000   -3884.2942    3063.9872    12986.232   -1615.3511    8563.6325    311.20878    15514 
25000000    -3827.396    3127.5441    13063.297     -1604.37    8559.3101    313.05561    15519 
26000000   -3928.0209    2862.5522    12908.573   -1682.0541    8472.6272    309.34772    15549 
27000000   -4093.8735    2628.3151    12853.253   -1655.6942    8377.8828    308.02199    15539 
28000000   -4007.4875    2762.8648    13010.364   -1703.6218    8473.9742     311.7871    15547 
29000000   -4070.2274    2649.1172     12948.87   -1741.9864     8461.331    310.31341    15545 
30000000    -4148.883    2332.2885    12975.555   -1799.9662    8281.1377    310.95292    15553 
31000000   -4233.8647    2347.8593     12833.99   -1691.1257    8272.8497    307.56038    15550 
32000000   -4223.6993    2377.3878    13015.454   -1675.9805    8277.0677    311.90907    15559 
33000000   -4150.3834    2397.6173    13052.002   -1767.8466    8315.8472    312.78493    15545 
34000000   -4161.2584    2388.3618      13038.1   -1771.6922    8321.3124    312.45177    15552 
35000000   -4216.3564    2232.8851    12869.824   -1745.9502    8195.1917    308.41913    15546 
36000000   -4195.4513    2371.9866    12943.123   -1681.2449    8248.6828    310.17569    15562 
37000000   -4195.4125    2215.5967    12908.607   -1755.0506    8166.0598    309.34854    15550 
38000000   -4253.4617    2247.5501    13010.917   -1738.5963    8239.6081    311.80033    15549 
39000000   -4301.0388    2212.3159    12878.921   -1710.3821    8223.7369    308.63713    15560 
40000000   -4419.6535    1937.0582     13099.34   -1834.1939    8190.9056    313.91936    15557 
41000000   -4569.9013    1867.7417    12890.881    -1770.555    8208.1979    308.92374    15561 
42000000   -4628.7189    1763.7063    12967.767   -1764.1117    8156.5369    310.76628    15570 
43000000   -4527.9961    1772.0101    12840.709   -1833.7153    8133.7216     307.7214    15583 
44000000   -4573.1386    1762.2537    13070.246   -1824.7173    8160.1096    313.22214    15577 
45000000   -4478.5207     1909.547    12927.175   -1737.2784    8125.3461    309.79351    15570 
46000000   -4602.9926    1669.3678    12928.704   -1807.8808    8080.2412    309.83015    15568 
47000000   -4585.6924    1526.5303    12977.231   -1885.4025    7997.6252    310.99306    15574 
48000000   -4584.9897    1516.8557    12962.783   -1836.9913    7938.8367    310.64683    15569 
49000000   -4642.6337    1671.7283    12861.713   -1766.1779    8080.5399    308.22473    15578 
50000000   -4663.1762    1532.9212    12817.896   -1817.3122    8013.4096    307.17469    15577 
51000000   -4590.6957    1456.9274    12965.505   -1912.7057    7960.3288    310.71206    15579 
52000000   -4775.1529    1336.9739    12906.413    -1864.726    7976.8528    309.29595    15568 
53000000   -4595.9114    1316.2516    12876.548   -1946.7625    7858.9255    308.58026    15605 
54000000   -4733.8061    1486.3168    12913.598   -1854.8067    8074.9296    309.46814    15597 
55000000   -4876.5024    1204.3488    12927.885   -1901.5322    7982.3835    309.81052    15595 
56000000    -4815.205    1324.6598     12856.06   -1899.9588    8039.8236    308.08927    15594 
57000000   -4716.6562    1541.7309    12820.592   -1903.3174    8161.7045    307.23929    15604 
58000000   -4813.8956    1233.4535    12923.693   -1905.2891    7952.6382    309.71007    15594 
59000000   -4891.0912    1216.5091    12827.368   -1890.2514    7997.8517    307.40169    15600 
60000000   -4784.0732     1283.753    12953.422   -1893.4019    7961.2281     310.4225    15585 
61000000   -4879.0797    1239.8008    12788.218   -1860.9271    7979.8075    306.46347    15600 
62000000   -4844.2471    1126.2202     12954.25   -1946.1591    7916.6265    310.44235    15592 
63000000   -4861.7368      1244.85    12831.012   -1818.9189    7925.5057    307.48901    15609 
64000000      -4886.3    1054.8384    12888.613   -1910.0224    7851.1608    308.86938    15610 
65000000   -4821.6327    1158.9587    12742.423   -1907.6488    7888.2402    305.36601    15607 
66000000   -4888.6286      1075.88    12907.539    -1929.023    7893.5316    309.32293    15609 
67000000   -4911.6273    1037.1841    12991.396   -1969.9371    7918.7485    311.33254    15606 
68000000    -4939.895    943.80408     12970.13   -1930.3096    7814.0087    310.82291    15603 
69000000   -4904.7446    1178.6948    12944.255   -1881.7816     7965.221    310.20282    15608 
70000000   -4942.5137    1055.4711    13003.971   -1884.2598    7882.2445    311.63388    15592 
71000000   -4976.3424    976.38817    12971.783   -1905.2196    7857.9501    310.86251    15603 
72000000     -4949.38    977.08121    12897.913    -1910.061    7836.5222    309.09227    15606 
73000000   -5042.5837    909.05674    12908.857   -1889.3277    7840.9681    309.35452    15604 
74000000    -5055.176    863.67214    13000.026    -1924.852    7843.7001    311.53935    15595 
75000000   -5036.2332    961.42326    12849.617   -1862.0421    7859.6986    307.93488    15608 
76000000   -4964.9531    869.06808    12912.923   -1905.7711    7739.7923    309.45196    15615 
77000000   -4999.2651     919.6774    12971.105   -1980.3867    7899.3293    310.84626    15616 
78000000   -4993.8561    817.13011    12895.412   -2033.7776    7844.7639    309.03232    15625 
79000000    -5060.936     863.0199    12895.277    -1909.972    7833.9279    309.02909    15625 
80000000   -5026.5777    790.58154    12768.331   -2013.8446    7831.0038    305.98689    15621 
81000000   -4977.2958    771.27482    13246.184   -2012.5022    7761.0728    317.43842    15616 
82000000   -5174.1381      704.815    12899.853   -1905.2984    7784.2515    309.13874    15608 
83000000   -5065.0029    663.14479    12905.633   -1902.1393     7630.287    309.27727    15608 
84000000   -5144.5803    524.70143    12918.514   -2034.4958    7703.7775    309.58595    15621 
85000000   -5022.8596    898.40912    12826.575   -1981.0822     7902.351    307.38268    15605 
86000000   -5029.6024    799.64986    12833.487   -1901.6307    7730.8829    307.54833    15625 
87000000   -5048.6156    737.73373    13031.908   -2007.1907      7793.54    312.30337    15618 
88000000   -5092.5929    752.37867    12916.008    -1831.264    7676.2356     309.5259    15609 
89000000   -5180.7332    689.83719    12871.534   -1875.9461    7746.5165    308.46011    15603 
90000000   -5016.4158    877.46387    12921.688   -1906.3663     7800.246      309.662    15603 
91000000   -5080.6864    654.44583    12867.096   -1987.8359     7722.968    308.35374    15614 
92000000   -5148.3837    528.86915    13108.827   -1994.5438    7671.7967    314.14671    15617 
93000000   -5181.1201    747.29914    12890.692   -1958.8997     7887.319    308.91922    15617 
94000000   -5100.8406     602.2448     12914.37     -1953.09    7656.1754    309.48665    15602 
95000000   -5083.2992    617.57324    12900.281   -2009.7728    7710.6453    309.14902    15622 
96000000   -5141.3621    711.68071    12968.833   -2026.3218    7879.3646    310.79182    15618 
97000000   -5105.1702    566.67722    12987.645   -2061.1799    7733.0273    311.24265    15617 
98000000   -5028.5198    743.07551    12885.903   -1943.1572    7714.7525    308.80444    15595 
99000000   -5112.1843     627.3895    12983.729   -1891.1553    7630.7291    311.14879    15603 
100000000   -5163.0873    395.08829    13114.281   -2097.1843    7655.3599    314.27741    15621 
101000000   -5178.8242    465.07684     13041.04   -1976.3832    7620.2842    312.52222    15629 
102000000   -5131.1421    468.43372    12862.041   -2038.4172     7637.993    308.23261    15607 
103000000   -5237.4078    619.92288    13046.314   -1914.1029    7771.4336    312.64861    15621 
104000000   -5187.4332    577.74378    12988.285   -1935.6943    7700.8713    311.25799    15611 
105000000   -5345.1823    249.46665    13046.349    -1981.486    7576.1349    312.64945    15617 
106000000   -5346.3844    446.74376    13018.291   -1993.2835    7786.4116    311.97707    15613 
107000000   -5264.5564    403.85379    12748.475   -1970.4127     7638.823    305.51104    15624 
108000000   -5336.8924     282.6181    13001.452   -1992.2509    7611.7613    311.57353    15620 
109000000   -5317.2383     461.1264    12946.143    -1909.196    7687.5608    310.24807    15620 
110000000   -5224.9761    497.23395    12865.136   -1932.0785    7654.2885    308.30678    15602 
111000000   -5321.1985    469.47035    12980.209   -1942.4063    7733.0752    311.06444    15620 
112000000   -5310.2163    318.34037    12935.495   -2027.8045    7656.3612    309.99288    15611 
113000000   -5417.2698    267.11147    12960.952   -2008.0319    7692.4132    310.60295    15614 
114000000   -5389.4093     174.8994    12943.998   -2031.1897    7595.4985    310.19667    15619 
115000000   -5224.2895    536.79988    13062.724   -1940.4666     7701.556    313.04188    15604 
116000000   -5252.0032    503.32004    12900.226   -1902.8601    7658.1834    309.14769    15611 
117000000   -5245.9717     563.1492    13090.749   -1910.4844    7719.6053    313.71347    15614 
118000000    -5260.918    494.74005    13076.414   -1965.0241    7720.6822    313.36996    15625 
119000000   -5429.6416    349.94895    12968.699   -1940.5255    7720.1161    310.78861    15613 
120000000   -5347.7707    242.10814    12806.183   -2074.5581     7664.437      306.894    15624 
121000000   -5386.5158    164.73337    12855.052    -2079.343    7630.5921    308.06512    15624 
122000000   -5320.2673    451.23182    13042.571   -1907.1784    7678.6775    312.55892    15603 
123000000   -5265.3651    320.42144    12983.095   -1966.7669    7552.5534    311.13361    15621 
124000000   -5521.3269    231.03033    12967.362   -1926.2351    7678.5923    310.75656    15635 
125000000   -5444.8709    268.17065    12942.285   -1905.1538    7618.1954    310.15562    15611 
126000000   -5354.8535    327.89982    12835.794   -1868.2543    7551.0076    307.60361    15610 
127000000   -5318.7101    462.96473    12988.138   -1990.3061    7771.9809    311.25447    15606 
128000000   -5490.8007    165.49125    13028.498   -1932.8877    7589.1797    312.22168    15623 
129000000   -5624.0468    53.557355    12730.262   -1931.7904    7609.3946    305.07458    15607 
130000000   -5432.7015    18.414164    12926.291   -2063.7661    7514.8818    309.77233    15629 
131000000   -5480.5134    223.63984    13113.512    -2004.916    7709.0693    314.25898    15622 
132000000   -5419.4011    167.25752    12968.903   -1997.2465     7583.905    310.79351    15618 
133000000   -5447.0744    181.67031    12982.229   -1958.2098    7586.9545    311.11286    15623 
134000000   -5552.0889    203.47231    13043.681   -1874.5003    7630.0616    312.58553    15619 
135000000   -5595.5734    53.271985    12778.198   -2045.0926     7693.938    306.22334    15624 
136000000   -5704.2133   -265.50937    12963.848   -2074.9238    7513.6278    310.67237    15634 
137000000   -5562.3048   -42.910272    12942.504   -1958.7189    7478.1134    310.16087    15626 
138000000   -5557.6063   -78.206677    12985.715   -2004.7914    7484.1911     311.1964    15637 
139000000   -5509.9272    115.36419    12896.118    -1940.007    7565.2985    309.04925    15616 
140000000   -5543.0536    39.762687    12937.075    -2031.404    7614.2203    310.03075    15617 
141000000   -5494.1715      139.109    12991.281   -1922.6395      7555.92    311.32978    15619 
142000000   -5510.6869    25.673921    12914.109    -2041.246    7577.6068    309.48039    15622 
143000000   -5561.4213   -125.04958     12911.36   -2063.9577    7500.3294    309.41452    15632 
144000000   -5521.3437   -12.132051    13115.272   -2069.9072    7579.1189    314.30115    15626 
145000000   -5526.8283    16.837092    12985.046   -1982.0174    7525.6828    311.18035    15626 
146000000    -5475.411    95.145708    12976.921   -2042.9586    7613.5153    310.98564    15626 
147000000   -5634.4972     -109.825    12913.455    -1967.979    7492.6512    309.46472    15619 
148000000    -5641.579    12.783943    12951.764   -1940.1831    7594.5461    310.38277    15621 
149000000   -5630.2931   -78.424369    12939.892   -2012.3402    7564.2089    310.09828    15628 
150000000   -5588.9804    -33.45944    13031.284   -2051.4668    7606.9877    312.28843    15617 
151000000   -5737.0426   -161.92888    12975.255   -2054.4209    7629.5346    310.94571    15622 
152000000   -5676.1544   -273.21838    13026.692   -2021.9787    7424.9147    312.17839    15637 
153000000   -5707.7128   -63.805334    13099.127   -1977.6874    7621.5949    313.91426    15628 
154000000   -5591.7159    57.382357    12924.168   -1880.5585    7529.6567    309.72144    15621 
155000000   -5707.8624   -165.67403    12914.516    -1965.952    7508.1403    309.49014    15616 
156000000   -5720.3876   -231.92014    12982.202   -1997.4945     7485.962     311.1122    15618 
157000000   -5845.4468   -300.38469    13174.846   -2001.6766    7546.7387    315.72884    15640 
158000000   -5689.9632   -250.54012    12874.748   -2075.2965    7514.7196    308.53711    15630 
159000000   -5788.4587   -361.96772    12961.596   -2002.0689    7428.5599    310.61839    15627 
160000000   -5771.7896   -320.32869    12994.043   -1978.6341     7430.095    311.39596    15640 
161000000   -5800.3231   -440.93129    12962.679   -2041.7364    7401.1282    310.64434    15635 
162000000   -5770.0583   -254.76535    12793.965   -1946.0747    7461.3676     306.6012    15618 
163000000   -5703.7612   -183.63067    13004.919   -1990.3731    7510.5036     311.6566    15610 
164000000   -5794.9703   -313.54726    12802.296   -1907.5962    7389.0192    306.80085    15624 
165000000   -5786.2907   -93.476821     13000.39   -1843.3641     7536.178    311.54806    15618 
166000000   -5915.1247   -443.74878    12918.795   -2046.2486    7517.6246    309.59269    15623 
167000000   -5898.0921   -530.70217    12948.519   -2020.8995    7388.2894    310.30501    15626 
168000000   -5787.3669   -191.52095    12976.898    -1981.567     7577.413    310.98509    15621 
169000000   -5794.0894   -252.81132    12786.164   -1966.4108    7507.6889    306.41426    15630 
170000000   -5882.9962   -587.23521    12907.613   -2037.9642    7333.7251    309.32471    15625 
171000000   -5756.6322     -260.172    12988.639   -1989.0887    7485.5489    311.26647    15618 
172000000   -5849.0457   -380.50727    12993.417   -2009.5539    7478.0924    311.38097    15622 
173000000   -5927.5648   -661.59337    13020.544    -2092.177    7358.1485    312.03104    15634 
174000000   -5779.6365   -466.42376    12919.347   -2083.7231    7396.9358    309.60591    15635 
175000000    -5873.073   -320.69532    12842.625   -1880.0424    7432.4201    307.76731    15628 
176000000   -5943.3316   -643.93149    12868.524   -2148.2243    7447.6244    308.38798    15641 
177000000   -6076.5169   -803.08021    12886.067   -2130.8387    7404.2754    308.80836    15624 
178000000   -5925.0314   -608.66377     12832.34   -1986.8991    7303.2668    307.52083    15640 
179000000   -5960.2743   -595.01514    12988.837   -1989.5033    7354.7624    311.27121    15629 
180000000    -5964.024   -774.14481    13027.114   -2199.2017    7389.0809     312.1885    15649 
181000000    -6047.521   -825.61476    13028.197   -2082.5507    7304.4569    312.21444    15643 
182000000   -6000.1406   -607.78477    12963.724   -2100.0408    7492.3966    310.66939    15652 
183000000   -5949.5208   -684.60549     13084.95    -2052.395    7317.3103    313.57451    15636 
184000000    -5888.804   -601.08702    13021.563   -2041.4732    7329.1902    312.05547    15642 
185000000   -6025.9719   -544.17454    12926.914   -1969.2381    7451.0354    309.78726    15630 
186000000   -5939.3398   -541.49947    12689.755   -1983.3238    7381.1641    304.10384    15610 
187000000   -6040.1137    -564.8347    12999.434   -1980.4137    7455.6928    311.52516    15636 
188000000   -5917.3247   -677.38389    12896.212   -2078.9997    7318.9405    309.05149    15630 
189000000   -5936.8132   -560.90962    12948.734    -1978.998    7354.9016    310.31017    15644 
190000000    -5931.702   -590.44177    12983.573   -1995.4188    7336.6791    311.14506    15639 
191000000   -5906.6549   -444.16289    12990.025   -1954.5696    7417.0616    311.29969    15640 
192000000   -5946.7936   -667.84418    12961.389   -2024.7358    7303.6852    310.61342    15634 
193000000   -6036.2776   -823.29463    12782.813   -2095.7858    7308.7688    306.33395    15643 
194000000   -6131.7793   -713.99986    13026.389   -2003.0395     7420.819    312.17113    15631 
195000000   -6204.9063   -944.47773    12986.979   -2141.3665     7401.795    311.22668    15651 
196000000   -6030.6583   -870.39065    12924.163   -2077.4596    7237.7272    309.72132    15638 
197000000   -6022.2651   -793.82603    12862.398   -2079.9128    7308.3519    308.24115    15640 
198000000   -6034.5579   -798.47585    12867.063    -2092.918         7329    308.35294    15640 
199000000   -6086.1923   -1045.8822    13037.915   -2113.7895    7154.0996    312.44734    15647 
200000000   -5981.9175   -868.36456    13053.198   -2145.6595    7259.2125    312.81358    15657 
201000000   -6041.2015   -831.73727    13019.338   -2156.8042    7366.2685    312.00215    15654 
202000000   -5965.3785    -705.6588    12977.541   -2056.6951    7316.4149     311.0005    15638 
203000000   -5922.5066   -612.08312    12872.131   -1963.6764    7274.0999     308.4744    15641 
204000000   -6011.0074   -797.28805    12789.491   -2032.7733    7246.4927    306.49399    15622 
205000000   -6033.6553    -745.3264    12913.592   -2085.8098    7374.1387    309.46801    15647 
206000000   -5853.5801   -608.60985    12797.629   -2061.9176    7306.8879      306.689    15653 
207000000   -6042.0125   -601.91995    12758.211   -2018.7523    7458.8449    305.74437    15630 
208000000   -5928.1914   -776.55782    12772.276    -2197.626    7349.2596    306.08142    15647 
209000000   -5983.8137   -493.78839    12887.044   -1937.6126    7427.6379    308.83178    15632 
210000000   -6004.8646   -786.29052    12830.784   -2121.0927    7339.6668    307.48354    15634 
211000000   -6018.8248   -663.42579    13067.533   -2036.0766    7391.4756    313.15713    15635 
212000000   -5931.4233   -569.43597    12963.565   -2015.1799    7377.1673    310.66559    15618 
213000000    -6113.537   -1001.3016    12867.001   -1986.8137    7099.0491    308.35146    15628 
214000000   -6031.9211   -755.18472    13017.694   -2009.2366     7285.973    311.96276    15621 
215000000   -6077.0589   -893.76216    13097.939   -2013.9339    7197.2307    313.88579    15640 
216000000   -6135.3112   -917.36455    13039.151    -2044.826    7262.7726    312.47695    15625 
217000000   -6131.6133   -881.74387    12862.579   -1990.2193    7240.0887    308.24549    15633 
218000000   -6214.0673   -992.60308    12953.573   -2074.5864    7296.0506    310.42612    15638 
219000000   -6208.3462    -998.1585    12746.217    -2077.832    7288.0197    305.45695    15630 
220000000   -6093.9982   -815.72211    12908.026   -2066.2707    7344.5468     309.3346    15627 
221000000   -6180.2194   -1102.5636    13108.886   -2159.6133    7237.2692    314.14812    15633 
222000000   -6202.0587   -1058.7822    12865.254   -2092.8023    7236.0788     308.3096    15639 
223000000    -6156.251    -1048.302    12878.252   -2059.9955    7167.9445     308.6211    15645 
224000000   -6058.2827   -768.61001    13009.428   -2033.3747    7323.0474    311.76465    15637 
225000000    -6111.656   -1014.0849    13118.168   -1995.4519    7093.0229    314.37057    15637 
226000000   -5956.7412     -712.543    12976.188    -2122.442    7366.6402    310.96808    15638 
227000000   -6153.4638   -961.48492    13027.456    -2122.047    7314.0259    312.19668    15646 
228000000   -6050.9684   -1024.3605     12995.32   -2077.5514    7104.1593    311.42658    15654 
229000000   -6103.1982    -1002.357    12865.227   -2116.5982    7217.4394    308.30895    15652 
230000000   -6107.1374   -783.99962    12903.862    -2033.177    7356.3148    309.23482    15649 
231000000   -6153.6965   -974.41421    12796.788   -2060.5322    7239.8145    306.66885    15636 
232000000   -6048.8023   -893.93802    12820.331   -2080.8222    7235.6865    307.23305    15663 
233000000   -6115.0208   -977.83323    12866.312    -2112.858    7250.0455    308.33494    15653 
234000000   -6113.2705   -872.31708    12956.711   -2034.6635    7275.6169    310.50131    15644 
235000000   -6183.1266   -1182.2969    12904.996   -2136.0093     7136.839    309.26199    15646 
236000000   -6088.5953   -998.96067    12906.585   -2112.2782    7201.9129    309.30009    15647 
237000000    -6119.985   -1054.6086    12998.113   -2140.2424    7205.6188    311.49349    15654 
238000000    -6121.041   -1046.5911    12936.424    -2165.963     7240.413    310.01515    15646 
239000000    -6125.393   -1139.1914    12931.546   -2143.5323    7129.7339    309.89825    15650 
240000000   -6161.4836   -935.32285    12851.954   -2050.0179    7276.1786    307.99088    15643 
241000000   -6245.2435   -989.59681    12958.872   -2052.4373    7308.0839     310.5531    15653 
242000000   -6321.6594   -1100.2068    13197.062   -2049.2823    7270.7348    316.26123    15647 
243000000   -6197.2242   -1098.9183    12818.297    -2064.509    7162.8149     307.1843    15644 
244000000   -6207.4674   -1008.3435     12820.09   -2076.6872    7275.8112    307.22727    15654 
245000000   -6075.6268   -875.59064    12900.878   -2098.4701    7298.5063    309.16332    15645 
246000000   -6138.8775   -962.71574    13076.179   -2132.5673    7308.7291    313.36432    15655 
247000000   -6159.8486   -1029.2377    13024.773    -2100.288     7230.899     312.1324    15655 
248000000   -6189.3161   -1112.3881    12934.389   -2012.4078    7089.3359    309.96639    15641 
249000000   -6223.1092   -1245.0404    13056.774   -2158.1108    7136.1795    312.89928    15661 
250000000   -6210.1247   -1038.9079    12910.626    -2064.816    7236.0329    309.39693    15641 
251000000   -6166.0347   -1166.1909    12928.771   -2173.8529    7173.6966    309.83174    15642 
252000000   -6253.7489   -1069.9239    13152.771   -2042.6013    7226.4263     315.1998    15649 
253000000   -6147.9837   -1096.8399    12912.222   -2139.7196    7190.8635    309.43517    15638 
254000000   -6227.4051   -1142.7061    12796.884   -2152.2168    7236.9158    306.67115    15652 
255000000   -6265.2444   -1182.1024    12966.051    -2189.852     7272.994    310.72515    15664 
256000000   -6290.0934    -1232.825    13098.757   -2077.0392    7134.3075     313.9054    15634 
257000000   -6215.3769   -1069.8464    13065.944   -2177.7331    7323.2636    313.11903    15645 
258000000   -6237.7585   -1141.5227    12991.993   -2162.3564    7258.5922    311.34685    15641 
259000000    -6327.498   -1116.1031     12918.89   -2062.1482    7273.5431    309.59495    15654 
260000000   -6233.3149   -909.77818    12883.207   -2034.8476    7358.3843    308.73984    15642 
261000000   -6296.2435   -1251.1257    12942.559   -2140.5199    7185.6378    310.16217    15651 
262000000   -6320.6577   -1254.1612    12996.919   -2077.0914    7143.5879     311.4649    15654 
263000000   -6199.9146   -965.24111    13015.369   -2031.7333    7266.4067    311.90704    15644 
264000000   -6288.0518   -1152.8755    12868.893   -2045.0839    7180.2602     308.3968    15655 
265000000   -6301.8308   -1176.4126    13051.537   -2030.5005    7155.9187    312.77377    15645 
266000000    -6306.094    -1252.659    12860.343    -2095.038    7148.4729    308.19192    15644 
267000000   -6383.9602   -1354.8779    13010.781   -2089.2572    7118.3395    311.79709    15640 
268000000   -6282.2519     -1064.28    12984.944   -2000.6126    7218.5845    311.17791    15633 
269000000   -6389.0158   -1207.0426    12840.175   -2047.0172    7228.9904    307.70859    15644 
270000000   -6377.8797   -1238.1325    12920.285   -2090.6096    7230.3568     309.6284    15645 
271000000   -6308.4502   -1060.9799    12827.825   -2088.5613    7336.0315    307.41263    15646 
272000000   -6377.8906    -1243.326    12912.169   -2097.9504    7232.5149    309.43389    15646 
273000000   -6371.2593    -1126.776    12896.451    -2065.179    7309.6624    309.05722    15631 
274000000   -6374.4862   -1350.3901    13144.081   -2192.6647    7216.7608    314.99155    15665 
275000000   -6292.6474   -1128.1984    13001.756   -1961.5014    7125.9503    311.58081    15654 
276000000   -6396.7239   -1195.1166    13022.085   -2114.6787     7316.286    312.06798    15647 
277000000   -6333.6477   -1198.4754    12997.069   -2105.6531    7240.8255    311.46849    15639 
278000000   -6472.7666   -1393.1272    12873.799   -2154.3885    7234.0278    308.51439    15644 
279000000   -6409.9658   -1265.4316    12906.334   -2066.7143    7211.2485    309.29407    15645 
280000000   -6458.1362   -1273.1057    12983.306   -2130.1871    7315.2176    311.13865    15653 
281000000   -6524.1477   -1253.5125    12732.166    -2002.863    7273.4982     305.1202    15641 
282000000   -6610.0651   -1403.0938    12908.447   -2127.9702    7334.9415     309.3447    15640 
283000000     -6420.77    -1267.155    12787.804   -2037.7678    7191.3828    306.45355    15641 
284000000   -6527.3093   -1406.1185    13003.882    -2048.779    7169.9698    311.63175    15640 
285000000   -6543.1111   -1543.7361    12917.955   -2166.1437    7165.5188    309.57255    15646 
286000000   -6458.9921    -1479.025    13075.499   -2097.5042    7077.4712    313.34803    15650 
287000000   -6408.9558    -1392.689    12919.898    -2063.342    7079.6088    309.61912    15661 
288000000   -6482.6851   -1446.0836    13085.517   -2106.0239    7142.6254    313.58809    15646 
289000000    -6399.926   -1250.6373    12815.408   -1990.1506    7139.4393    307.11508    15654 
290000000   -6503.6368   -1513.6339     12936.28   -2080.3107    7070.3136    310.01171    15650 
291000000   -6378.9451   -1201.4311    13000.504   -2118.7722    7296.2862     311.5508    15655 
292000000   -6493.5233   -1372.8211    12896.975   -2027.0994    7147.8017    309.06978    15655 
293000000   -6590.2487   -1501.7827    13053.843    -2009.376    7097.8421    312.82904    15657 
294000000   -6472.6178   -1397.8673    12916.511   -2079.8816    7154.6321    309.53795    15655 
295000000   -6488.0128   -1452.2019    12932.373   -2090.1887    7125.9996    309.91807    15650 
296000000   -6364.5692    -1210.374     12804.07   -2048.3789    7202.5742    306.84336    15654 
297000000   -6484.2779   -1348.2798     12817.76   -2067.3083    7203.3064    307.17142    15650 
298000000   -6524.1092   -1267.0339    12971.481   -1969.3581    7226.4334    310.85529    15628 
299000000   -6709.0974   -1578.3234     12937.34   -2076.7344    7207.5084     310.0371    15652 
300000000    -6621.277    -1400.757    13040.838   -2145.3268    7365.8468     312.5174    15659 
301000000   -6535.8577   -1572.8786    12963.996    -2139.211    7102.1902    310.67591    15661 
302000000   -6713.0216   -1658.2789    12948.083   -2078.6494    7133.3921    310.29455    15646 
303000000   -6613.6988   -1543.9978    12948.101   -2080.0161    7149.7171    310.29498    15641 
304000000   -6671.0321   -1623.7479    12956.618   -2073.4064    7120.6906     310.4991    15644 
305000000    -6514.289   -1389.1176    12805.844   -2077.8737    7203.0451    306.88588    15654 
306000000   -6556.4683   -1478.7898    12936.885   -2144.6965    7222.3749     310.0262    15658 
307000000   -6512.0098   -1427.6622    12850.856   -2061.3667    7145.7143    307.96457    15658 
308000000   -6614.4034   -1688.1132    13126.445   -2139.0542    7065.3444    314.56892    15665 
309000000   -6544.7054   -1453.2776    12998.672   -2149.4132     7240.841    311.50691    15642 
310000000   -6641.0513   -1679.4537    12848.925   -2171.0272    7132.6248    307.91829    15655 
311000000   -6566.3543   -1488.8537    12855.111   -2066.7241    7144.2247    308.06652    15660 
312000000   -6679.4802    -1692.222    12964.507   -2178.7438     7166.002    310.68814    15662 
313000000   -6667.8359    -1583.896    12880.025   -2126.6835    7210.6234    308.66359    15660 
314000000   -6757.5144   -1748.1156     12861.25   -2137.7802     7147.179    308.21364    15651 
315000000   -6717.2639   -1814.0575    12955.974   -2229.5977    7132.8042    310.48367    15655 
316000000   -6724.9845   -1430.9702    12897.723   -1967.4568    7261.4711    309.08769    15642 
317000000   -6737.8459   -1913.4386    12923.102   -2272.4593    7096.8666    309.69591    15661 
318000000   -6685.6513   -1742.9013    12976.819   -2145.4997    7088.2498    310.98319    15673 
319000000   -6702.4313   -1722.6971    13101.611   -2156.0362    7135.7704    313.97379    15663 
320000000   -6758.0369   -1684.3664    12966.122    -2095.178    7168.8486    310.72686    15654 
321000000   -6749.0366   -1835.8039    12875.813     -2224.44    7137.6727    308.56263    15662 
322000000    -6752.106   -1958.3837    12847.779   -2278.9508     7072.673    307.89083    15657 
323000000   -6804.4223   -1931.0582    13071.021   -2192.1507    7065.5148     313.2407    15653 
324000000   -6868.9594   -2104.2106    12933.154   -2247.6006    7012.3494    309.93679    15663 
325000000   -6883.1756   -1957.6671    12926.385   -2111.4092    7036.9177    309.77458    15661 
326000000   -6785.5317   -1837.2506     12979.96   -2091.0926    7039.3737    311.05847    15648 
327000000   -6792.5444   -1871.2461    12725.859    -2189.329    7110.6274    304.96906    15652 
328000000   -6708.2873   -1600.8721      12835.4   -2024.6233    7132.0384    307.59417    15654 
329000000   -6854.9733   -1821.8829    12907.823   -2103.8398    7136.9302    309.32975    15643 
330000000   -6801.3393   -1913.2104    12800.963   -2074.9724    6963.1012     306.7689    15650 
331000000   -6830.6011   -1912.0201    12864.759   -2228.0271    7146.6081    308.29774    15654 
332000000    -6771.388   -1879.9755    12966.214   -2128.5243    7019.9368    310.72905    15657 
333000000   -6666.4094   -1693.8904    12873.772    -2101.814    7074.3329    308.51374    15651 
334000000   -6704.0287    -1640.098    12673.449   -2081.6727    7145.6035    303.71309    15656 
335000000   -6850.3817   -1979.7671      12928.8   -2158.1252    7028.7399    309.83245    15660 
336000000   -6842.9803   -1738.5788    12953.237   -1977.2179    7081.6194    310.41808    15643 
337000000   -6737.8519   -1649.8937     12923.27   -2092.5631    7180.5212    309.69993    15650 
338000000   -6808.4909   -1711.8512    12936.736   -2034.8006    7131.4403    310.02264    15641 
339000000    -6826.717   -1938.6204    12969.111   -2092.2854    6980.3819    310.79849    15644 
340000000   -6903.3778   -2051.6825    12870.855   -2132.7201    6984.4154    308.44382    15656 
341000000   -6865.2092   -1831.9537    13076.727   -2098.4728    7131.7283    313.37745    15646 
342000000   -6846.0444   -1919.8692    12865.662   -2173.9186    7100.0938    308.31937    15658 
343000000    -6868.792   -1749.4953    12970.483   -2062.0411    7181.3378    310.83138    15655 
344000000   -6875.9412   -1961.4623    12871.169   -2136.1168    7050.5956    308.45135    15654 
345000000   -6996.5751   -2076.8508    12814.223   -2093.1592    7012.8835    307.08667    15661 
346000000   -6878.6759    -1888.596    13049.586   -2121.6711    7111.7509    312.72702    15656 
347000000   -6987.4973   -2004.1476    13000.746   -2151.2453     7134.595    311.55661    15665 
348000000   -6876.0906   -1838.6793    13018.151   -2131.9767     7169.388    311.97371    15661 
349000000   -6839.7781   -1967.3807    12916.982   -2160.2857     7032.683    309.54924    15656 
350000000   -6933.3686   -1853.0487    13122.616   -2090.1669    7170.4867    314.47716    15662 
351000000   -6984.4146     -1933.13    12844.823   -2065.1942    7116.4788    307.81998    15651 
352000000   -6936.3417   -2004.5881    12881.999   -2114.6172    7046.3708    308.71088    15661 
353000000   -6912.5228   -1852.6902    13078.893   -2100.3424     7160.175    313.42937    15664 
354000000   -6918.3755   -2162.2187    12816.426   -2303.1786    7059.3354    307.13946    15664 
355000000   -6874.1386   -1888.6304    12984.955   -2131.9934    7117.5016    311.17819    15655 
356000000   -6928.7252   -2044.6356    13048.414   -2186.5097    7070.5992    312.69895    15653 
357000000   -6779.7868   -1773.7373    12854.461   -2070.4761    7076.5256    308.05095    15651 
358000000   -6797.6886   -1759.8029    12800.074   -2038.8943    7076.7801    306.74759    15640 
359000000   -6936.9732   -2016.9046    12914.533   -2107.5188    7027.5875    309.49055    15650 
360000000   -6919.2947   -2043.3833    12874.284   -2118.0353    6993.9467    308.52601    15661 
361000000   -6909.1569   -1945.0182    12998.697   -2078.8188    7042.9575     311.5075    15656 
362000000    -6964.382   -2173.1474    12898.484   -2188.1035    6979.3381    309.10594    15658 
363000000    -6925.825   -2039.8354    12908.178   -2166.4249    7052.4144    309.33826    15667 
364000000   -6862.6091   -1916.5419    12856.423   -2203.0502    7149.1174    308.09797    15668 
365000000   -6937.7577   -2158.3198    12793.895    -2214.157    6993.5949    306.59951    15660 
366000000   -6954.6207   -1972.6094    12831.498   -2118.7208     7100.732    307.50065    15669 
367000000   -6990.4972   -1990.9044    12819.881   -2050.3562    7049.9491    307.22226    15639 
368000000   -6889.5906   -1933.7614    12955.043   -2062.5595    7018.3887    310.46134    15657 
369000000   -6878.8681   -1986.5854    12940.148   -2083.6747    6975.9574    310.10439    15660 
370000000   -6819.9234   -1878.0997    13007.736   -2181.0118    7122.8355    311.72412    15660 
371000000   -7069.0504   -2175.9926    12765.832   -2084.9201    6977.9779    305.92699    15655 
372000000   -6923.2305   -2023.3454    13029.964   -2147.3422    7047.2273    312.25679    15657 
373000000   -6792.7617   -1793.1014    12870.809   -2077.7094    7077.3698    308.44273    15642 
374000000    -6830.847    -1811.727    12913.001   -2112.9876    7132.1076    309.45384    15659 
375000000   -6961.3352   -2186.6322    13219.389    -2215.749     6990.452    316.79628    15669 
376000000   -6894.7329   -1919.3077    12978.488   -2100.7926    7076.2179    311.02321    15660 
377000000   -6976.3101   -2041.8433     12875.93   -2068.1282    7002.5951    308.56546    15666 
378000000   -6930.8857   -2081.3314    12840.509   -2167.4145    7016.9689     307.7166    15664 
379000000   -6969.2144   -2115.8638    12946.766   -2149.2251    7002.5756    310.26299    15666 
380000000   -6945.5338   -1925.7364    12887.693   -2021.9207    7041.7182    308.84734    15661 
381000000   -6985.2176   -1965.6571    12872.391   -2090.9886    7110.5491    308.48063    15658 
382000000    -7020.981   -1978.0555    12874.891    -2090.233    7133.1585    308.54054    15660 
383000000   -6933.7949   -2060.9113    13030.393   -2155.8052    7028.6888    312.26707    15670 
384000000   -6874.4489   -2031.5478    12881.977   -2116.1929     6959.094    308.71035    15651 
385000000   -6973.4803   -2213.6338    12934.743   -2175.9068    6935.7533    309.97488    15652 
386000000   -6831.0564   -1826.7915    12814.817   -2114.0067    7118.2716    307.10089    15671 
387000000   -6931.9304   -1826.1934      12934.3   -2087.3312    7193.0682    309.96425    15649 
388000000   -6831.1588   -1761.2949    12916.874   -2029.2868    7099.1506    309.54664    15662 
389000000   -6969.5023   -2085.2241    12949.598    -2140.616    7024.8942    310.33087    15652 
390000000   -6889.0189   -1907.6467    12913.849   -2088.8045    7070.1766    309.47416    15647 
391000000   -6954.2892   -1959.7049    13036.349   -2101.6743    7096.2586    312.40981    15653 
392000000   -6856.4329   -1959.2052    12996.088   -2226.5798    7123.8076    311.44497    15658 
393000000   -6848.5655   -1903.5151    12974.769   -2057.6551    7002.7055    310.93408    15661 
394000000   -6867.2964   -1938.2648    12896.407   -2119.1285    7048.1601    309.05617    15652 
395000000   -6999.0775   -2130.3095    12935.003   -2169.2845    7038.0525    309.98109    15665 
396000000    -7066.627   -2089.4005    12753.014   -2139.1966    7116.4231    305.61983    15660 
397000000   -6913.1578   -2018.6128    12848.186   -2115.4444    7009.9893    307.90057    15651 
398000000   -6887.9976   -1949.0112    12920.826    -2098.806    7037.7924    309.64136    15662 
399000000   -6861.1357   -2022.2243    12908.939   -2154.7766     6993.688     309.3565    15663 
400000000    -6878.421   -2075.6714     12876.67   -2195.9828    6998.7325    308.58317    15655 
401000000   -6977.9882   -2186.2694     12975.53   -2100.0173    6891.7361     310.9523    15659 
402000000   -6900.3343   -1827.4172     13142.72   -2047.9224    7120.8396    314.95894    15649 
403000000    -6911.105   -2049.3308    12862.067   -2199.5108     7061.285    308.23323    15666 
404000000   -6898.7105   -1968.7395    12846.273   -2152.4994    7082.4704    307.85474    15650 
405000000   -6945.0022   -2067.6685    12850.604   -2075.0582    6952.3919    307.95851    15657 
406000000   -6949.7527   -1949.0283    12999.011   -2112.9785     7113.703    311.51502    15655 
407000000   -7001.7196   -2169.2635    12949.042   -2187.5719    7020.0281    310.31753    15665 
408000000   -7039.6943   -2133.9568    12966.549   -2120.3386    7026.0761     310.7371    15651 
409000000   -6950.9623    -2155.183    13177.643    -2240.023    7035.8022    315.79586    15653 
410000000   -6992.9368   -2117.8175    13042.114   -2105.2902    6980.4094    312.54797    15644 
411000000   -6932.9112   -1867.5401    13059.607   -2060.7192    7126.0904    312.96717    15652 
412000000   -6913.9818   -1875.4605    13029.236   -2042.3508    7080.8721    312.23936    15654 
413000000   -6927.4146   -2096.5313    12914.977   -2122.4015    6953.2847    309.50119    15667 
414000000   -6911.7927   -1853.2139      12995.3   -2136.0392    7194.6179    311.42608    15656 
415000000   -6999.9496   -2101.2985    12864.482   -2074.1269     6972.778     308.2911    15647 
416000000   -6982.8519   -2155.3383    13100.021   -2143.5191    6971.0328    313.93569    15669 
417000000   -6963.6934   -2056.2689    12882.325   -2193.2347    7100.6591    308.71871    15670 
418000000    -6976.936   -1990.1219    12997.547   -2118.0222    7104.8363    311.47995    15665 
419000000   -6928.8804   -1958.2555    12952.125   -2138.0428    7108.6677    310.39143    15659 
420000000   -6892.1684   -1859.4378    13062.797   -2058.5966    7091.3271    313.04363    15649 
421000000   -6855.1902    -1863.706    12778.749   -2117.7698     7109.254    306.23654    15646 
422000000   -6913.4971   -2040.0191    12948.956   -2164.9163    7038.3943    310.31548    15651 
423000000   -6992.8092   -2243.9472    12870.566   -2139.2062    6888.0681     308.4369    15658 
424000000   -6870.2787   -1847.8152    12888.535   -2054.5534    7077.0169    308.86751    15651 
425000000   -6983.7503   -2093.6775    13030.751   -2131.2901     7021.363    312.27567    15651 
426000000   -7043.1594   -2149.1991    12852.894   -2111.7003    7005.6607     308.0134    15657 
427000000   -6969.3215   -2154.0972    12973.513   -2134.4655    6949.6898    310.90397    15659 
428000000   -6999.2597   -2211.7819    13025.188   -2087.4227    6874.9005    312.14235    15653 
429000000   -6898.2067   -1934.1622    12880.917    -2113.267    7077.3115    308.68496    15639 
430000000   -6997.6643   -2195.3524    13014.922   -2201.3409    7003.6529    311.89631    15654 
431000000   -7097.1181   -2207.5622    12914.339   -2061.3291     6950.885    309.48589    15650 
432000000   -6971.8971   -1919.1861    13076.828   -2020.4536    7073.1646    313.37986    15655 
433000000   -6871.3272   -2052.5403    13065.522   -2178.5742     6997.361    313.10892    15647 
434000000   -7055.4209   -2067.6311    12787.319   -2104.6813     7092.471    306.44192    15657 
435000000   -7070.4967   -2137.9322      13061.6   -2104.9414    7037.5058    313.01493    15667 
436000000   -7078.6645   -2109.3096    12926.513    -2106.653    7076.0079    309.77764    15645 
437000000   -6942.7014    -2078.877    12897.758   -2158.8503    7022.6747    309.08853    15666 
438000000   -7039.3262   -2029.5952    13014.816   -2032.9056    7042.6366    311.89379    15645 
439000000   -6993.7606   -2098.6119    12878.818     -2157.35    7052.4987    308.63467    15665 
440000000   -7117.4795     -2246.39    12878.961    -2091.464    6962.5535    308.63808    15670 
441000000   -7031.5919   -1962.3534    12916.733   -2065.4725     7134.711    309.54328    15658 
442000000   -7048.3832   -2128.0275    12851.627   -2163.8632    7084.2189    307.98305    15661 
443000000   -6981.6614   -1948.3822    12878.329   -2080.6477    7113.9269    308.62293    15650 
444000000   -7049.7615   -2220.0362    12953.999   -2031.0333    6860.7586    310.43634    15651 
445000000    -7065.479   -2143.4792    12932.625   -2125.0821    7047.0819    309.92412    15645 
446000000   -7067.9158   -2160.3001    12843.022   -2246.3732     7153.989    307.77683    15673 
447000000   -6986.1267   -2085.8027    12898.296    -2127.038     7027.362    309.10143    15659 
448000000   -6860.9379   -1906.1469    12935.919   -2080.2979     7035.089    310.00306    15651 
449000000    -6968.917   -2008.3715    12975.399   -2149.9151    7110.4606    310.94918    15653 
450000000   -6904.4939   -1828.9558    12951.402   -2099.5345    7175.0726    310.37409    15650 
451000000    -7060.997   -2426.5575    12916.852   -2234.9534    6869.3929    309.54613    15656 
452000000   -6998.5337   -2065.1222    12905.121     -2093.07    7026.4815    309.26499    15651 
453000000   -6949.3662   -1982.1585    12885.565   -2108.5587    7075.7664    308.79635    15640 
454000000   -7012.5876    -2243.055    12882.144   -2138.8929    6908.4256    308.71436    15654 
455000000   -6945.8235   -1911.6499    12991.538     -2080.05    7114.2236    311.33595    15647 
456000000   -6974.9063   -2031.5497    12967.867   -2080.0077    7023.3643    310.76867    15662 
457000000   -6964.9535   -1996.5852    13005.275    -2102.798    7071.1663    311.66514    15657 
458000000   -7024.4678   -2142.1249    12760.407   -2161.2666    7043.6095      305.797    15651 
459000000   -7063.8535   -2038.0476    12908.925   -2024.0295    7049.8354    309.35615    15639 
460000000   -7146.0042   -2232.4687    12915.233   -2075.4127    6988.9483    309.50732    15657 
461000000   -7013.4761   -2055.8654    12881.996   -2048.4687    7006.0794    308.71082    15646 
462000000   -6952.8037   -2182.9399    13124.893   -2078.3068    6848.1706    314.53172    15650 
463000000   -7003.9245   -2247.3961    13045.058   -2220.2614    6976.7898    312.61852    15659 
464000000   -7098.5385   -2212.3849    12927.291   -2107.8454    6993.9991    309.79629    15653 
465000000   -6909.0955   -1917.0241    12823.768   -2103.6527    7095.7242    307.31541    15656 
466000000   -7039.2845   -2120.4816    12858.398   -2120.5787    7039.3816    308.14531    15658 
467000000   -7035.8579   -2182.9282     12854.57   -2221.5579    7074.4876    308.05356    15659 
468000000   -7100.4818   -2326.7761    13044.641   -2191.2899    6964.9957    312.60853    15657 
469000000   -7086.7583   -2275.3176    12819.126   -2146.4318    6957.8725    307.20416    15652 
470000000   -7106.2855   -2207.7032    12923.144   -2113.2695    7011.8518     309.6969    15653 
471000000   -7068.4561   -2049.9256    12917.868   -2105.9695    7124.5001    309.57047    15652 
472000000   -7155.0434   -2314.6868    12899.563   -2052.4205     6892.777    309.13179    15637 
473000000   -7030.1099   -2348.6321    12978.055   -2198.7602     6880.238    311.01283    15661 
474000000   -7084.3943   -2068.8417    12878.723   -2065.7872    7081.3398    308.63239    15657 
475000000   -6999.5818   -2094.2792    12751.251   -2149.8438    7055.1464    305.57756    15650 
476000000   -7086.5355   -2248.6151    13121.834   -2214.8599    7052.7803    314.45842    15659 
477000000   -7147.1053   -2370.3968    12931.898   -2204.0985     6980.807    309.90669    15661 
478000000   -7078.5846   -2220.0495    13005.387     -2147.16    7005.6952    311.66782    15661 
479000000   -7005.7159   -1999.4124    12805.323   -2096.2731    7102.5767    306.87338    15649 
480000000   -7073.0161   -2109.9354    12923.889   -2062.7196    7025.8002    309.71476    15661 
481000000    -7022.033   -2037.5611    13039.131   -2089.1389    7073.6108    312.47648    15647 
482000000    -7006.971   -2113.2413    12821.633   -2167.2147    7060.9444    307.26425    15654 
483000000   -7089.8652   -2254.7376    12864.857   -2071.7226    6906.8502    308.30009    15650 
484000000   -7105.3514   -2194.8623    12949.742   -2103.9732    7014.4622    310.33432    15657 
485000000   -7090.6917   -2137.0995    12893.584   -2084.1805    7037.7727    308.98853    15673 
486000000   -7001.5685   -2050.2613     12907.57   -2152.0486    7103.3559    309.32368    15659 
487000000   -7054.2247   -2141.3841    12897.608   -2126.4218    7039.2624    309.08496    15658 
488000000   -7025.8233   -2124.5465    12944.567   -2093.5757    6994.8525    310.21031    15654 
489000000   -7065.7242   -2183.7236    12936.258   -2106.3699    6988.3705    310.01118    15663 
490000000   -7085.2268   -2339.5369    12899.595   -2139.6476    6885.3376    309.13256    15656 
491000000    -7015.427   -2162.9216    12874.943    -2167.452    7019.9574    308.54179    15680 
492000000   -7010.2295   -2126.7848    12910.682    -2153.473    7036.9177    309.39826    15665 
493000000   -7087.9187    -2145.723    12984.022   -2118.6225    7060.8182    311.15583    15671 
494000000   -7016.2681   -2189.9763    12825.249   -2117.6131    6943.9049     307.3509    15658 
495000000   -7102.2906   -2209.7677     12991.96   -2124.1686    7016.6915    311.34604    15655 
496000000   -7128.0992   -2341.4057    13079.058   -2194.3288    6981.0223    313.43331    15665 
497000000   -6978.2685   -1893.5497    12887.179   -1978.1072    7062.8261    308.83502    15640 
498000000   -6957.4578    -2049.606    12975.949    -2103.576    7011.4277    310.96235    15632 
499000000   -7067.8681   -2290.1407    12868.065   -2204.8537    6982.5811    308.37695    15666 
500000000   -7076.0487   -2140.0904    12853.912    -2110.489    7046.4472    308.03779    15658 
Loop time of 212449 on 28 procs for 500000000 steps with 14000 atoms

Performance: 5083.576 ns/day, 0.005 hours/ns, 2353.507 timesteps/s
99.4% CPU use with 28 MPI tasks x no OpenMP threads

MPI task timing breakdown:
Section |  min time  |  avg time  |  max time  |%varavg| %total
---------------------------------------------------------------
Pair    | 29449      | 38663      | 47216      |2727.9 | 18.20
Bond    | 5853.2     | 8975.9     | 11638      |2794.8 |  4.22
Neigh   | 75852      | 76811      | 77747      | 194.1 | 36.16
Comm    | 40795      | 52041      | 63894      |3446.6 | 24.50
Output  | 0.70655    | 0.70775    | 0.70885    |   0.1 |  0.00
Modify  | 22718      | 22906      | 23101      |  54.4 | 10.78
Other   |            | 1.305e+04  |            |       |  6.14

Nlocal:    500 ave 533 max 460 min
Histogram: 1 0 1 6 6 4 3 2 3 2
Nghost:    654.964 ave 1195 max 195 min
Histogram: 2 2 1 3 9 5 3 2 0 1
Neighs:    10304.9 ave 12562 max 8191 min
Histogram: 3 1 4 4 3 2 5 3 0 3

Total # of neighbors = 288538
Ave neighs/atom = 20.6099
Ave special neighs/atom = 9.25529
Neighbor list builds = 99712276
Dangerous builds = 0
System init for write_restart ...
Total wall time: 59:01:01
