LAMMPS (5 Jun 2019)
Reading data file ...
  orthogonal box = (-1020 -1020 -1020) to (1020 1020 1020)
  2 by 2 by 7 MPI processor grid
  reading atoms ...
  14000 atoms
  reading velocities ...
  14000 velocities
  scanning bonds ...
  2 = max bonds/atom
  scanning angles ...
  1 = max angles/atom
  reading bonds ...
  15734 bonds
  reading angles ...
  13600 angles
Finding 1-2 1-3 1-4 neighbors ...
  special bond factors lj:   0          0          0         
  special bond factors coul: 0          0          0         
  3 = max # of 1-2 neighbors
  4 = max # of 1-3 neighbors
  8 = max # of 1-4 neighbors
  11 = max # of special neighbors
  special bonds CPU = 0.636918 secs
  read_data CPU = 0.729801 secs
Finding 1-2 1-3 1-4 neighbors ...
  special bond factors lj:   1          1          1         
  special bond factors coul: 0          0          0         
  3 = max # of 1-2 neighbors
  4 = max # of 1-3 neighbors
  8 = max # of 1-4 neighbors
  11 = max # of special neighbors
  special bonds CPU = 0.00155432 secs
WARNING: Using 'neigh_modify every 1 delay 0 check yes' setting during minimization (../min.cpp:168)
Neighbor list info ...
  update every 1 steps, delay 0 steps, check yes
  max neighbors/atom: 2000, page size: 100000
  master list distance cutoff = 26.9
  ghost atom cutoff = 26.9
  binsize = 13.45, bins = 152 152 152
  1 neighbor lists, perpetual/occasional/extra = 1 0 0
  (1) pair lj/cut, perpetual
      attributes: half, newton on
      pair build: half/bin/newton
      stencil: half/bin/3d/newton
      bin: standard
Setting up cg style minimization ...
  Unit style    : real
  Current step  : 0
Per MPI rank memory allocation (min/avg/max) = 1.481 | 3.433 | 9.605 Mbytes
Step Temp E_pair E_mol TotEng Press 
       0    30.664295   -7166.3122    81991.711     76104.97  -0.13689457 
    1534    30.664295    -6561.082    10590.414    5308.9026  0.059867704 
Loop time of 2.44618 on 28 procs for 1534 steps with 14000 atoms

99.6% CPU use with 28 MPI tasks x no OpenMP threads

Minimization stats:
  Stopping criterion = energy tolerance
  Energy initial, next-to-last, final = 
         74825.3992582      4029.72881206      4029.33185017
  Force two-norm initial, final = 503.419 4.34071
  Force max component initial, final = 11.6699 1.53643
  Final line search alpha, max atom move = 0.0635366 0.0976195
  Iterations, force evaluations = 1534 1558

MPI task timing breakdown:
Section |  min time  |  avg time  |  max time  |%varavg| %total
---------------------------------------------------------------
Pair    | 5.9865e-05 | 0.19876    | 1.4079     | 103.6 |  8.13
Bond    | 0.0001358  | 0.021393   | 0.14449    |  32.5 |  0.87
Neigh   | 0.53678    | 0.54826    | 0.55624    |   1.1 | 22.41
Comm    | 0.0088657  | 0.50563    | 1.6738     | 100.8 | 20.67
Output  | 0          | 0          | 0          |   0.0 |  0.00
Modify  | 0          | 0          | 0          |   0.0 |  0.00
Other   |            | 1.172      |            |       | 47.92

Nlocal:    500 ave 3361 max 0 min
Histogram: 24 0 0 0 0 0 0 0 1 3
Nghost:    361.179 ave 1865 max 0 min
Histogram: 16 5 3 0 0 0 0 0 0 4
Neighs:    9769.36 ave 67982 max 0 min
Histogram: 24 0 0 0 0 0 0 0 1 3

Total # of neighbors = 273542
Ave neighs/atom = 19.5387
Ave special neighs/atom = 9.39243
Neighbor list builds = 117
Dangerous builds = 0
Setting up Verlet run ...
  Unit style    : real
  Current step  : 1534
  Time step     : 0.1
Per MPI rank memory allocation (min/avg/max) = 1.443 | 3.125 | 8.48 Mbytes
Step Temp E_pair E_mol TotEng Press 
    1534    30.664295    -6561.082    10590.414    5308.9026  0.059867704 
   11534      270.466   -5475.8522    18405.544    24215.795  0.017941846 
Loop time of 8.65016 on 28 procs for 10000 steps with 14000 atoms

Performance: 9.988 ns/day, 2.403 hours/ns, 1156.048 timesteps/s
99.6% CPU use with 28 MPI tasks x no OpenMP threads

MPI task timing breakdown:
Section |  min time  |  avg time  |  max time  |%varavg| %total
---------------------------------------------------------------
Pair    | 0.00033767 | 0.75075    | 5.2856     | 202.9 |  8.68
Bond    | 0.00053936 | 0.112      | 0.74253    |  73.8 |  1.29
Neigh   | 0.022469   | 0.023654   | 0.024676   |   0.6 |  0.27
Comm    | 0.0028248  | 2.0048     | 6.6453     | 201.8 | 23.18
Output  | 9.2312e-05 | 0.00082844 | 0.0012935  |   0.0 |  0.01
Modify  | 0.00097415 | 0.24357    | 1.6053     | 108.6 |  2.82
Other   |            | 5.515      |            |       | 63.75

Nlocal:    500 ave 3366 max 0 min
Histogram: 24 0 0 0 0 0 0 0 1 3
Nghost:    360.607 ave 1860 max 0 min
Histogram: 16 5 3 0 0 0 0 0 0 4
Neighs:    9769.68 ave 68116 max 0 min
Histogram: 24 0 0 0 0 0 0 0 1 3

Total # of neighbors = 273551
Ave neighs/atom = 19.5394
Ave special neighs/atom = 9.39243
Neighbor list builds = 5
Dangerous builds = 0
4000 atoms in group rxnSites
Neighbor list info ...
  update every 1 steps, delay 1 steps, check yes
  max neighbors/atom: 2000, page size: 100000
  master list distance cutoff = 26.9
  ghost atom cutoff = 26.9
  binsize = 13.45, bins = 152 152 152
  2 neighbor lists, perpetual/occasional/extra = 1 1 0
  (1) pair lj/cut, perpetual
      attributes: half, newton on
      pair build: half/bin/newton
      stencil: half/bin/3d/newton
      bin: standard
  (2) fix bond/create/random, occasional, copy from (1)
      attributes: half, newton on
      pair build: copy
      stencil: none
      bin: none
Setting up Verlet run ...
  Unit style    : real
  Current step  : 0
  Time step     : 25
Per MPI rank memory allocation (min/avg/max) = 8.908 | 9.843 | 12.53 Mbytes
Step E_pair PotEng KinEng E_bond E_angle Temp Bonds 
       0   -5475.8522    12929.692    11286.102   -7439.4054     25844.95      270.466    15734 
 1000000   -3220.7703    6331.6691    13041.716   -5867.8644    15420.304    312.53844    15545 
 2000000    -3119.299    5418.6388    12860.933   -5906.1783    14444.116    308.20605    15558 
 3000000   -3076.7146     4974.493    13064.552   -5919.5188    13970.726    313.08567    15559 
 4000000    -3118.141    4301.0078    12929.856   -6101.4716     13520.62    309.85775    15576 
 5000000   -3134.3777    4199.8677     12955.65   -6023.6475    13357.893     310.4759    15580 
 6000000   -3130.3856    3839.1144    12956.924   -6132.0934    13101.593    310.50643    15596 
 7000000    -3111.897    3594.3652    12875.708   -6244.9116    12951.174    308.56012    15614 
 8000000   -3047.8938    3645.7063    12897.586   -6195.2702     12888.87    309.08441    15613 
 9000000    -3141.014    3433.1448     12873.35   -6229.5291    12803.688    308.50362    15605 
10000000   -3071.7529    3364.2152    12935.899   -6237.4332    12673.401    310.00259    15607 
11000000   -3086.4556    3195.3769    12907.951   -6275.3492    12557.182    309.33282    15620 
12000000   -3071.1507    3054.9449    12913.596   -6383.6243     12509.72     309.4681    15627 
13000000   -3099.6065    3056.9566    12832.403   -6171.5798    12328.143    307.52235    15608 
14000000   -3146.8306    2832.2654    13023.721    -6265.659    12244.755    312.10718    15619 
15000000   -3103.0221    2837.1003    12916.496   -6326.9888    12267.111     309.5376    15616 
16000000   -3081.9636    2699.7273    12810.232   -6291.2417    12072.933    306.99103    15624 
17000000   -3187.2811    2551.7488    12885.847   -6309.3033    12048.333    308.80309    15617 
18000000   -3180.1161    2492.5204    12935.989   -6324.9015    11997.538    310.00472    15631 
19000000    -3087.853    2709.5539    12951.649   -6256.3762    12053.783    310.38001    15624 
20000000   -3107.3531    2589.7671    13207.401   -6244.2077    11941.328    316.50899    15624 
21000000   -3109.2531    2527.6316    13092.207   -6335.5659    11972.451    313.74841    15622 
22000000   -3115.2685    2510.8874    12904.016   -6373.6574    11999.813    309.23851    15621 
23000000   -3063.5449    2542.3821    12975.793   -6333.3871    11939.314    310.95861    15622 
24000000   -3061.2552     2335.105     12908.22    -6361.273    11757.633    309.33927    15635 
25000000   -3103.7727    2335.7039    12882.321    -6372.409    11811.886     308.7186    15631 
26000000   -3067.3768     2239.152    12869.485   -6362.8118    11669.341    308.41098    15633 
27000000   -3117.4361    2129.5364    12879.277   -6469.0119    11715.984    308.64565    15629 
28000000   -3093.7658    2234.9542    12803.185   -6334.4165    11663.137    306.82215    15627 
29000000   -3105.0909    2228.3668    12923.823   -6320.5245    11653.982    309.71318    15618 
30000000   -3102.7353    2203.3356    12823.609   -6252.3153    11558.386    307.31161    15621 
31000000   -3120.4844    2044.8298    13016.364   -6398.9413    11564.256    311.93087    15633 
32000000   -3170.9236    2013.5937    12764.693   -6303.0839    11487.601    305.89972    15626 
33000000   -3127.4866    2109.7154    13036.053   -6355.2414    11592.443    312.40271    15637 
34000000   -3131.0727    1907.7671    12930.569   -6406.1356    11444.975    309.87484    15634 
35000000   -3163.8821    2017.1992    12999.356   -6312.5295    11493.611    311.52329    15639 
36000000   -3175.4981    1900.4366    12946.866   -6358.7874    11434.722     310.2654    15632 
37000000   -3226.0167    1794.6073    12938.061   -6310.9332    11331.557    310.05439    15639 
38000000   -3116.9553     1905.194    12907.065   -6363.2804     11385.43    309.31158    15636 
39000000   -3149.9687    1704.2351    12839.154   -6465.5037    11319.707    307.68413    15640 
40000000   -3141.1506    1678.7166    13020.732   -6473.4479    11293.315    312.03556    15636 
41000000   -3110.0697    1736.7692     12999.03   -6396.3384    11243.177    311.51548    15638 
42000000   -3231.9811    1585.3087    12804.346   -6431.6745    11248.964    306.84996    15645 
43000000   -3131.5058    1654.9883    12859.166   -6401.3284    11187.823    308.16371    15643 
44000000   -3149.2198    1722.9215    12987.465   -6331.4973    11203.639    311.23834    15637 
45000000   -3202.6601    1590.5821    13013.866   -6405.7349    11198.977    311.87101    15631 
46000000   -3141.0966    1742.0276    12940.615   -6334.2362     11217.36    310.11559    15626 
47000000   -3196.4883    1446.8279    12927.794   -6473.6225    11116.939    309.80834    15629 
48000000   -3156.5973     1447.302    12822.991   -6426.3392    11030.239    307.29678    15634 
49000000   -3131.0332    1536.6127    12905.142   -6376.2963    11043.942     309.2655    15639 
50000000   -3197.6186     1416.387    12962.155   -6471.0445     11085.05    310.63178    15647 
51000000   -3146.8359    1360.9132    12936.809   -6551.5791    11059.328    310.02439    15649 
52000000   -3216.1439    1354.1304    12881.709   -6420.9435    10991.218    308.70394    15650 
53000000   -3196.6138    1457.2162    12918.036   -6459.8857    11113.716    309.57449    15655 
54000000   -3245.0243    1288.0049     12880.62   -6590.6364    11123.666    308.67785    15657 
55000000   -3211.5865    1175.2693    12930.806   -6616.9062    11003.762    309.88053    15657 
56000000   -3232.2306    1262.7453    12792.175   -6494.2656    10989.242    306.55831    15654 
57000000   -3209.0438    1166.3357    12937.385   -6575.5069    10950.886    310.03819    15657 
58000000   -3196.8808    1261.8636    12897.529   -6428.7497    10887.494    309.08306    15646 
59000000   -3200.5208    1200.8284    12893.003   -6516.4229    10917.772    308.97459    15662 
60000000   -3291.6404    1296.7616    12996.278   -6443.3123    11031.714    311.44952    15658 
61000000   -3233.0818    1220.1219     13015.57   -6484.4191    10937.623    311.91186    15661 
62000000   -3250.6962    1195.2147    12944.337   -6585.3955    11031.306    310.20478    15658 
63000000   -3211.3417    1100.2522     12830.67   -6596.8176    10908.412     307.4808    15661 
64000000   -3266.7247     1089.706    12938.236   -6549.2104    10905.641    310.05859    15662 
65000000   -3284.1417    1174.8982    12963.347     -6562.56      11021.6    310.66034    15665 
66000000   -3297.0216    1003.0974    12958.229   -6599.8738    10899.993    310.53771    15668 
67000000   -3210.6334    1117.4061     12925.36   -6553.3965    10881.436    309.75001    15665 
