LAMMPS (5 Jun 2019)
Reading restart file ...
  restart file = 5 Jun 2019, LAMMPS = 5 Jun 2019
  restoring atom style full from restart
  orthogonal box = (-420 -420 -420) to (420 420 420)
  2 by 2 by 7 MPI processor grid
  restoring pair style lj/cut from restart
  restoring bond style hybrid from restart
  restoring angle style cosine from restart
  14000 atoms
  15414 bonds
  13600 angles
Finding 1-2 1-3 1-4 neighbors ...
  special bond factors lj:   0          1          1         
  special bond factors coul: 0          0          0         
  3 = max # of 1-2 neighbors
  4 = max # of 1-3 neighbors
  8 = max # of 1-4 neighbors
  56 = max # of special neighbors
  special bonds CPU = 0.426148 secs
  read_restart CPU = 0.481642 secs
Finding 1-2 1-3 1-4 neighbors ...
  special bond factors lj:   0          1          1         
  special bond factors coul: 0          0          0         
  3 = max # of 1-2 neighbors
  4 = max # of 1-3 neighbors
  8 = max # of 1-4 neighbors
  40112 = # of 1-3 neighbors before angle trim
  27200 = # of 1-3 neighbors after angle trim
  56 = max # of special neighbors
  special bonds CPU = 0.00291614 secs
Neighbor list info ...
  update every 1 steps, delay 1 steps, check yes
  max neighbors/atom: 2000, page size: 100000
  master list distance cutoff = 26.9
  ghost atom cutoff = 26.9
  binsize = 13.45, bins = 63 63 63
  1 neighbor lists, perpetual/occasional/extra = 1 0 0
  (1) pair lj/cut, perpetual
      attributes: half, newton on
      pair build: half/bin/newton
      stencil: half/bin/3d/newton
      bin: standard
Setting up Verlet run ...
  Unit style    : real
  Current step  : 400000000
  Time step     : 0.1
Per MPI rank memory allocation (min/avg/max) = 1.103 | 4.986 | 16.76 Mbytes
Step Temp E_pair E_mol TotEng Press 
400000000     311.2244   -3820.0132    7239.9257    16406.796 -0.031038357 
400010000    309.89267   -3834.7265    7158.9977    16255.584  0.094041165 
Loop time of 7.63259 on 28 procs for 10000 steps with 14000 atoms

Performance: 11.320 ns/day, 2.120 hours/ns, 1310.172 timesteps/s
99.7% CPU use with 28 MPI tasks x no OpenMP threads

MPI task timing breakdown:
Section |  min time  |  avg time  |  max time  |%varavg| %total
---------------------------------------------------------------
Pair    | 0.00033215 | 0.54036    | 4.2154     | 149.8 |  7.08
Bond    | 0.00051907 | 0.11059    | 0.78746    |  63.6 |  1.45
Neigh   | 0.027599   | 0.029742   | 0.03267    |   1.2 |  0.39
Comm    | 0.0019977  | 2.0966     | 5.7458     | 152.2 | 27.47
Output  | 8.9694e-05 | 0.00067986 | 0.0011148  |   0.0 |  0.01
Modify  | 0.0009666  | 0.23944    | 1.6822     |  93.0 |  3.14
Other   |            | 4.615      |            |       | 60.47

Nlocal:    500 ave 3539 max 0 min
Histogram: 22 0 0 1 1 1 2 0 0 1
Nghost:    392.571 ave 2043 max 0 min
Histogram: 17 5 0 0 0 2 1 2 0 1
Neighs:    6882.75 ave 52280 max 0 min
Histogram: 22 0 0 2 0 1 2 0 0 1

Total # of neighbors = 192717
Ave neighs/atom = 13.7655
Ave special neighs/atom = 7.88143
Neighbor list builds = 7
Dangerous builds = 0
4000 atoms in group rxnSites
Neighbor list info ...
  update every 1 steps, delay 1 steps, check yes
  max neighbors/atom: 2000, page size: 100000
  master list distance cutoff = 26.9
  ghost atom cutoff = 26.9
  binsize = 13.45, bins = 63 63 63
  2 neighbor lists, perpetual/occasional/extra = 1 1 0
  (1) pair lj/cut, perpetual
      attributes: half, newton on
      pair build: half/bin/newton
      stencil: half/bin/3d/newton
      bin: standard
  (2) fix bond/create/random, occasional, copy from (1)
      attributes: half, newton on
      pair build: copy
      stencil: none
      bin: none
Setting up Verlet run ...
  Unit style    : real
  Current step  : 0
  Time step     : 25
Per MPI rank memory allocation (min/avg/max) = 17.8 | 18.18 | 19.61 Mbytes
Step E_pair PotEng KinEng E_bond E_angle Temp Bonds 
       0   -3834.7265    3324.2713    12931.313   -1064.6215    8223.6193    309.89267    15414 
 1000000   -3896.0053    3134.9534    12907.053   -1116.6624    8147.6211     309.3113    15432 
 2000000   -3857.0474    3506.0389    12947.638   -830.60791    8193.6942    310.28389    15389 
 3000000   -3816.5192    3501.5265    12874.053   -957.53691    8275.5825    308.52047    15389 
 4000000   -3782.9856    3567.8761    12709.823    -917.6084    8268.4702    304.58476    15416 
 5000000   -3791.0789    3335.3543    13005.646   -1045.6192    8172.0523    311.67403    15412 
 6000000   -3830.9014    3504.4319     12956.97   -928.43166     8263.765    310.50752    15408 
 7000000   -3783.4348    3368.8826    12937.217   -1034.7886     8187.106    310.03416    15390 
 8000000   -3790.3325    3497.0029    13083.976   -1015.9607    8303.2961    313.55118    15419 
 9000000   -3863.3068     3331.748    13000.281   -1037.3622     8232.417    311.54545    15407 
10000000   -3795.4742    3527.1523    13002.574   -1001.4527    8324.0793     311.6004    15420 
11000000   -3904.6347    3392.9665     12896.76   -925.68635    8223.2875    309.06464    15423 
12000000   -3830.4749    3149.6636    12968.058   -1117.2599    8097.3984    310.77325    15414 
13000000    -3818.852    3288.6389    12998.265   -1026.4607    8133.9516    311.49715    15413 
14000000    -3746.774    3434.9795    13070.605   -1095.3579    8277.1114    313.23075    15411 
15000000   -3852.3322    3454.7849    12987.584   -961.75391     8268.871    311.24118    15398 
16000000   -3830.3199    3474.4278    12932.018   -938.28032    8243.0281    309.90956    15398 
17000000   -3766.3042     3554.276    12953.213   -1034.3715    8354.9517    310.41749    15412 
18000000    -3883.879    3351.7251    13018.224   -1007.8933    8243.4974    311.97545    15413 
19000000   -3767.5253     3325.792     13046.56    -1067.342    8160.6593    312.65451    15415 
20000000   -3817.6113    3640.1198    12983.837   -915.46915    8373.2003     311.1514    15401 
21000000   -3819.2195    3401.6476    12860.595   -1031.6161    8252.4832    308.19794    15420 
22000000   -3788.1482    3468.5868    12816.674   -1063.1146    8319.8496    307.14539    15401 
23000000   -3715.6606    3372.2638    13085.423   -1106.5951    8194.5195    313.58584    15418 
24000000   -3801.0628    3541.1647    12922.947   -975.43344     8317.661    309.69218    15407 
25000000   -3783.6262    3608.0634    12984.344   -902.12195    8293.8116    311.16354    15394 
26000000   -3798.6329    3556.5827    12866.113   -979.42518    8334.6408     308.3302    15399 
27000000   -3754.3267    3596.6242    12970.652   -928.24152    8279.1924    310.83541    15398 
28000000   -3804.8003    3498.6676    12790.374   -979.97461    8283.4425    306.51514    15404 
29000000   -3820.5702    3469.4062    12912.892   -1007.4087    8297.3851    309.45122    15407 
30000000   -3832.2187    3403.3478    13011.341   -1009.2596    8244.8261     311.8105    15400 
31000000   -3810.1911    3317.8299    12957.567   -1035.7674    8163.7885    310.52183    15417 
32000000   -3871.8125    3406.3388    12828.678   -1049.3366    8327.4879    307.43307    15415 
33000000   -3807.6053    3338.5283    12725.809   -995.55207    8141.6856    304.96787    15415 
34000000   -3783.9865    3410.2147    12996.092   -1066.8883    8261.0895    311.44506    15429 
35000000   -3889.0749     3321.226    12722.495    -1040.208    8250.5089    304.88844    15407 
36000000   -3938.8965    3493.6173    12809.713    -899.4153     8331.929    306.97859    15390 
37000000   -3816.6781    3269.3812    12987.622   -1028.5006    8114.5599     311.2421    15417 
38000000   -3853.8497    3303.9516    12905.835   -1094.8992    8252.7005    309.28211    15410 
39000000   -3809.4966    3212.3747    12670.664   -1082.6006    8104.4719    303.64634    15409 
40000000    -3769.894    3440.8351    12896.473   -1106.5207    8317.2498    309.05774    15416 
41000000   -3883.4837    3356.4366    12937.509   -1065.6126     8305.533    310.04117    15421 
42000000   -3884.2885    3633.4504     12909.54   -781.30503    8299.0439    309.37091    15383 
43000000   -3867.1616    3237.6808    12957.871    -1085.385    8190.2275    310.52912    15428 
44000000   -3804.2393    3473.7911    12936.473   -955.10224    8233.1326    310.01632    15411 
45000000   -3943.1011    3224.7864    13056.859   -1051.0785     8218.966    312.90133    15418 
46000000   -3762.9749    3470.4414    12922.344   -1012.5999    8246.0162    309.67772    15441 
47000000   -3809.0306    3720.0737    12903.308   -806.83466    8335.9389    309.22156    15385 
48000000   -3814.1858    3351.1174    12909.557   -999.54497    8164.8482    309.37131    15409 
49000000   -3728.9497    3562.9784     12812.47    -1022.049    8313.9771    307.04466    15398 
50000000   -3850.5682    3504.0546    12945.104   -1021.4328    8376.0556    310.22318    15405 
51000000   -3865.6426    3436.6798    12853.918   -1052.5702    8354.8926    308.03795    15408 
52000000   -3840.6581    3499.4465    12992.031   -1070.9633    8411.0678    311.34774    15419 
53000000   -3851.6344    3490.5666    12927.269   -961.42304     8303.624    309.79575    15387 
54000000    -3829.182    3263.0959    12867.384   -1041.9328    8134.2106    308.36064    15397 
55000000   -3872.9435    3506.4285    13028.584   -914.04405    8293.4161    312.22372    15386 
56000000   -3847.5595    3322.0382    12918.652   -1082.6857    8252.2833    309.58927    15424 
57000000   -3885.6683    3361.0948    12960.703   -997.54353    8244.3066      310.597    15408 
58000000   -3879.5351    3373.4197     12761.29   -879.44629    8132.4011    305.81815    15394 
59000000   -3811.9151    3554.9947    12854.462   -861.06049    8227.9702    308.05097    15382 
60000000   -3756.8059    3742.8319    13020.939   -763.38857    8263.0263    312.04052    15356 
61000000   -3815.8185    3423.2027    12872.906   -975.16245    8214.1837    308.49297    15389 
62000000   -3843.5838    3356.8082    12736.902   -1013.5358    8213.9278    305.23371    15406 
63000000   -3881.1208    3487.4902    13072.337    -907.8417    8276.4527    313.27224    15395 
64000000   -3725.9844    3559.3632    12983.935   -1017.7859    8303.1336    311.15373    15391 
65000000   -3871.3075    3390.9841    13023.502   -1089.8319    8352.1235    312.10193    15416 
66000000   -3840.1605    3417.8527    12950.413    -993.6835    8251.6966    310.35039    15404 
67000000   -3737.9205    3556.6813    12965.243   -956.26293    8250.8647    310.70579    15418 
68000000    -3839.537    3449.8132    13057.259   -1033.2864    8322.6366    312.91091    15401 
69000000    -3722.472    3752.6204    12946.119   -914.24974    8389.3421    310.24749    15398 
70000000   -3951.8415    3360.7442    13129.733   -1078.8271    8391.4128    314.64771    15413 
71000000   -3811.7267    3311.2259    12972.006   -1069.3385    8192.2912    310.86786    15390 
72000000   -3781.8337    3366.3742    12833.878   -1111.9191    8260.1269    307.55768    15425 
73000000   -3805.3242    3478.1618    12958.706   -973.15367    8256.6397    310.54913    15392 
74000000   -3713.2429    3628.6397    12982.816   -971.42676    8313.3094    311.12691    15397 
75000000   -3818.2921    3377.0588    12828.417   -1019.7968    8215.1478    307.42683    15404 
76000000   -3798.2138    3414.3294    13022.249   -1115.1645    8327.7077     312.0719    15425 
77000000   -3783.8838    3392.9077    12906.963   -1130.1134    8306.9049    309.30914    15435 
78000000    -3809.557    3529.3821    12950.466   -1043.0705    8382.0096    310.35168    15406 
79000000   -3833.8701    3526.3541    13017.935      -949.49    8309.7142    311.96852    15409 
80000000    -3906.464    3293.0117    12884.896   -1047.1897    8246.6655     308.7803    15430 
81000000   -3823.8498    3480.2197    12754.247   -916.53233    8220.6018    305.64936    15405 
82000000   -3804.1861    3394.6124    12997.883   -1135.4849    8334.2834    311.48799    15441 
83000000   -3820.0455     3425.094    13112.922   -962.63341    8207.7729    314.24485    15406 
84000000   -3736.7945    3524.1719    12972.714   -989.60432    8250.5707    310.88482    15409 
85000000   -3850.9636    3265.9974    12896.983   -1201.2265    8318.1874    309.06997    15420 
86000000   -3887.1024    3449.8061    12841.172   -1025.3747    8362.2833    307.73248    15413 
87000000   -3739.5067    3585.9306    12987.173   -962.62029    8288.0576    311.23133    15390 
88000000   -3817.1313    3480.7589    13028.815   -960.49487    8258.3851    312.22925    15390 
89000000   -3955.3641    3258.4296    12850.829   -1031.0871    8244.8807    307.96392    15396 
90000000   -3745.9666    3517.5873    12863.638    -1025.795     8289.349    308.27087    15410 
91000000   -3852.3927    3398.9622    12982.171   -982.29771    8233.6526    311.11145    15397 
92000000   -3888.3983    3264.1652    12965.152   -1129.7952    8282.3587    310.70362    15426 
93000000   -3750.6541    3539.9719    12788.622   -929.47486    8220.1009    306.47315    15382 
94000000   -3746.9618    3458.1337    12916.134    -982.4675    8187.5629    309.52892    15406 
95000000   -3812.4566    3327.5387    13026.256   -1138.7033    8278.6986    312.16794    15404 
96000000   -3818.4723    3442.3798    12872.889   -968.30466    8229.1568    308.49258    15389 
97000000   -3841.0003    3256.4147    12927.944   -1169.0982    8266.5132    309.81194    15440 
98000000    -3871.546    3418.6742    13017.619   -863.30463    8153.5249    311.96096    15393 
99000000   -3791.0175    3461.8682    12869.486   -1008.9652    8261.8509    308.41102    15399 
100000000   -3786.1014    3406.6036    12897.045   -1120.2398    8312.9449    309.07146    15429 
101000000   -3815.8732    3443.5665     12964.74   -1006.5746    8266.0143    310.69374    15406 
102000000   -3883.7356    3376.2768    12795.323   -1016.3607    8276.3731    306.63375    15404 
103000000   -3781.5541    3533.3917    12943.577   -950.14705    8265.0929    310.18658    15400 
104000000   -3820.3803    3507.1979    12996.215   -942.58984     8270.168    311.44801    15410 
105000000   -3854.8144    3425.2771    12968.436   -978.60759    8258.6991     310.7823    15408 
106000000   -3789.3793    3361.6598    12869.398   -1051.2714    8202.3105    308.40892    15404 
107000000   -3959.8643    3179.4338    12947.949   -1056.8293    8196.1274    310.29134    15398 
108000000   -3937.2583    3220.9534    12865.407   -999.06428     8157.276    308.31328    15420 
109000000   -3825.9607    3350.0784    12847.684   -1040.4182    8216.4573    307.88854    15417 
110000000   -3867.1406    3121.2291    12868.079   -1099.5425    8087.9122    308.37731    15419 
111000000   -3903.7525     3404.543    13009.334   -954.84888    8263.1443     311.7624    15404 
112000000   -3867.5365    3211.9949    12885.386   -1085.9697    8165.5012    308.79206    15422 
113000000   -3779.0113    3563.8623    12848.762    -902.2128    8245.0863    307.91437    15380 
114000000    -3809.875    3341.3921    13090.381   -1094.6124    8245.8795    313.70467    15404 
115000000   -3909.2801    3376.3498    12951.652   -856.55462    8142.1845    310.38008    15392 
116000000   -3905.0874    3301.3611    12950.052   -1107.1531    8313.6016    310.34174    15455 
117000000   -3843.7832    3367.6975    13000.492   -1079.5534    8291.0342    311.55051    15439 
118000000   -3800.7631    3650.1233    12841.048   -819.72521    8270.6116    307.72951    15369 
119000000   -3728.0408    3291.9734    12714.346   -1070.2085    8090.2227    304.69317    15410 
120000000   -3752.2674    3509.0901    12932.222   -1005.8171    8267.1746    309.91446    15415 
121000000   -3766.8118    3307.6168    12889.087   -1025.7144    8100.1431    308.88076    15417 
122000000   -3846.0677    3397.4139    13026.454   -971.17332     8214.655    312.17269    15408 
123000000   -3749.0689    3641.1717    12873.518   -916.84231    8307.0829    308.50765    15375 
124000000   -3876.7136    3453.9649    12887.432   -950.03116    8280.7097     308.8411    15412 
125000000   -3901.6283    3187.2513    12913.884   -1126.9044    8215.7839    309.47499    15424 
126000000   -3880.8285     3309.321    13012.745   -1089.9105      8280.06    311.84415    15419 
127000000   -3796.1497    3540.5674    12857.228   -1007.9868    8344.7039    308.11727    15400 
128000000   -3836.4145    3304.9548    12735.472   -1049.7579    8191.1272    305.19943    15415 
129000000   -3900.1748    3369.3669    12964.583   -948.59469    8218.1364    310.68997    15392 
130000000   -3860.1944    3435.3515    12826.545   -1024.7654    8320.3113    307.38196    15410 
131000000   -3739.4704    3534.4736    12924.342   -958.55936    8232.5034    309.72562    15388 
132000000   -3810.5671    3562.0032    13018.753   -933.63748    8306.2078    311.98813    15410 
133000000   -3871.3642    3258.9999    12933.936   -1017.1492    8147.5133    309.95553    15402 
134000000   -3832.0982    3364.2032     12969.18   -1025.8836     8222.185    310.80015    15411 
135000000    -3729.442    3681.2299    12872.732   -824.46554    8235.1375     308.4888    15382 
136000000   -3787.8923    3565.4109    12934.489    -920.5501    8273.8533    309.96879    15411 
137000000   -3822.4961    3438.9516    12818.204   -1017.8604    8279.3081    307.18208    15414 
138000000   -3841.9816    3420.2207    12870.023   -988.75212    8250.9543    308.42388    15409 
139000000   -3782.4367     3563.106    13000.694   -922.64926     8268.192    311.55536    15410 
140000000   -3942.1044    3366.5855    12923.047   -966.77061    8275.4605    309.69458    15418 
141000000   -3739.1303    3421.5672    12876.901   -1000.7965     8161.494    308.58872    15398 
142000000   -3813.5658    3316.0001    12935.778   -1058.7612    8188.3271    309.99968    15408 
143000000   -3861.3401    3399.6015    12831.114   -926.03204    8186.9737    307.49145    15403 
144000000   -3839.8623    3454.3432    12960.556   -1014.5427    8308.7481    310.59346    15407 
145000000   -3810.2722    3300.7184    12913.892   -1043.1453     8154.136    309.47518    15423 
146000000   -3829.2949    3356.8919    13010.033   -997.40848    8183.5953    311.77915    15402 
147000000   -3815.6696    3472.8637    13039.903   -1110.3837    8398.9169    312.49497    15414 
148000000   -3781.9892     3506.728    13076.997   -923.93412    8212.6513    313.38393    15382 
149000000   -3843.5281    3427.8574    12932.311   -1042.6099    8313.9954     309.9166    15413 
150000000   -3712.6191    3638.1976    12974.552   -987.95553    8338.7722    310.92887    15409 
151000000   -3768.3926    3542.6476     12949.03   -1021.9833    8333.0234    310.31724    15399 
152000000   -3736.6989    3454.4293    12985.572   -1131.8036    8322.9318    311.19297    15412 
153000000   -3786.6321    3555.4006    12979.856    -946.0424    8288.0752    311.05598    15404 
154000000   -3789.4003    3529.8495    12991.292   -966.58895    8285.8388    311.33005    15391 
155000000   -3781.3907    3325.5859    12890.061    -1065.277    8172.2536    308.90408    15419 
156000000    -3850.224    3334.9538     13031.95   -1086.9205    8272.0983    312.30439    15413 
157000000   -3850.6955    3474.6079     12946.93   -946.00006    8271.3035    310.26693    15397 
158000000   -3749.2836    3345.1172    12754.889   -1134.3453    8228.7461    305.66477    15420 
159000000   -3761.4445    3354.4441    12820.166    -1024.541    8140.4297    307.22909    15412 
160000000   -3748.9044    3413.9439    13035.566   -1046.8055    8209.6538    312.39104    15404 
161000000   -3861.5967    3312.8118    12927.448   -978.35491    8152.7635    309.80005    15387 
162000000   -3792.4392    3390.4597    12813.971   -1017.2875    8200.1864    307.08064    15412 
163000000   -3886.4841    3386.6866    12981.665   -982.19759    8255.3683    311.09934    15404 
164000000    -3858.754    3381.4457    13009.344   -988.53424    8228.7339    311.76266    15410 
165000000   -3840.3666    3328.9282    13045.082   -1020.9476    8190.2424     312.6191    15400 
166000000   -3762.1028    3529.9612    13011.201   -942.94153    8235.0055    311.80716    15391 
167000000   -3904.1608    3552.3581     12847.77   -889.38896    8345.9079     307.8906    15382 
168000000   -3858.9799    3330.3811    12869.038   -983.60402     8172.965    308.40028    15403 
169000000   -3799.4172    3319.6367     12966.19    -1050.726    8169.7799    310.72849    15402 
170000000    -3745.355    3565.6502    12844.486   -930.68362    8241.6888     307.8119    15409 
171000000   -3841.1564    3451.3007    12841.945   -1004.1403    8296.5974    307.75102    15405 
172000000   -3819.6571    3236.0159    12832.642   -1111.1438    8166.8168    307.52807    15419 
173000000   -3862.2218    3363.5475    13012.403   -967.95672     8193.726    311.83596    15405 
174000000   -3800.4631    3399.5892    13008.873   -1096.8877      8296.94    311.75136    15403 
175000000   -3787.0421    3478.5429    12920.718   -981.67179    8247.2568    309.63877    15402 
176000000   -3773.1756    3325.5749    12873.701   -1106.6192    8205.3697    308.51202    15409 
177000000   -3924.2409    3319.3676    12980.453   -1000.8778    8244.4863    311.07029    15411 
178000000   -3847.0323    3245.7595    13107.178   -1076.7641    8169.5559    314.10718    15403 
179000000   -3828.7904     3120.342    12857.252   -1128.9758    8078.1081    308.11784    15425 
180000000   -3827.3845    3294.8934    12914.406   -1036.9446    8159.2225    309.48751    15430 
181000000   -3757.8639     3554.377    12974.047   -986.06114     8298.302    310.91676    15400 
182000000   -3887.6652    3257.6153    12925.626   -1091.7988    8237.0793    309.75639    15421 
183000000   -3777.5856    3445.5986    13034.396   -1000.4278    8223.6121    312.36301    15381 
184000000   -3797.4029    3532.6826    12942.673   -900.81391    8230.8994     310.1649    15403 
185000000   -3843.0428    3313.1232     12954.44    -1069.428     8225.594     310.4469    15406 
186000000   -3775.7384    3488.0333    12961.837   -1072.5465    8336.3182    310.62417    15408 
187000000   -3824.8172    3431.9382    12897.305   -1068.6201    8325.3754    309.07769    15403 
188000000   -3803.7466    3295.7955    12858.033   -1094.1829     8193.725    308.13657    15419 
189000000   -3822.9598    3376.6424    12979.245   -1029.4251    8229.0272    311.04133    15416 
190000000   -3731.3068    3558.7277    13008.292   -943.25791    8233.2925    311.73743    15404 
191000000   -3822.0749    3334.8547    12938.678   -1043.0841    8200.0137    310.06917    15404 
192000000   -3784.5758    3439.9464     13023.88   -1029.3907    8253.9128      312.111    15412 
193000000   -3776.4332    3529.0224    12856.608   -904.65105    8210.1066     308.1024    15394 
194000000   -3810.6039    3402.3315    12842.283   -1081.1564    8294.0918    307.75912    15421 
195000000   -3799.2513    3297.1774    12833.362   -1003.8492    8100.2779    307.54533    15410 
196000000   -3832.7803    3313.4579    12745.184   -1003.9166    8150.1548    305.43219    15413 
197000000   -3787.8387    3364.6101    12973.321    -1013.232    8165.6809    310.89937    15414 
198000000   -3881.3414    3194.5331    12881.934   -1039.4503    8115.3249    308.70932    15417 
199000000   -3817.0351     3324.372    12978.972   -972.78793     8114.195     311.0348    15406 
200000000   -3920.7359    3182.4022    12959.709   -1173.2549     8276.393    310.57317    15433 
201000000   -3755.1576    3339.4452    13156.866    -997.2851    8091.8879    315.29795    15391 
202000000   -3727.4946    3642.2364    12900.159   -961.79109    8331.5221    309.14608    15394 
203000000   -3876.2636    3486.5378    13022.492   -987.82592    8350.6274    312.07773    15391 
204000000   -3769.7419    3468.9126    12837.632   -921.72705    8160.3815    307.64766    15398 
205000000   -3870.9123    3605.2697    12861.007    -893.0494    8369.2314    308.20783    15387 
206000000   -3849.4948    3410.3538    13028.885   -1029.7809    8289.6295    312.23093    15409 
207000000   -3765.2149    3563.8597    12896.919   -1002.0018    8331.0764    309.06844    15404 
208000000   -3718.8318    3577.4931    13010.775   -966.71695    8263.0418    311.79694    15404 
209000000   -3840.9949    3458.9551    13044.452   -1021.4572    8321.4072      312.604    15438 
210000000   -3808.4795    3590.9938    12966.318   -960.28576    8359.7591    310.73156    15406 
211000000   -3719.1695    3557.8985    13101.269   -1064.8892    8341.9571     313.9656    15412 
212000000   -3835.7854     3563.405    12966.588   -924.76571    8323.9561    310.73803    15398 
213000000   -3825.1007    3406.4154    12970.246   -1085.8653    8317.3815    310.82568    15411 
214000000   -3801.3911    3461.3505    13092.307   -1005.8047    8268.5463    313.75081    15403 
215000000   -3751.5394    3530.3748    12874.754    -1003.349    8285.2632    308.53728    15400 
216000000    -3671.383    3614.9216    12982.251   -1019.0845     8305.389    311.11337    15417 
217000000   -3811.9923    3410.6862    12820.418   -1018.1982    8240.8766    307.23512    15430 
218000000   -3807.7384    3509.7398     12916.67   -1037.9319    8355.4101    309.54175    15420 
219000000    -3710.202    3541.1713    12914.762   -1046.4522    8297.8255    309.49604    15405 
220000000    -3740.018    3450.0317    12913.147   -1013.0182    8203.0678    309.45732    15396 
221000000   -3798.5183    3457.1753    12928.134   -995.52748     8251.221     309.8165    15391 
222000000   -3844.6372    3472.4649    12987.251   -1014.2943    8331.3964     311.2332    15407 
223000000   -3836.9265    3449.2803    12885.874   -993.21089    8279.4177    308.80375    15410 
224000000   -3883.2828    3388.1175    12952.058   -1096.6081    8368.0084    310.38982    15419 
225000000   -3760.1499    3346.4651    12922.789   -1079.2088    8185.8237     309.6884    15421 
226000000   -3887.3753    3155.5014    12901.217   -1104.6129    8147.4897    309.17144    15408 
227000000   -3830.7258    3505.8466     13022.53   -895.10426    8231.6767    312.07865    15395 
228000000   -3710.2053     3650.738     13002.12   -859.02012    8219.9633    311.58953    15388 
229000000   -3767.9445    3484.3546    12800.666   -959.06465    8211.3637    306.76179    15379 
230000000   -3864.8853    3231.5975    12859.434   -986.56658    8083.0493    308.17012    15395 
231000000   -3860.1735    3319.9862    13022.628   -960.64351    8140.8033      312.081    15392 
232000000   -3905.5746    3282.0609    13051.763   -1017.1169    8204.7524    312.77919    15416 
233000000   -3766.4145    3557.4675    12854.502   -991.46893    8315.3509    308.05194    15411 
234000000   -3833.1905    3283.5235    12790.308   -1047.8098    8164.5238    306.51356    15409 
235000000   -3868.7025     3323.928    12814.401     -980.874    8173.5045    307.09095    15406 
236000000   -3801.5586     3484.868    12984.091   -969.99059    8256.4172    311.15748    15391 
237000000   -3906.8839    3152.0792    12876.817   -1074.3826    8133.3457    308.58671    15430 
238000000   -3877.4438    3227.4391    12835.932   -1090.1174    8195.0003    307.60692    15411 
239000000   -3774.4599    3392.2469    13036.017   -1062.6539    8229.3607    312.40185    15406 
240000000   -3872.1526    3504.1275     13038.41    -931.2774    8307.5576    312.45921    15398 
241000000   -3823.3736    3286.3067     12986.56   -1061.9677     8171.648    311.21663    15411 
242000000   -3896.9809    3366.6607    13111.597    -970.3014     8233.943    314.21309    15408 
243000000   -3883.3666     3354.969    12914.536   -1068.3913    8306.7269    309.49062    15405 
244000000   -3851.1263    3302.7648    12809.497    -1049.893    8203.7842    306.97341    15417 
245000000    -3884.022    3243.9668    13163.881   -1129.6809    8257.6697    315.46605    15416 
246000000   -3804.0647    3256.2877     12841.69   -1086.2057    8146.5581     307.7449    15420 
247000000   -3743.0481    3769.3595    12914.074   -747.11015    8259.5177    309.47954    15397 
248000000   -3921.1484    3376.2746    12792.489   -937.31768    8234.7406    306.56583    15398 
249000000   -3777.2224    3382.1568    12993.408   -1027.0048     8186.384    311.38076    15411 
250000000   -3825.3002    3521.9218    12899.315   -917.35032    8264.5722    309.12586    15399 
251000000   -3942.3589    3146.2051    13060.023   -1122.3996    8210.9636    312.97714    15422 
252000000   -3869.9776    3460.4772    12855.431   -1069.2357    8399.6905     308.0742    15425 
253000000   -3881.1438    3136.4953    12932.219   -1100.0451    8117.6842    309.91439    15407 
254000000   -3698.6275    3481.2371     12911.05   -1030.5073     8210.372    309.40708    15400 
255000000   -3759.6067    3413.2858    12935.907   -1069.9501    8242.8426    310.00276    15384 
256000000    -3869.612    3704.9285    12823.571   -843.07301    8417.6134    307.31069    15383 
257000000   -3829.7077    3472.9373    12958.183   -992.07953    8294.7245     310.5366    15397 
258000000   -3823.4323    3519.4538    13048.356   -977.57269    8320.4588    312.69756    15398 
259000000   -3837.5739    3494.6544    13133.841   -878.82336    8211.0516    314.74616    15394 
260000000    -3792.093    3363.4628    12855.851   -1109.5458    8265.1016    308.08426    15416 
261000000   -3795.0853    3359.2362    12958.468   -1065.9461    8220.2675    310.54343    15429 
262000000   -3804.9284    3337.0964    12947.105   -1022.0466    8164.0715    310.27113    15404 
263000000   -3776.6099    3472.8672    12736.657   -961.75331    8211.2304    305.22784    15382 
264000000   -3753.3041    3392.9389    12971.725    -1020.675     8166.918    310.86113    15411 
265000000   -3769.1466    3746.9276    12914.284    -759.4979    8275.5721    309.48458    15363 
266000000   -3767.0512    3469.8878    12885.523   -1110.2618    8347.2008    308.79533    15409 
267000000   -3816.4831    3460.7336     12750.16   -1017.1644    8294.3811    305.55142    15397 
268000000   -3803.7087    3503.5298    12838.885   -970.19359    8277.4321    307.67768    15420 
269000000   -3837.0569    3353.8104    12937.024   -1082.3404    8273.2077    310.02953    15426 
270000000   -3680.2984    3499.4821    12850.804   -1020.5031    8200.2836    307.96333    15392 
271000000   -3823.8847    3516.9147    12845.861   -935.27511    8276.0745    307.84485    15382 
272000000   -3908.1382    3416.0451    12927.802   -935.31756    8259.5008    309.80854    15419 
273000000   -3823.2945    3359.4218    12927.157   -1057.6584    8240.3747    309.79309    15408 
274000000    -3723.684     3642.753    12916.578   -811.28715    8177.7241    309.53956    15364 
275000000    -3819.549    3419.9267    12905.359   -1018.4325    8257.9082     309.2707    15413 
276000000   -3798.1768     3501.312    12981.003   -1038.3984    8337.8872    311.08348    15416 
277000000   -3839.9665    3665.5763    12956.895   -821.81344    8327.3562    310.50573    15402 
278000000   -3811.5073    3420.7173    12934.797   -967.97394    8200.1985    309.97617    15393 
279000000   -3811.7263     3505.207    12970.609   -851.70208    8168.6354    310.83437    15392 
280000000   -3850.3689    3417.7505    12975.117   -938.45496    8206.5743    310.94241    15411 
281000000   -3846.2082    3388.6599    12946.514   -1032.8966    8267.7648    310.25696    15413 
282000000    -3730.245    3499.1922    12802.285   -1049.0914    8278.5286    306.80058    15413 
283000000   -3889.4087    3262.3668    12861.483   -1055.1639    8206.9393    308.21924    15403 
284000000   -3747.7272    3493.4615    12989.845   -949.34026     8190.529    311.29535    15403 
285000000   -3759.1643    3484.6806     12801.52   -965.02412     8208.869    306.78226    15397 
286000000   -3859.7751    3327.8332    13021.895   -1040.8755    8228.4838    312.06342    15399 
287000000   -3820.7253    3496.2316    12720.307   -1028.4338    8345.3907    304.83601    15417 
288000000   -3853.8113    3387.4015    13022.961   -945.88202    8187.0948    312.08897    15398 
289000000   -3859.8712    3386.5726     13082.41   -977.64696    8224.0907    313.51364    15399 
290000000   -3821.5438    3407.9811    13024.904   -1061.2004    8290.7253    312.13553    15416 
291000000   -3863.0948    3279.4318    12868.716    -1038.521    8181.0475    308.39256    15419 
292000000   -3904.1271    3285.8685    12894.678   -1096.4073    8286.4029    309.01472    15429 
293000000   -3740.8868    3564.1572    13037.926   -919.55478    8224.5988     312.4476    15392 
294000000   -3868.4468    3404.6545    12931.653   -954.96016    8228.0614    309.90082    15381 
295000000   -3779.6818     3509.618    13000.739   -1054.2759    8343.5757    311.55644    15407 
296000000    -3721.376    3577.3552    12941.589   -968.15682     8266.888    310.13892    15393 
297000000   -3800.8748    3363.1234    13028.168   -1105.0069    8269.0051    312.21375    15408 
298000000   -3871.4513    3534.0518    12901.436   -909.41846    8314.9216    309.17668    15386 
299000000   -3818.2084    3273.0444    12808.406   -1011.0014    8102.2542    306.94726    15409 
300000000   -3920.4125    3440.6715     12941.02   -928.97876    8290.0628     310.1253    15411 
301000000   -3737.4904    3424.6832    13053.434    -1093.118    8255.2916    312.81925    15423 
302000000   -3910.0197     3487.401    12844.026   -857.28618    8254.7068    307.80088    15396 
303000000   -3804.4206    3309.8915    12910.419    -997.7018    8112.0139    309.39195    15412 
304000000     -3803.47    3522.5237    12913.437   -887.93534    8213.9291    309.46428    15409 
305000000   -3852.5714    3457.4069    13062.673   -1045.2245    8355.2028    313.04064    15414 
306000000   -3840.1101    3535.9904    12802.604     -892.495    8268.5955    306.80821    15398 
307000000   -3856.9469    3278.7148    12934.159   -1118.5036    8254.1653    309.96088    15439 
308000000   -3919.6359    3562.6166    12816.998   -866.73728    8348.9897    307.15317    15387 
309000000   -3893.1122    3419.9709    12867.947   -890.79059    8203.8737    308.37414    15388 
310000000   -3844.1255    3327.0803    12944.848   -1013.2341    8184.4399    310.21703    15413 
311000000   -3809.5952    3340.4315    12905.048   -1058.8354    8208.8621    309.26324    15435 
312000000    -3826.202    3422.5788    13001.469   -1038.3418    8287.1226    311.57392    15405 
313000000   -3846.7711    3300.2938    12878.642   -1023.8498    8170.9147    308.63044    15410 
314000000   -3801.9356    3461.4077    13066.344   -973.23746    8236.5808    313.12863    15409 
315000000   -3732.8167    3490.1627    13018.635   -1060.8365    8283.8159     311.9853    15414 
316000000   -3756.2664    3439.7798     12775.14   -1040.5311    8236.5773    306.15007    15395 
317000000   -3795.2139    3563.7637    12807.172   -1005.1267    8364.1043    306.91769    15410 
318000000   -3743.8691    3482.0757    12919.952   -1017.8183    8243.7632    309.62041    15403 
319000000   -3854.2126    3344.8563    12951.047   -1069.1342    8268.2031    310.36559    15401 
320000000    -3699.072    3636.4839    12931.819   -1012.8323    8348.3882     309.9048    15437 
321000000   -3804.4811    3712.4567    12901.911   -849.79062    8366.7284    309.18808    15373 
322000000   -3810.0031    3569.3596    12998.774   -938.93149    8318.2941    311.50934    15393 
323000000   -3692.6149    3713.6914      12983.1   -924.44388    8330.7501    311.13373    15387 
324000000   -3853.0986     3352.731    13047.836   -1046.1767    8252.0064    312.68509    15434 
325000000   -3775.7121    3591.7672    12903.794   -1004.4432    8371.9225    309.23321    15415 
326000000   -3760.8542    3475.8979    13056.994   -1023.7628    8260.5149    312.90456    15405 
327000000   -3716.3996     3535.293    12788.568   -964.31856    8216.0111    306.47187    15383 
328000000   -3799.4566    3521.5239    13019.177   -947.36638    8268.3469    311.99828    15393 
329000000   -3770.0842    3609.5619    12973.311   -903.46434    8283.1104    310.89913    15391 
330000000   -3751.4178    3483.1349    12897.647   -954.67235     8189.225    309.08588    15379 
331000000   -3709.1393    3558.6351    12875.727    -979.2235    8246.9979    308.56058    15422 
332000000   -3779.2304    3421.0648    12891.681   -993.22721    8193.5225     308.9429    15391 
333000000   -3752.4313    3626.9037    12917.596   -890.03957    8269.3745    309.56396    15389 
334000000    -3843.323    3350.1735    12853.674   -1055.9282    8249.4247     308.0321    15413 
335000000     -3855.74    3354.6851    12942.941   -1047.4133    8257.8384    310.17133    15408 
336000000   -3754.7342    3535.1558    12950.105   -1014.6299    8304.5198    310.34301    15398 
337000000   -3823.0706    3428.0206    12959.002   -1025.9956    8277.0868    310.55622    15407 
338000000   -3766.8856    3614.0111    12771.024    -907.3857    8288.2824    306.05144    15411 
339000000   -3817.1345     3500.284    12913.017   -980.26088    8297.6794    309.45421    15401 
340000000   -3758.0733    3526.6954    13015.247   -874.01836    8158.7871    311.90411    15399 
341000000   -3814.0773    3519.3256     12819.51   -859.81342    8193.2163    307.21336    15396 
342000000   -3797.1369    3561.4572    12941.419   -910.91226    8269.5064    310.13485    15406 
343000000   -3773.7502    3613.4024    12925.315   -960.29613    8347.4488    309.74893    15415 
344000000   -3726.2435    3743.9611     12919.19   -949.94441    8420.1491    309.60215    15384 
345000000   -3746.0904    3605.9247    12865.859   -929.30264    8281.3177    308.32411    15401 
346000000   -3698.1982    3577.5328     12950.61    -937.3505    8213.0815    310.35511    15387 
347000000   -3768.2656    3510.1359    12923.058    -948.4076    8226.8092    309.69485    15408 
348000000   -3788.9112    3388.4606    12852.009    -984.0412     8161.413    307.99218    15392 
349000000   -3796.1021    3575.7677    13022.149   -991.41833    8363.2881    312.06951    15406 
350000000   -3914.1917    3403.8084     12893.58   -881.89247    8199.8926    308.98842    15390 
351000000   -3773.1111    3500.3862    12972.574   -993.44456    8266.9419    310.88147    15411 
352000000   -3892.6648    3426.0161    12968.931   -1085.4679    8404.1487    310.79417    15418 
353000000   -3839.1104    3316.1867    12809.774   -1059.3453    8214.6423    306.98005    15385 
354000000   -3902.0822     3444.694    13025.458    -1012.804    8359.5801    312.14882    15415 
355000000   -3875.0138    3403.6338    12932.769   -1074.3821    8353.0297    309.92756    15415 
356000000   -3770.1448    3554.9036    12871.888   -901.00098    8226.0494    308.46857    15379 
357000000   -3835.9385    3421.3671    13061.932   -1017.1964     8274.502     313.0229    15431 
358000000   -3884.5154    3529.0982    13023.182   -876.50743     8290.121    312.09427    15391 
359000000   -3934.0899    3311.5945    12891.682    -1013.247    8258.9314    308.94294    15417 
360000000   -3879.9247    3300.4358     12989.73   -981.55748     8161.918    311.29261    15405 
361000000   -3818.1486    3532.3001    12861.833    -984.1033     8334.552    308.22762    15398 
362000000   -3811.8749    3398.5461    12985.996   -1017.1746    8227.5956    311.20313    15417 
363000000   -3820.0041    3481.3919     12912.35   -987.01718    8288.4132    309.43824    15414 
364000000   -3838.4872    3445.4883    12912.276   -1013.9832    8297.9587    309.43647    15399 
365000000   -3756.3914    3455.4114    12858.015   -1010.9411    8222.7439    308.13613    15400 
366000000   -3697.7267    3525.0509    13026.302   -931.67597    8154.4536    312.16904    15381 
367000000   -3769.9008    3604.6722    13001.455   -862.18653    8236.7595    311.57359    15392 
368000000   -3736.2377    3483.4538    13002.129    -1041.095    8260.7866    311.58974    15418 
369000000   -3895.0577    3501.1385    12941.295   -955.85909    8352.0552    310.13188    15409 
370000000   -3759.3481    3566.8739    12883.931   -1003.5583    8329.7802    308.75719    15393 
371000000   -3901.2198    3500.5469    12996.679   -884.69454    8286.4612    311.45915    15399 
372000000   -3792.1433    3299.7488    12810.757   -1094.6348    8186.5269    307.00362    15413 
373000000   -3751.3714     3442.107    13034.245   -1006.3595    8199.8378    312.35939    15393 
374000000    -3847.931    3369.9228    12891.295   -997.74112     8215.595    308.93367    15413 
375000000   -3804.3106    3504.5368    12872.019   -987.07563    8295.9231    308.47173    15389 
376000000   -3828.7526    3373.1768    12994.352   -1062.5554    8264.4848    311.40336    15414 
377000000   -3817.0482    3297.2232    13073.546   -1064.6218    8178.8932    313.30121    15405 
378000000   -3741.3764    3559.6868    12969.625   -998.88285     8299.946    310.81081    15393 
379000000   -3885.9541    3277.3323    12881.106   -1055.9028    8219.1892    308.68949    15393 
380000000   -3875.7006    3317.2263    12994.702   -965.77961    8158.7066    311.41177    15400 
381000000   -3864.6968    3403.3039    12989.013   -978.05365    8246.0544    311.27543    15406 
382000000   -3848.2988    3380.0949    13025.808   -1076.5004    8304.8941    312.15719    15420 
383000000   -3866.4841    3208.7275    12978.675   -1114.4274     8189.639    311.02767    15424 
384000000   -3920.0071    3157.2244    12923.505   -1090.2599    8167.4914    309.70556    15423 
385000000   -3840.6526    3458.4759    12980.566    -1005.525    8304.6534    311.07301    15425 
386000000   -3796.5082    3522.3525    12927.765   -953.46972    8272.3304    309.80766    15411 
387000000   -3792.0387    3599.2198     12859.24   -906.08558    8297.3441    308.16549    15389 
388000000   -3831.4311    3386.2597    12901.021   -1003.0466    8220.7374    309.16675    15406 
389000000   -3777.4939    3376.3045    12790.595   -1106.6962    8260.4947    306.52042    15416 
390000000   -3798.8951    3350.5523    12939.729   -1052.9458    8202.3931    310.09435    15418 
391000000   -3727.1373    3578.5263    13009.702   -869.27488    8174.9385    311.77122    15403 
392000000     -3890.01    3354.8621    13098.241   -1003.6017    8248.4738    313.89301    15422 
393000000   -3947.5739    3350.9242     12908.88   -974.10487    8272.6029    309.35508    15411 
394000000   -3755.6175    3687.2666     12678.61   -971.60717    8414.4912    303.83676    15401 
395000000   -3774.2393     3594.598    12840.686   -878.88286    8247.7201    307.72083    15386 
396000000   -3812.8203    3356.5165    12902.397   -962.27714    8131.6139    309.19971    15392 
397000000    -3815.879    3311.1962     13026.22   -1040.6076    8167.6827    312.16706    15410 
398000000   -3843.2043    3354.1772    12956.042   -906.11758     8103.499     310.4853    15387 
399000000   -3748.7112     3384.553     13063.24   -1087.8763    8221.1405    313.05423    15405 
400000000   -3914.8243    3372.4083     13012.29   -965.31807    8252.5507    311.83325    15407 
401000000   -3827.5349     3542.765    12836.835   -945.90738    8316.2073    307.62856    15407 
402000000   -3791.0315    3522.3953    12957.859   -980.26899    8293.6958    310.52883    15398 
403000000   -3804.7667    3487.2495    12990.246   -963.40132    8255.4175    311.30497    15394 
404000000   -3744.2328    3417.5112    13090.882   -1111.3489    8273.0929    313.71666    15422 
405000000   -3814.9865    3484.2502    12796.268   -944.43791    8243.6745    306.65638    15416 
406000000   -3764.8974    3419.8842    12892.888   -1055.0316    8239.8133    308.97184    15417 
407000000   -3873.6168    3332.1151     13055.69   -995.68042    8201.4123    312.87331    15411 
408000000   -3852.5402    3516.5326    12980.912   -953.94586    8323.0186    311.08128    15415 
409000000   -3844.9553    3415.0729    12940.444    -1021.859    8281.8873    310.11149    15408 
410000000   -3766.3678    3531.7265    13012.593   -977.82526    8275.9195     311.8405    15394 
411000000   -3769.8117    3409.5761    12950.298    -1019.511    8198.8988    310.34765    15418 
412000000   -3774.8522    3462.0573    13020.183   -972.83252    8209.7421    312.02239    15414 
413000000   -3794.8442    3448.0394    12906.491   -1071.6917    8314.5753    309.29782    15413 
414000000   -3816.4701    3451.5126    12892.506   -1016.7597    8284.7424    308.96269    15427 
415000000   -3771.0674    3340.9609    13038.861   -1051.4243    8163.4526       312.47    15397 
416000000   -3776.5757    3491.2048    12767.598   -997.46182    8265.2423    305.96932    15401 
417000000   -3706.5946    3723.1448    12945.432    -891.6583    8321.3978    310.23102    15394 
418000000   -3777.4958    3523.7339    12945.227   -1024.6152    8325.8449    310.22611    15404 
419000000   -3699.8083     3712.954    12915.017   -874.74696    8287.5093    309.50216    15390 
420000000   -3825.1974    3156.7114    12947.045    -1120.382    8102.2908    310.26968    15425 
421000000   -3757.7237    3437.2915    12859.972   -1046.5794    8241.5946    308.18302    15430 
422000000    -3772.016    3565.5273      12755.7   -974.38908    8311.9323     305.6842    15403 
423000000    -3749.289     3682.567    12838.925    -966.5429    8398.3988    307.67865    15397 
424000000   -3771.6657    3563.3139    12962.223   -984.09829    8319.0779    310.63341    15395 
425000000   -3894.6755    3195.0804     12831.96   -1094.3169    8184.0729    307.51172    15415 
426000000    -3815.766    3484.9618    12983.527    -1062.378    8363.1058    311.14395    15415 
427000000   -3818.1083    3419.5987    12971.401   -992.83615    8230.5431    310.85336    15416 
428000000   -3784.3968    3589.1239    12922.371   -957.41709    8330.9378    309.67837    15412 
429000000   -3811.1893    3545.8944    12963.628   -868.24436     8225.328    310.66709    15388 
430000000   -3804.4193    3327.5185    12992.235   -1023.5603    8155.4981    311.35263    15395 
431000000   -3822.0473    3534.9047    12943.548    -875.2452    8232.1972    310.18587    15405 
432000000   -3882.5707    3423.9923    12774.261   -972.68297    8279.2461    306.12901    15413 
433000000   -3805.5227    3490.1496    12740.726    -969.9261    8265.5984    305.32534    15388 
434000000   -3808.2832    3446.7304    12994.006    -1053.923    8308.9366    311.39507    15416 
435000000   -3720.9062    3474.0927    12968.382   -979.10113    8174.1001    310.78102    15403 
436000000   -3803.3436    3554.8375    13014.227   -1048.6906    8406.8718    311.87966    15404 
437000000    -3857.788    3423.3732    13081.564   -1019.6905    8300.8517    313.49336    15417 
438000000   -3808.4785     3418.017    12683.433   -1021.8011    8248.2966    303.95234    15389 
439000000   -3784.4648    3517.0608    12837.526   -1043.9638    8345.4893    307.64512    15415 
440000000   -3791.7605    3533.4819      12729.3   -988.56538    8313.8077    305.05152    15415 
441000000   -3801.6826    3428.8504    13083.977   -1110.8425    8341.3755    313.55119    15421 
442000000   -3819.7944    3442.0212    12931.479   -986.46339     8248.279    309.89666    15394 
443000000   -3755.8935    3641.4923    12975.066   -995.50996    8392.8958    310.94119    15406 
444000000   -3864.2574    3251.0513    13032.168   -1097.8732    8213.1819    312.30961    15426 
445000000   -3817.9906    3416.4503    13047.785   -1029.1844    8263.6254    312.68388    15414 
446000000   -3771.0676    3404.5673    12985.774   -1068.7736    8244.4085    311.19779    15412 
447000000   -3854.2217    3489.1891    12888.199   -996.75211     8340.163    308.85948    15393 
448000000   -3850.8241    3342.6871     12941.07   -1139.8291    8333.3402    310.12648    15419 
449000000   -3833.9273     3417.627    12994.198   -1005.1065    8256.6607    311.39969    15398 
450000000   -3748.5387    3484.0667    12919.767    -1049.261    8281.8665    309.61597    15407 
451000000   -3832.8174    3384.8642    13061.943   -1065.8087    8283.4902    313.02315    15417 
452000000   -3788.9263     3409.014    12863.216   -983.49186    8181.4322    308.26077    15427 
453000000   -3683.1036    3445.2132    13026.933   -987.04519     8115.362    312.18416    15389 
454000000   -3740.1606    3571.4395    13126.152   -1050.4861    8362.0862    314.56189    15411 
455000000   -3839.2779     3439.334    12862.644   -1098.8544    8377.4664    308.24705    15410 
456000000   -3794.0461    3640.8499    12827.335   -922.80621    8357.7022     307.4009    15402 
457000000   -3689.4244    3544.5711     13060.47   -1010.4506    8244.4461    312.98786    15394 
458000000   -3836.5267    3466.3966    12980.099   -928.48003    8231.4033    311.06182    15413 
459000000   -3793.0815    3454.3676    13039.987    -1039.519    8286.9681      312.497    15409 
460000000    -3810.753    3347.9798    13049.302   -1021.6952     8180.428    312.72023    15397 
461000000   -3857.5545    3331.6396    12986.922   -1066.5106    8255.7046    311.22531    15411 
462000000   -3866.2955     3553.886    12837.017   -903.81114    8323.9926    307.63291    15401 
463000000   -3779.7505    3415.2327    12807.993    -918.0329    8113.0162    306.93737    15399 
464000000   -3684.6569     3609.374    13048.931   -937.95879    8231.9897    312.71134    15419 
465000000    -3757.403    3430.6685    13016.835   -1000.5419    8188.6134    311.94218    15407 
466000000   -3842.5812    3699.5336    12995.648   -903.29046    8445.4053    311.43443    15396 
467000000    -3712.946    3686.9125    12951.726   -878.02565    8277.8842    310.38185    15379 
468000000   -3715.9636    3665.3983    13018.737    -848.8834    8230.2453    311.98775    15394 
469000000   -3885.5289    3437.4571     12816.68    -1023.474    8346.4601    307.14555    15407 
470000000   -3898.1744    3245.5434    13045.515   -1026.4414    8170.1592    312.62948    15408 
471000000   -3852.8504     3488.241    12883.915   -924.15987    8265.2513     308.7568    15395 
472000000   -3969.5291    3188.7438    13096.646   -1030.7687    8189.0416     313.8548    15425 
473000000   -3836.6843    3356.7996    12751.638   -1020.4229    8213.9068    305.58686    15407 
474000000   -3784.2987    3537.2175    12871.444   -952.62068    8274.1369    308.45794    15378 
475000000   -3774.8423    3471.3534    12957.972   -1055.6097    8301.8053    310.53154    15412 
476000000   -3922.7244    3351.4923    12947.945   -1054.6108    8328.8276    310.29124    15428 
477000000   -3857.7306    3273.5888    12836.902    -1102.369    8233.6884    307.63016    15420 
478000000   -3812.7416    3444.4929    13044.702   -963.09544      8220.33    312.60999    15408 
479000000   -3908.7378    3280.5252    13012.718   -968.84688    8158.1099    311.84351    15401 
480000000   -3901.8196    3221.5673    13010.884   -1090.7587    8214.1456    311.79956    15404 
481000000   -3804.1022    3449.7453    12924.694   -975.86898    8229.7165    309.73405    15408 
482000000   -3787.1128    3595.7607    12931.132   -850.81073    8233.6842    309.88835    15384 
483000000   -3842.7636    3528.4505    12953.076   -946.62186    8317.8359    310.41422    15392 
484000000   -3768.7134    3476.3833    12878.994   -1033.2832    8278.3799    308.63887    15417 
485000000   -3764.6738    3479.5056    12908.919   -931.89227    8176.0717    309.35601    15392 
486000000   -3803.4176    3454.3158    13007.167   -971.88699    8229.6204    311.71048    15409 
487000000    -3835.408    3375.6016    12842.117   -996.88785    8207.8975    307.75513    15399 
488000000   -3818.0138    3599.0418    12930.034   -916.09245     8333.148    309.86202    15390 
489000000   -3749.1621    3461.5496    13149.593   -1043.8062    8254.5178    315.12364    15409 
490000000   -3853.8451    3374.6693    12825.194   -930.01164     8158.526    307.34958    15417 
491000000   -3804.2239    3575.4085     12883.91   -940.01677    8319.6492    308.75668    15401 
492000000   -3866.7551     3585.115    12922.161   -878.58506    8330.4552    309.67336    15403 
493000000   -3824.9584    3535.5963    12871.844    -865.1065    8225.6612    308.46753    15394 
494000000   -3908.1622    3332.1905    12931.208    -1015.186    8255.5387    309.89015    15416 
495000000   -3805.7164     3482.315    12898.689   -994.05485    8282.0862    309.11085    15397 
496000000    -3832.521    3410.3458     12809.24   -968.64961    8211.5164    306.96726    15400 
497000000   -3862.3205    3245.1541    12955.241   -1065.4136    8172.8882    310.46609    15398 
498000000   -3820.8748    3419.5281    13040.664   -1075.8822    8316.2851    312.51322    15404 
499000000   -3894.8484    3338.7662    12929.884   -999.84409    8233.4586    309.85843    15409 
500000000   -3718.7756    3756.9951    12917.006    -838.8061    8314.5769    309.54982    15380 
Loop time of 200686 on 28 procs for 500000000 steps with 14000 atoms

Performance: 5381.540 ns/day, 0.004 hours/ns, 2491.454 timesteps/s
99.6% CPU use with 28 MPI tasks x no OpenMP threads

MPI task timing breakdown:
Section |  min time  |  avg time  |  max time  |%varavg| %total
---------------------------------------------------------------
Pair    | 22259      | 29948      | 35632      |1759.7 | 14.92
Bond    | 5820.1     | 8346       | 11830      |2815.2 |  4.16
Neigh   | 66036      | 66836      | 67812      | 179.7 | 33.30
Comm    | 47768      | 56783      | 67107      |2094.3 | 28.29
Output  | 0.75844    | 0.76025    | 0.76456    |   0.1 |  0.00
Modify  | 24975      | 25331      | 25666      | 151.5 | 12.62
Other   |            | 1.344e+04  |            |       |  6.70

Nlocal:    500 ave 519 max 479 min
Histogram: 1 3 2 2 1 6 8 2 0 3
Nghost:    884.536 ave 1239 max 709 min
Histogram: 8 3 2 6 2 2 1 2 1 1
Neighs:    6681.68 ave 8698 max 5193 min
Histogram: 4 0 2 6 5 6 3 1 0 1

Total # of neighbors = 187087
Ave neighs/atom = 13.3634
Ave special neighs/atom = 8.74257
Neighbor list builds = 99925354
Dangerous builds = 0
System init for write_restart ...
Total wall time: 55:44:55
