LAMMPS (5 Jun 2019)
Reading restart file ...
  restart file = 5 Jun 2019, LAMMPS = 5 Jun 2019
  restoring atom style full from restart
  orthogonal box = (-420 -420 -420) to (420 420 420)
  2 by 2 by 7 MPI processor grid
  restoring pair style lj/cut from restart
  restoring bond style hybrid from restart
  restoring angle style cosine from restart
  14000 atoms
  15400 bonds
  13600 angles
Finding 1-2 1-3 1-4 neighbors ...
  special bond factors lj:   0          1          1         
  special bond factors coul: 0          0          0         
  3 = max # of 1-2 neighbors
  4 = max # of 1-3 neighbors
  8 = max # of 1-4 neighbors
  56 = max # of special neighbors
  special bonds CPU = 0.00268467 secs
  read_restart CPU = 0.0881195 secs
Finding 1-2 1-3 1-4 neighbors ...
  special bond factors lj:   0          1          1         
  special bond factors coul: 0          0          0         
  3 = max # of 1-2 neighbors
  4 = max # of 1-3 neighbors
  8 = max # of 1-4 neighbors
  40000 = # of 1-3 neighbors before angle trim
  27200 = # of 1-3 neighbors after angle trim
  56 = max # of special neighbors
  special bonds CPU = 0.00178706 secs
Neighbor list info ...
  update every 1 steps, delay 1 steps, check yes
  max neighbors/atom: 2000, page size: 100000
  master list distance cutoff = 26.9
  ghost atom cutoff = 26.9
  binsize = 13.45, bins = 63 63 63
  1 neighbor lists, perpetual/occasional/extra = 1 0 0
  (1) pair lj/cut, perpetual
      attributes: half, newton on
      pair build: half/bin/newton
      stencil: half/bin/3d/newton
      bin: standard
Setting up Verlet run ...
  Unit style    : real
  Current step  : 400000000
  Time step     : 0.1
Per MPI rank memory allocation (min/avg/max) = 1.103 | 8.231 | 16.68 Mbytes
Step Temp E_pair E_mol TotEng Press 
400000000    311.22592   -3695.3741    7178.2329    16469.806 -0.044894958 
400010000    312.18234    -3694.587    7228.9477    16561.218 -0.040587537 
Loop time of 5.44223 on 28 procs for 10000 steps with 14000 atoms

Performance: 15.876 ns/day, 1.512 hours/ns, 1837.482 timesteps/s
99.5% CPU use with 28 MPI tasks x no OpenMP threads

MPI task timing breakdown:
Section |  min time  |  avg time  |  max time  |%varavg| %total
---------------------------------------------------------------
Pair    | 0.00033843 | 0.50632    | 2.9862     | 106.3 |  9.30
Bond    | 0.00051873 | 0.11438    | 0.56898    |  44.8 |  2.10
Neigh   | 0.019366   | 0.020482   | 0.02246    |   0.8 |  0.38
Comm    | 0.0018029  | 1.6816     | 3.8467     | 101.6 | 30.90
Output  | 5.55e-05   | 0.00042002 | 0.00079626 |   0.0 |  0.01
Modify  | 0.00091711 | 0.25045    | 1.2233     |  65.6 |  4.60
Other   |            | 2.869      |            |       | 52.71

Nlocal:    500 ave 2572 max 0 min
Histogram: 16 2 1 2 3 1 2 0 0 1
Nghost:    505.643 ave 1708 max 0 min
Histogram: 12 3 1 2 1 3 2 3 0 1
Neighs:    6618.86 ave 37368 max 0 min
Histogram: 18 0 1 4 2 2 0 0 0 1

Total # of neighbors = 185328
Ave neighs/atom = 13.2377
Ave special neighs/atom = 7.864
Neighbor list builds = 7
Dangerous builds = 0
4000 atoms in group rxnSites
Neighbor list info ...
  update every 1 steps, delay 1 steps, check yes
  max neighbors/atom: 2000, page size: 100000
  master list distance cutoff = 26.9
  ghost atom cutoff = 26.9
  binsize = 13.45, bins = 63 63 63
  2 neighbor lists, perpetual/occasional/extra = 1 1 0
  (1) pair lj/cut, perpetual
      attributes: half, newton on
      pair build: half/bin/newton
      stencil: half/bin/3d/newton
      bin: standard
  (2) fix bond/create/random, occasional, copy from (1)
      attributes: half, newton on
      pair build: copy
      stencil: none
      bin: none
Setting up Verlet run ...
  Unit style    : real
  Current step  : 0
  Time step     : 25
Per MPI rank memory allocation (min/avg/max) = 17.8 | 18.27 | 19.08 Mbytes
Step E_pair PotEng KinEng E_bond E_angle Temp Bonds 
       0    -3694.587    3534.3608    13026.857   -1008.9004    8237.8481    312.18234    15400 
 1000000   -3791.4356    3364.6884    12803.177   -1002.4025    8158.5265    306.82196    15387 
 2000000   -3754.3171    3475.6896    12976.986   -1095.8319    8325.8385    310.98721    15415 
 3000000   -3820.8825    3527.1922    12864.943   -968.14408    8316.2188    308.30215    15403 
 4000000   -3811.2058    3362.4766    12983.661    -1011.985    8185.6674    311.14718    15436 
 5000000   -3783.8591    3446.8213    12905.492    -1025.845    8256.5253    309.27388    15417 
 6000000   -3854.7102     3310.976    12966.151    -1014.446    8180.1322    310.72755    15412 
 7000000   -3833.2866     3544.853    12863.561   -948.01221    8326.1517    308.26903    15403 
 8000000   -3700.5197    3374.5537    13030.474   -1036.9513    8112.0247    312.26903    15390 
 9000000    -3832.317    3385.5734    12937.226   -1068.0173    8285.9077    310.03437    15416 
10000000   -3833.7325    3464.1134    12963.843   -905.92389    8203.7698    310.67224    15383 
11000000   -3909.1189    3140.1185    12832.752   -1157.6544    8206.8917    307.53071    15425 
12000000   -3845.6264    3246.3439    12997.811   -1123.1976    8215.1679    311.48627    15403 
13000000    -3861.073    3386.2166    12985.994   -997.14918    8244.4387    311.20309    15408 
14000000   -3824.8282    3415.3542    12886.157   -1075.7897    8315.9721    308.81054    15417 
15000000   -3756.4291    3361.6928    12662.015   -1000.1548    8118.2768    303.43908    15410 
16000000   -3829.1371     3595.676     13037.69   -888.40157    8313.2147    312.44194    15382 
17000000   -3832.7733    3256.4313    12910.994   -1078.7515     8167.956    309.40573    15405 
18000000   -3886.9856    3246.7456    12748.157   -1058.7267    8192.4579    305.50344    15419 
19000000   -3747.9054    3610.1426      12759.1   -912.01725    8270.0652    305.76568    15368 
20000000   -3738.0002    3539.7733    12952.099    -987.1257    8264.8991    310.39079    15400 
21000000   -3821.8837    3557.9422    12824.551   -903.73101    8283.5569    307.33417    15382 
22000000   -3761.5475    3397.4718    13013.518   -1025.3715    8184.3909    311.86266    15395 
23000000   -3810.8333    3547.1736    13074.986   -983.70789    8341.7148    313.33573    15408 
24000000   -3778.8919    3411.8745    13035.358   -1075.8348    8266.6013    312.38607    15422 
25000000   -3797.6783    3384.9428    13027.593   -975.11632    8157.7374    312.19998    15411 
26000000   -3679.7579     3391.757    12893.382   -1023.7308    8095.2458    308.98368    15395 
27000000   -3885.8038    3362.2102    12892.698   -1088.9535    8336.9675    308.96727    15412 
28000000   -3707.7987    3500.7827    12977.497   -983.91906    8192.5005    310.99945    15401 
29000000   -3692.1483    3724.5472    13027.934    -879.3899    8296.0854    312.20814    15401 
30000000   -3864.1298    3320.3584    13009.132   -1043.6605    8228.1488    311.75758    15411 
31000000   -3776.8078    3575.1385    12871.971   -894.58465     8246.531    308.47057    15391 
32000000   -3724.1007    3432.8494    12935.841   -1017.8521    8174.8022    310.00118    15405 
33000000   -3859.8515     3504.811    12884.461   -901.15208    8265.8146    308.76988    15406 
34000000   -3839.0088    3308.4636    12820.234   -1165.6392    8313.1117    307.23073    15428 
35000000   -3787.4901    3524.4738    12836.266   -999.93632    8311.9003    307.61492    15397 
36000000   -3729.0606    3588.3903    13049.168     -920.524    8237.9749      312.717    15384 
37000000   -3865.2922    3321.7413    12785.927   -973.09033    8160.1238    306.40856    15416 
38000000   -3733.6686    3451.0943    12955.032   -981.03331    8165.7963    310.46109    15414 
39000000   -3743.2852    3431.8364    12922.566   -1047.5736    8222.6951    309.68306    15407 
40000000   -3851.1273    3418.2683     12959.11   -981.47598    8250.8716    310.55882    15396 
41000000    -3755.151    3473.7271    12956.406   -994.33751    8223.2156    310.49401    15401 
42000000   -3780.4114    3446.8799    12869.481   -980.20481    8207.4961    308.41089    15399 
43000000   -3687.1326    3650.0848    12779.768    -955.9831    8293.2005    306.26097    15399 
44000000    -3740.004    3549.4999    13108.649   -998.10837    8287.6123    314.14245    15407 
45000000   -3810.0883    3500.6671    12846.126   -887.48972    8198.2451    307.85121    15386 
46000000     -3915.65    3351.0433    12861.857   -1066.5024    8333.1958    308.22819    15441 
47000000   -3757.2645    3515.1033    12928.052   -985.14973    8257.5175    309.81452    15409 
48000000   -3821.3943    3423.7255    12929.138   -1034.5987    8279.7185    309.84056    15430 
49000000   -3833.2639    3328.9927    12938.342   -1148.5616    8310.8182    310.06111    15424 
50000000    -3733.517      3610.19    12997.526   -985.27438    8328.9814    311.47943    15409 
51000000   -3746.6077    3553.1249    12950.527    -1041.538    8341.2706    310.35314    15414 
52000000   -3731.1174    3376.4109    12986.655     -1101.85    8209.3783    311.21892    15429 
53000000   -3792.8748    3368.0967    12953.572   -1108.1993    8269.1709    310.42611    15397 
54000000   -3744.1408    3514.5391    12950.971   -1025.0532    8283.7331    310.36378    15416 
55000000   -3848.6188    3407.2746    12983.644   -982.52951     8238.423    311.14676    15407 
56000000   -3777.5632    3452.2865    12922.264   -989.31873    8219.1684    309.67583    15406 
57000000   -3818.9133    3442.0304    12984.159   -1044.4802    8305.4239    311.15911    15399 
58000000   -3730.1315    3474.4919    12844.445    -1008.097    8212.7203    307.81092    15397 
59000000   -3820.0344    3571.2574    12885.668    -880.9554    8272.2472    308.79882    15389 
60000000   -3848.1878    3514.6049    12871.644   -928.49704    8291.2897    308.46274    15387 
61000000   -3780.7343    3474.8044    12833.915   -1035.6359    8291.1745    307.55858    15394 
62000000   -3798.2087     3595.163    12867.947   -1004.6018    8397.9736    308.37414    15405 
63000000   -3707.2713     3460.424    13012.243   -1079.3892    8247.0845    311.83213    15409 
64000000   -3777.6935     3468.743    13015.134    -1063.543    8309.9795     311.9014    15414 
65000000   -3825.4231    3505.6169    12879.257   -990.17903     8321.219    308.64518    15415 
66000000   -3728.9193     3607.535    12937.341   -915.98188    8252.4362    310.03714    15388 
67000000   -3776.7643    3285.7236    12918.027   -1045.2615    8107.7494    309.57429    15405 
68000000   -3769.9825    3471.1105    12833.588   -1008.5202    8249.6133    307.55074    15415 
69000000   -3833.6708    3468.7213    12958.555   -939.68381    8242.0759    310.54552    15418 
70000000   -3785.0902    3266.8429    12979.499   -1180.7023    8232.6354    311.04742    15419 
71000000   -3799.2246    3469.4629    12753.873   -996.86328    8265.5508    305.64041    15406 
72000000   -3708.9312    3670.9819    13004.846   -853.93736    8233.8505    311.65484    15397 
73000000   -3750.0011    3320.0566    12925.463   -1099.1172    8169.1749    309.75247    15427 
74000000   -3753.5871    3642.2774    13004.525   -917.64149     8313.506    311.64716    15401 
75000000   -3775.6018    3434.0982    12886.927    -1048.403     8258.103    308.82898    15396 
76000000   -3839.6064    3534.4106    12939.228   -954.21161    8328.2286    310.08236    15393 
77000000   -3799.3406    3399.0037    12790.201   -992.37668     8190.721    306.51099    15420 
78000000   -3790.1759    3295.0222    12918.004   -1083.8268    8169.0248    309.57374    15415 
79000000   -3736.4113    3382.4278    12817.813   -1043.0559     8161.895    307.17269    15399 
80000000   -3888.1251    3240.2315    12934.305   -1076.7892    8205.1458    309.96437    15432 
81000000   -3879.6065    3302.9199    13025.679   -1083.0667    8265.5932    312.15412    15421 
82000000   -3826.1155    3331.9096    12836.789   -992.38802    8150.4131    307.62745    15401 
83000000    -3829.713     3463.229    12812.053   -989.87349    8282.8154    307.03467    15403 
84000000   -3886.7988    3197.4503    12929.843   -1108.4017    8192.6508    309.85743    15431 
85000000   -3885.4144    3362.1335    12854.827   -967.16278    8214.7107    308.05974    15400 
86000000   -3919.2179    3370.0495    12825.381   -955.88278    8245.1502    307.35406    15407 
87000000   -3885.2802    3478.7301    13021.931   -955.77697    8319.7873     312.0643    15388 
88000000   -3954.6458    3392.2478    12882.117   -927.76923    8274.6628    308.71372    15420 
89000000    -3858.325    3408.3324    12672.908   -984.87442    8251.5318    303.70011    15411 
90000000   -3816.4725    3502.7932    13008.752   -952.15423      8271.42    311.74846    15399 
91000000   -3824.3322    3288.1835    13030.167   -982.24781    8094.7635    312.26165    15402 
92000000   -3720.5709    3563.0591    12943.296   -922.88046    8206.5105    310.17983    15386 
93000000   -3897.2296    3301.2831      12967.4   -965.43781    8163.9505    310.75749    15409 
94000000    -3793.885    3440.1462    12897.076   -1011.0524    8245.0837    309.07219    15411 
95000000   -3825.5775    3373.4586    12779.649   -988.93955    8187.9756    306.25812    15398 
96000000     -3794.95    3492.9896    12885.945   -890.09475    8178.0344    308.80544    15402 
97000000   -3851.3238    3436.5313    12869.554   -970.28304    8258.1381    308.41265    15409 
98000000   -3811.2378    3413.8328    13124.955   -1042.4825    8267.5531    314.53321    15418 
99000000   -3856.2596    3222.1326    12856.917   -1034.4789     8112.871    308.10981    15414 
100000000   -3861.2711    3210.2791    12884.231   -1085.4678     8157.018    308.76438    15415 
101000000    -3812.911    3280.3352    12961.686   -1129.5066    8222.7527    310.62055    15406 
102000000   -3853.2262    3358.7638    12986.166   -1039.4391    8251.4291    311.20721    15401 
103000000   -3789.9391    3646.8721    12774.393   -843.49721    8280.3084    306.13216    15381 
104000000   -3869.5052    3420.5959    12875.522   -967.49262    8257.5936    308.55566    15402 
105000000        -3854    3221.9081    12841.887    -1180.323    8256.2311    307.74963    15418 
106000000   -3765.6188    3660.5472    12975.687   -840.31125    8266.4773    310.95607    15391 
107000000   -3810.3214    3495.6097    12834.478   -906.35937    8212.2905    307.57206    15398 
108000000   -3870.6118    3293.6189    12919.776   -1075.0594    8239.2901    309.61619    15423 
109000000     -3833.62    3264.9798    12929.548   -1146.9828    8245.5826    309.85037    15418 
110000000   -3815.1932     3454.974    13031.015   -1028.9191    8299.0863    312.28197    15404 
111000000   -3748.6034    3557.6802    12987.208   -1013.8012    8320.0849    311.23217    15388 
112000000   -3894.3241    3357.7708    12882.648   -1065.0515    8317.1464    308.72645    15417 
113000000    -3759.648    3324.9668    13039.504   -1107.4521    8192.0669    312.48542    15426 
114000000   -3817.6018    3450.7535    12996.808   -1066.8464    8335.2017    311.46222    15409 
115000000   -3722.0185    3526.0874    13037.454   -988.05254    8236.1585    312.43629    15402 
116000000    -3810.789    3306.0357    12986.626   -1014.5951    8131.4198    311.21823    15403 
117000000   -3843.5099    3247.5868      12999.2   -1102.0178    8193.1145    311.51956    15416 
118000000   -3881.6825    3481.0046    13011.474   -924.34564    8287.0327    311.81369    15399 
119000000   -3911.2037    3255.7493    12834.957   -957.70342    8124.6565    307.58354    15420 
120000000   -3817.3655    3532.9932    12953.488   -896.42994    8246.7886    310.42408    15403 
121000000   -3818.4713    3444.8469    12985.751    -985.0046    8248.3228    311.19726    15399 
122000000    -3828.229    3445.4115     12944.56   -939.62866    8213.2692    310.21013    15387 
123000000   -3843.0944    3355.0891    12911.356   -1071.4602    8269.6438    309.41441    15417 
124000000   -3844.3658     3433.733    13127.547   -1006.7708    8284.8695    314.59532    15401 
125000000     -3742.74    3639.6381    12928.735   -889.53606    8271.9141    309.83088    15407 
126000000    -3798.671    3331.5029    13040.804   -1039.3183    8169.4922    312.51658    15422 
127000000   -3785.0953    3409.6731    12891.012   -1050.9061    8245.6744    308.92688    15420 
128000000   -3941.7291    3252.2745    12985.703   -1058.5704     8252.574     311.1961    15432 
129000000   -3806.6726    3531.7933    12785.923   -1033.2422     8371.708    306.40848    15404 
130000000   -3815.4826    3294.2687    13037.388   -1077.0083    8186.7596    312.43472    15415 
131000000    -3880.952    3481.8842     12887.19   -919.62051    8282.4567    308.83529    15399 
132000000   -3779.3849     3452.627    12923.379   -1088.1672    8320.1791    309.70254    15411 
133000000   -3812.4388    3494.7325    13049.162   -946.52424    8253.6956    312.71687    15393 
134000000   -3912.6575    3262.5074    13204.262   -1085.6516    8260.8165    316.43377    15413 
135000000   -3782.1334    3568.8128    12796.184   -932.07503    8283.0213    306.65436    15397 
136000000   -3802.3551    3543.6704    13040.776     -968.155    8314.1805    312.51589    15423 
137000000   -3777.4927    3472.7441    12870.894   -978.56884    8228.8057    308.44475    15399 
138000000    -3745.849    3758.2627    13156.056   -862.38475    8366.4965    315.27853    15382 
139000000   -3858.2949    3503.5413    13144.248   -864.53133    8226.3676    314.99555    15376 
140000000   -3817.9074     3516.579    12800.556   -892.42784    8226.9142    306.75914    15382 
141000000   -3851.4263    3413.9304    13066.729   -922.11326    8187.4699    313.13785    15393 
142000000   -3809.2892    3509.7653    12952.944   -946.31894    8265.3734    310.41105    15406 
143000000   -3814.0743    3512.3555    12933.351    -895.9547    8222.3846    309.94152    15364 
144000000   -3778.0488    3471.4614    12937.977   -915.13045    8164.6406    310.05238    15401 
145000000   -3833.7754    3257.2284    12902.767   -1083.7861    8174.7899    309.20858    15422 
146000000   -3900.1261    3333.5871    12847.712   -1034.6911    8268.4043    307.88921    15399 
147000000   -3895.6258    3296.5724    12943.752   -1060.2053    8252.4034    310.19076    15409 
148000000   -3882.1195    3238.5209    13023.457   -1029.4281    8150.0685    312.10086    15409 
149000000   -3829.0903    3246.5731    13035.797   -1130.6159    8206.2794    312.39658    15415 
150000000   -3804.9033    3534.5125    12925.306   -834.18321    8173.5991    309.74873    15381 
151000000   -3917.5429    3293.4681    12938.896   -957.88291    8168.8939     310.0744    15410 
152000000   -3818.4299    3479.4415    13016.582    -941.4613    8239.3328    311.93611    15401 
153000000   -3807.9886    3313.6728    12928.041   -1017.9985    8139.6598    309.81427    15409 
154000000   -3822.2529    3468.6832    12855.719   -922.87787    8213.8141     308.0811    15418 
155000000   -3786.1069    3496.4554    12975.078   -974.18234    8256.7446    310.94149    15388 
156000000   -3868.8624    3371.2687    12838.414   -1028.1761    8268.3072    307.66638    15416 
157000000   -3889.0974    3274.7584    12929.296    -995.9908    8159.8466    309.84434    15406 
158000000    -3850.651    3244.7474    12837.781   -1008.7854    8104.1839    307.65121    15404 
159000000   -3876.6938     3216.706    12926.427   -1052.7959    8146.1958    309.77558    15411 
160000000   -3877.1958     3339.657    12789.887   -1063.0574    8279.9101    306.50347    15414 
161000000   -3886.0086     3310.962      12995.1   -1011.8744     8208.845    311.42131    15434 
162000000   -3787.4684    3504.3005      12835.6    -947.5847    8239.3535    307.59896    15402 
163000000   -3853.9364     3472.054    12869.666   -972.12859     8298.119    308.41534    15396 
164000000   -3747.9103    3459.4573    12946.512   -1001.4808    8208.8485     310.2569    15408 
165000000   -3788.3801    3435.8129    13105.307   -1016.1764    8240.3693    314.06235    15403 
166000000   -3802.1145    3370.2934    13049.898   -1145.6468    8318.0547    312.73451    15416 
167000000   -3785.2353    3512.5479     12996.09   -939.71257    8237.4957    311.44502    15403 
168000000   -3801.9353    3500.5461    13010.787   -1006.0719    8308.5532    311.79724    15397 
169000000   -3745.5911    3446.3413    12847.264   -1075.9698    8267.9022    307.87848    15412 
170000000   -3898.3003    3236.6941    12893.173   -1168.8398    8303.8341    308.97867    15436 
171000000     -3779.94    3576.0783    12909.972   -893.58224    8249.6006    309.38124    15389 
172000000   -3967.7095    3319.6724     13002.24   -904.87068    8192.2526    311.59241    15400 
173000000   -3833.6004    3380.4428    12933.313   -1018.9973    8233.0405    309.94061    15409 
174000000   -3702.3263    3540.5776    12859.329   -1018.6926    8261.5966    308.16761    15399 
175000000   -3813.5134    3526.7439    12834.315   -970.34884    8310.6061    307.56816    15404 
176000000   -3826.5239    3428.1588    13041.491   -1000.1166    8254.7993    312.53304    15414 
177000000   -3732.1522    3343.7577    12938.146   -1095.7758    8171.6856    310.05643    15407 
178000000   -3801.2361     3457.058    12849.856   -965.22422    8223.5183     307.9406    15408 
179000000   -3816.6316    3426.0561    12923.381   -985.72667    8228.4143     309.7026    15386 
180000000   -3757.9937    3484.5604    12867.274   -1071.2611    8313.8152    308.35801    15404 
181000000   -3743.6567    3597.3852    12878.178   -948.80811      8289.85    308.61932    15391 
182000000   -3821.7543    3368.5409    12921.767   -1114.8371    8305.1322     309.6639    15415 
183000000    -3807.974    3649.5727    12885.144   -830.94168    8288.4883    308.78626    15402 
184000000   -3829.2545    3541.6321    12844.628   -891.92864    8262.8153    307.81531    15403 
185000000   -3704.7277    3503.6188    13030.341   -1061.5631    8269.9096    312.26582    15407 
186000000   -3865.5082    3330.6089     12926.86   -1067.4984    8263.6156    309.78595    15412 
187000000   -3828.8677    3325.5252    12943.989   -1002.4235    8156.8165    310.19645    15406 
188000000   -3902.5869    3305.9748    13019.869   -990.49571    8199.0575    312.01488    15410 
189000000   -3658.9849    3774.7466    12990.125   -874.64575    8308.3773    311.30206    15385 
190000000   -3816.8632    3443.9165    13028.248   -986.40435    8247.1841    312.21567    15397 
191000000   -3763.2948    3635.8911    12923.343   -986.99449    8386.1803    309.70168    15384 
192000000   -3725.9709    3664.2541    12887.697    -937.4819    8327.7069    308.84744    15389 
193000000   -3739.8376     3357.721    12954.157   -992.86661    8090.4253    310.44012    15405 
194000000   -3836.4707    3507.5161    12774.954    -995.7992     8339.786     306.1456    15414 
195000000   -3752.0926     3583.246    13046.828   -950.17707    8285.5157    312.66094    15397 
196000000   -3731.1699    3415.5558     12916.03   -1043.8871    8190.6128    309.52643    15424 
197000000   -3786.6633    3436.4163     12840.99   -1107.5307    8330.6103    307.72813    15403 
198000000   -3724.3125    3573.3808    13050.268    -964.8925    8262.5858    312.74337    15414 
199000000   -3742.9934    3533.8196    12978.512    -951.3321    8228.1451    311.02378    15388 
200000000   -3764.8087    3464.4807    12916.601   -1043.9669    8273.2564    309.54011    15404 
201000000   -3777.3681    3501.7725    12867.857   -916.53614    8195.6768    308.37199    15388 
202000000   -3809.1709    3536.1646    12889.555   -921.00202    8266.3375    308.89195    15378 
203000000   -3874.4762    3343.0076    12862.526    -1095.939    8313.4229    308.24424    15417 
204000000   -3770.2291    3649.1521    12848.867   -877.71566    8297.0969    307.91691    15389 
205000000   -3776.0516    3513.4752    12975.255   -1019.0767    8308.6036    310.94572    15399 
206000000   -3845.6517    3393.5339    12832.599   -965.97166    8205.1572    307.52704    15391 
207000000   -3763.7129    3658.5632    12788.936   -892.68306    8314.9593    306.48068    15388 
208000000    -3676.003    3735.3286    12881.102   -994.51924    8405.8508     308.6894    15404 
209000000   -3735.8985    3541.5557    12855.299   -958.86292    8236.3172    308.07102    15377 
210000000   -3753.8979    3472.2105    13034.381   -1013.6721    8239.7804    312.36265    15403 
211000000   -3756.1797    3493.6433    12860.422   -1087.4799    8337.3029     308.1938    15413 
212000000    -3826.415    3330.5819    13068.795   -1106.1669    8263.1637    313.18735    15427 
213000000   -3837.1236    3332.8434    12956.463   -1011.7011    8181.6681    310.49537    15415 
214000000   -3812.2504    3486.4189     13089.39   -992.33916    8291.0084     313.6809    15404 
215000000   -3734.9848    3764.5499    12949.639   -917.31465    8416.8494    310.33184    15398 
216000000   -3784.7864    3495.5222    12828.355    -969.2805    8249.5891    307.42533    15402 
217000000   -3754.4719    3554.5717    12836.364   -875.83535    8184.8789    307.61727    15373 
218000000   -3788.9014    3313.4921    12912.868   -1091.0302    8193.4237    309.45064    15409 
219000000   -3856.3707    3431.1748    12946.442    -956.3699    8243.9153    310.25524    15402 
220000000    -3736.468    3477.8903     12987.68   -1007.6007     8221.959    311.24349    15413 
221000000   -3739.4962    3561.5297    12885.727   -1026.2657    8327.2916    308.80022    15407 
222000000   -3766.7721    3506.7278    12886.791   -989.55495    8263.0548    308.82572    15395 
223000000   -3762.0333    3524.0058    12931.528   -940.79754    8226.8366    309.89783    15391 
224000000   -3834.4796    3359.7981    12888.533   -1063.1859    8257.4636    308.86747    15403 
225000000   -3749.6947    3514.4883    13128.535   -934.97507     8199.158    314.61901    15415 
226000000   -3784.5035    3403.8451    13034.935   -1076.4814    8264.8299    312.37592    15422 
227000000   -3704.9601    3659.1584    12862.693   -947.02887    8311.1474    308.24823    15409 
228000000   -3745.6835    3468.1422    12732.275   -1091.1545    8304.9802    305.12283    15413 
229000000   -3777.5137    3489.3586    12977.911   -1079.4937     8346.366    311.00936    15418 
230000000   -3782.3542    3475.0848    12907.664   -1034.3338    8291.7728    309.32593    15417 
231000000   -3719.2785    3563.9743     12902.22   -985.98953    8269.2423    309.19549    15398 
232000000   -3747.6366    3570.8696    13094.984   -995.88934    8314.3955    313.81498    15417 
233000000   -3764.1726    3699.9787    13000.422   -804.81109    8268.9624    311.54884    15362 
234000000   -3768.5463    3612.2161     12962.97   -930.57413    8311.3366    310.65133    15390 
235000000    -3874.522    3232.1979    13025.971   -1114.9401    8221.6599    312.16111    15418 
236000000   -3814.8626    3372.3752    12892.351   -987.68521    8174.9231    308.95896    15408 
237000000   -3772.5435    3635.2098    12793.072   -911.42417    8319.1775     306.5798    15394 
238000000   -3835.4478    3582.1647    12905.851   -881.48795    8299.1005    309.28248    15382 
239000000   -3769.2264    3601.7567    12952.144    -944.0377    8315.0208    310.39187    15391 
240000000   -3819.8145    3648.6463    12954.799   -920.48749    8388.9482     310.4555    15381 
241000000   -3822.1557     3567.318    12832.251   -914.81696    8304.2906    307.51869    15395 
242000000    -3899.597    3360.7071    12892.903   -1109.1014    8369.4054    308.97219    15422 
243000000   -3823.2081    3400.5154    12862.686   -1032.4849    8256.2085    308.24806    15425 
244000000   -3707.3625    3503.6793    12957.556   -955.15899    8166.2008    310.52158    15394 
245000000   -3817.9948    3439.9858    12971.648   -933.94379    8191.9244    310.85929    15406 
246000000   -3939.4396    3149.5766     12882.12   -1056.8842    8145.9005    308.71378    15419 
247000000   -3814.2199    3414.5083    13057.767   -924.89395    8153.6222    312.92307    15410 
248000000   -3710.0154    3477.2758    12848.216   -961.09516    8148.3864    307.90129    15405 
249000000   -3718.6591     3513.915    13019.862   -1028.1905    8260.7647    312.01471    15391 
250000000   -3825.1992     3328.665    12959.586   -1025.8362    8179.7004    310.57022    15400 
251000000   -3821.1485     3327.313     12846.89   -994.89154     8143.353    307.86952    15394 
252000000   -3811.6755    3435.7803    12993.601   -1012.1771    8259.6329    311.38537    15413 
253000000   -3822.0024    3267.4753    12993.487   -1090.1508    8179.6284    311.38265    15418 
254000000   -3789.4543     3265.074    13145.791   -1150.3423    8204.8707    315.03254    15433 
255000000   -3891.2092    3390.0115    12825.707   -1020.8933     8302.114    307.36187    15403 
256000000   -3793.4598    3491.8474    12992.021   -983.12343    8268.4306    311.34751    15396 
257000000   -3829.9674    3327.6888    13035.678   -1083.1139      8240.77    312.39374    15408 
258000000   -3779.9266    3623.8789    12999.788   -881.43203    8285.2375    311.53364    15403 
259000000   -3853.9984    3432.8991    12904.611   -967.30186    8254.1994    309.25278    15404 
260000000    -3874.161    3283.0671    12933.491   -1081.2416    8238.4698    309.94487    15420 
261000000    -3805.175    3457.2181    12995.742   -863.13125    8125.5243    311.43667    15387 
262000000   -3770.6237    3410.5326    12909.149   -1083.0084    8264.1647    309.36152    15406 
263000000   -3835.7916     3437.225    12828.321   -973.61551    8246.6322    307.42452    15395 
264000000   -3715.9556     3519.337     12947.65   -987.11024    8222.4028    310.28417    15406 
265000000    -3793.682    3508.6348    12954.216   -1006.2018    8308.5186    310.44153    15419 
266000000   -3783.3667    3245.8504    13150.332   -1094.2554    8123.4725    315.14135    15425 
267000000   -3861.9476     3298.923    12929.773   -1134.7715     8295.642    309.85577    15426 
268000000    -3760.353    3455.3416    13050.744   -1002.9146    8218.6092    312.75479    15398 
269000000   -3824.6977    3316.2853    12880.826   -1161.9033    8302.8863    308.68279    15420 
270000000   -3841.8043     3307.381    12973.082   -1075.4068    8224.5921    310.89365    15412 
271000000   -3865.5075     3512.617    12900.045   -942.26062    8320.3851    309.14336    15410 
272000000   -3838.4577     3461.136    12915.809   -1014.7445    8314.3382    309.52112    15394 
273000000   -3882.6081     3321.944    13025.846   -981.08176    8185.6339    312.15811    15412 
274000000   -3800.8028     3541.862    12951.724     -959.938    8302.6028    310.38181    15400 
275000000   -3820.4274    3251.6426    13102.827    -1159.707     8231.777    314.00292    15418 
276000000   -3785.5539    3517.5399    12960.883   -975.99236    8279.0861    310.60129    15411 
277000000   -3807.0413    3577.8624    12976.175   -998.06963    8382.9733    310.96777    15407 
278000000   -3735.8176    3510.0462    12899.609   -949.99462    8195.8584    309.13291    15394 
279000000   -3806.1093    3622.0266    13085.003   -887.73705     8315.873    313.57578    15372 
280000000    -3871.032    3523.0984    12864.193   -974.12621    8368.2566    308.28417    15424 
281000000   -3765.7447    3551.0545    12916.811   -960.60968    8277.4088    309.54513    15393 
282000000   -3875.1719    3401.8386    13037.938   -996.82657    8273.8371     312.4479    15406 
283000000    -3730.126    3566.9367    12932.897   -985.13396    8282.1966    309.93063    15414 
284000000    -3886.897    3472.5523    12921.008   -1026.0196    8385.4689    309.64571    15402 
285000000   -3847.9794    3415.3317    13064.406    -999.4149     8262.726    313.08219    15390 
286000000   -3850.9091    3416.3825    12885.238   -1014.0302    8281.3219     308.7885    15411 
287000000   -3905.2939    3231.9428    12880.847   -1076.1228    8213.3596    308.68329    15438 
288000000   -3820.3362    3429.6192    12940.567   -1014.7133    8264.6687    310.11445    15410 
289000000   -3795.5158    3522.5623    13049.631   -1009.7501    8327.8283    312.72812    15403 
290000000   -3740.2612      3530.84    12889.714   -998.21419    8269.3154    308.89576    15380 
291000000   -3854.3694    3509.4603    13113.688   -994.76037    8358.5901     314.2632    15406 
292000000   -3765.1144    3488.6765    13002.108   -925.59811     8179.389    311.58924    15395 
293000000   -3804.7979    3355.2051    12970.868   -982.64581    8142.6489    310.84059    15400 
294000000   -3768.8847    3565.3833    13071.132   -898.63771    8232.9057    313.24338    15392 
295000000   -3845.0549    3566.4612    13130.638   -874.34602    8285.8621    314.66941    15401 
296000000   -3831.3092    3571.8024    12912.932   -846.31988    8249.4314    309.45218    15390 
297000000   -3845.5576    3421.4697    12924.819   -946.96126    8213.9885    309.73704    15405 
298000000   -3769.0132    3612.8942     12995.89   -919.87151     8301.779    311.44024    15378 
299000000   -3766.5097    3519.7615    12870.734   -919.34098    8205.6122    308.44092    15392 
300000000   -3689.4979    3478.2133    12943.967   -1008.3325    8176.0437    310.19593    15391 
301000000   -3731.0858     3530.139    12896.017    -895.6246    8156.8493    309.04681    15403 
302000000    -3833.752     3529.387    12839.601   -953.39626    8316.5352    307.69483    15417 
303000000    -3858.771    3472.8554     12879.53   -933.78925    8265.4156    308.65171    15411 
304000000   -3856.1578    3349.7611    12970.811   -1008.2626    8214.1815    310.83923    15407 
305000000   -3870.0226    3421.0497    13014.478   -1036.3703    8327.4426    311.88567    15406 
306000000   -3868.8681    3303.6702    12972.191   -1090.5435    8263.0819     310.8723    15434 
307000000    -3863.241    3397.1904    12875.431   -993.78457     8254.216    308.55348    15400 
308000000   -3851.2347    3392.4158    12874.783   -924.03974    8167.6903    308.53797    15398 
309000000    -3885.495    3511.7497    12898.003     -845.268    8242.5127     309.0944    15381 
310000000    -3826.427     3306.945    12893.132   -1034.5065    8167.8785    308.97768    15409 
311000000   -3902.9882    3390.5621    12879.635   -951.44471     8244.995    308.65425    15407 
312000000   -3965.6796    3264.8431    13049.066   -1017.6033     8248.126    312.71458    15416 
313000000   -3832.1385    3346.6661    12822.959   -975.24295    8154.0476    307.29603    15415 
314000000   -3829.7832    3324.7394    12994.759   -1035.4073      8189.93    311.41313    15393 
315000000   -3912.2165    3455.6516    12986.404   -983.78933    8351.6575     311.2129    15411 
316000000   -3951.8498    3141.9026    13000.915    -1075.255    8169.0074    311.56065    15422 
317000000   -3833.4484    3362.8257    12918.256   -1029.9967    8226.2708    309.57977    15427 
318000000    -3732.388    3612.6357    12799.083   -954.14229    8299.1659    306.72385    15412 
319000000    -3795.171    3516.5426    12945.236   -1012.4244     8324.138    310.22632    15395 
320000000   -3837.9554    3400.7591    12846.897   -1016.8981    8255.6127    307.86968    15414 
321000000    -3802.205    3440.8543    12927.882   -1007.3984    8250.4577    309.81045    15401 
322000000   -3762.4258    3513.3835    13004.828    -883.0552    8158.8645    311.65444    15398 
323000000   -3744.1692    3595.2493    12849.042   -1023.3238    8362.7423    307.92109    15401 
324000000   -3786.8331    3634.3984    12977.945   -998.37691    8419.6084     311.0102    15402 
325000000   -3762.6238    3449.3401    13072.377   -1063.0332    8274.9971     313.2732    15420 
326000000   -3775.0312    3495.0033    12944.455   -992.97177    8263.0063     310.2076    15394 
327000000   -3654.9372    3510.9122    13006.145   -1059.5252    8225.3746    311.68598    15403 
328000000     -3785.96    3807.1312    13014.935   -785.02157    8378.1128    311.89662    15383 
329000000   -3772.9173    3567.5245    12895.893   -923.96675    8264.4086    309.04385    15390 
330000000   -3689.9433    3559.4347    12947.022    -970.8007    8220.1787    310.26914    15394 
331000000   -3773.6991    3623.9721    12817.471   -976.33082    8374.0021    307.16451    15390 
332000000   -3799.1798    3472.9009    13113.556   -1006.5566    8278.6372    314.26003    15414 
333000000   -3855.9205    3486.3229    12997.509    -898.4463    8240.6897    311.47902    15398 
334000000   -3809.1542    3557.4397    13027.118   -1024.9211     8391.515     312.1886    15406 
335000000   -3814.1899    3492.0358    12812.611   -965.64766    8271.8733    307.04803    15399 
336000000   -3889.8008    3451.6314    13090.511   -935.09972    8276.5318    313.70778    15401 
337000000   -3905.2113    3386.4187    12953.429   -1040.7251     8332.355    310.42268    15418 
338000000   -3774.2451    3510.0217    12825.022   -974.55263    8258.8195    307.34547    15400 
339000000    -3818.351    3460.9512    13023.135   -1070.0559    8349.3581    312.09314    15420 
340000000    -3854.603    3332.1716    12860.262   -1027.1383    8213.9129    308.18996    15406 
341000000   -3836.2695    3482.5436    12992.526   -966.78951    8285.6026    311.35961    15416 
342000000   -3731.0557    3619.0462    12891.524   -981.52915     8331.631    308.93915    15390 
343000000   -3839.1551    3391.0629    12767.151   -1017.1914    8247.4094    305.95861    15426 
344000000   -3803.9054     3569.533    12912.274   -928.73022    8302.1686    309.43642    15379 
345000000   -3820.3163    3481.5193    12917.115   -998.32351    8300.1592    309.55242    15430 
346000000   -3812.1508    3486.7441     13004.88   -958.56632    8257.4612    311.65566    15402 
347000000   -3814.2143    3292.5238    12988.174   -1076.1617    8182.8998    311.25531    15420 
348000000   -3827.4856    3454.8241    12926.993   -1039.0612    8321.3709    309.78915    15403 
349000000   -3837.9996    3347.3517    12936.196   -1068.4834    8253.8347    310.00969    15411 
350000000   -3881.4526     3225.586    13064.381   -1122.3471    8229.3858    313.08159    15433 
351000000   -3873.6951    3371.5844    12939.221   -1043.0463    8288.3259    310.08219    15413 
352000000   -3775.8971    3478.4977    13030.312   -1009.1171     8263.512    312.26513    15404 
353000000   -3896.0317    3387.6015    12785.382   -1048.3749     8332.008     306.3955    15430 
354000000   -3857.9651    3493.3858    13026.398    -953.8467    8305.1976    312.17134    15424 
355000000   -3848.8015    3421.1373    12841.528   -938.54512     8208.484    307.74102    15404 
356000000   -3815.0302    3346.2852    12909.841   -1028.3478    8189.6632     309.3781    15413 
357000000   -3772.8432    3291.4294    13038.825    -1020.098    8084.3706    312.46915    15427 
358000000   -3759.6096    3544.7125    12886.327   -956.33209    8260.6542     308.8146    15405 
359000000   -3863.9362    3497.2106    12923.106   -890.50336    8251.6501    309.69599    15394 
360000000   -3758.0371    3608.8899    12900.909   -947.91881    8314.8459    309.16405    15389 
361000000   -3816.9855    3291.7984    12970.719   -1128.6443    8237.4282    310.83702    15434 
362000000   -3850.4917    3370.9874    12902.931   -1049.0883    8270.5674     309.2125    15409 
363000000   -3837.6582    3557.6406    13119.744   -895.12433    8290.4232    314.40833    15397 
364000000   -3776.3646    3463.0132    13030.559   -928.85789    8168.2358    312.27107    15396 
365000000   -3788.1758     3496.411    12999.597   -947.31403    8231.9008    311.52908    15399 
366000000   -3811.4189    3366.5735    13016.326   -1126.5651    8304.5575    311.92996    15432 
367000000   -3811.2491    3325.6116    12893.998   -1084.2148    8221.0756    308.99845    15403 
368000000   -3898.8415    3378.4597    13087.673   -983.76132    8261.0625    313.63977    15412 
369000000   -3848.1668    3380.6195    12977.804   -1036.1013    8264.8876    311.00681    15415 
370000000   -3812.3002    3342.2178    12941.245   -1082.1521      8236.67     310.1307    15407 
371000000   -3879.9154     3131.002    12806.885   -1107.1473    8118.0647    306.91081    15425 
372000000   -3781.2075    3501.4006    12996.573   -1073.3496    8355.9577    311.45661    15418 
373000000    -3771.943    3619.8854    12800.189   -910.85003    8302.6785    306.75035    15401 
374000000   -3792.3173    3542.2705    13062.591   -996.33741    8330.9252     313.0387    15392 
375000000   -3721.0922    3541.9264    12822.611   -955.96861    8218.9872    307.28769    15411 
376000000   -3759.9385    3542.7324    12924.536   -929.36676    8232.0377    309.73026    15401 
377000000   -3788.7525    3460.6401    12932.909   -1021.4348    8270.8275    309.93093    15409 
378000000   -3802.1952    3319.0061    12902.125   -1009.9191    8131.1204     309.1932    15412 
379000000   -3922.5719    3373.8191    12909.937   -867.12538    8163.5164    309.38042    15413 
380000000   -3837.6961     3582.193     12958.58   -974.13298     8394.022     310.5461    15433 
381000000   -3839.4356    3321.2098    12978.512   -960.46821    8121.1137    311.02377    15406 
382000000   -3802.5497    3448.6287    12965.945   -1014.3714    8265.5499     310.7226    15403 
383000000   -3757.7574     3620.883    12917.284   -933.76073    8312.4011    309.55647    15391 
384000000   -3767.1856    3519.9954    12981.997   -965.55978    8252.7407    311.10728    15409 
385000000   -3754.0964    3534.3314    12883.664   -988.95297    8277.3808    308.75079    15433 
386000000   -3757.3846    3356.5322    12867.584   -1082.1677    8196.0844    308.36544    15399 
387000000   -3815.3416    3351.1139    12648.231    -1070.829    8237.2845    303.10876    15408 
388000000   -3823.4567    3582.6348     12972.13   -835.70879    8241.8004    310.87083    15376 
389000000   -3875.3382    3478.8705    12624.987   -957.25877    8311.4675    302.55172    15420 
390000000    -3695.262    3649.9669    13088.714   -932.20873    8277.4376    313.66472    15381 
391000000   -3772.3591    3330.7847     13063.15    -1097.898    8201.0418    313.05208    15410 
392000000   -3854.0534     3342.918    12950.359    -1016.056    8213.0273    310.34911    15394 
393000000   -3898.3585    3272.2503    12759.893   -1042.4589    8213.0678    305.78469    15410 
394000000   -3767.1561     3376.549    13069.651   -1111.4364    8255.1415    313.20788    15418 
395000000   -3719.8472    3591.6264    13025.331   -961.54551    8273.0191    312.14578    15399 
396000000   -3784.9387    3516.8791    12944.392   -917.36897    8219.1868    310.20611    15410 
397000000   -3772.8701    3427.9145    12943.639   -932.20589    8132.9905    310.18805    15385 
398000000   -3789.2225    3414.7234    12901.314   -1059.8815    8263.8274    309.17375    15417 
399000000   -3777.8556    3563.8185    12910.304    -967.4549     8309.129    309.38919    15376 
400000000   -3780.0625    3403.9651    13053.799   -1089.6848    8273.7124      312.828    15430 
401000000   -3819.8542     3499.411    13082.037   -960.11135    8279.3765     313.5047    15391 
402000000   -3831.4959    3374.8249    12754.131   -1002.1702    8208.4909    305.64659    15393 
403000000   -3785.0399    3457.6956     12826.89   -1058.2623    8300.9978    307.39023    15414 
404000000   -3808.7959    3459.0938    12884.879   -982.02043    8249.9101     308.7799    15415 
405000000   -3684.9349    3501.2131    12868.682   -1026.7079     8212.856    308.39175    15399 
406000000   -3688.3983    3583.9888      12871.1   -932.59047    8204.9776    308.44969    15383 
407000000   -3837.1226    3575.7234    12958.347   -954.17668    8367.0226    310.54054    15412 
408000000   -3855.3217    3338.6304    12976.609   -991.75745    8185.7096    310.97817    15414 
409000000   -3869.2595    3496.8225    12800.264    -998.8817    8364.9638    306.75215    15407 
410000000    -3832.867     3294.645    13102.172   -1089.9851     8217.497    313.98722    15413 
411000000   -3868.0576    3331.2334    12786.994    -1071.439      8270.73    306.43415    15425 
412000000   -3773.1872    3552.2053    12934.428   -1028.8685     8354.261    309.96731    15384 
413000000   -3846.7008    3360.4676    12875.053   -1018.4415    8225.6098    308.54443    15402 
414000000   -3914.3628     3271.913    12987.519   -1065.4365    8251.7122    311.23963    15424 
415000000   -3860.1492    3390.0251     12895.14   -1054.9855    8305.1598    309.02581    15416 
416000000   -3909.3545    3347.1065    13079.051   -1010.2072    8266.6682    313.43313    15412 
417000000   -3759.8741    3647.5184    12892.871   -945.91586    8353.3084    308.97142    15398 
418000000   -3806.1491    3403.2742    12917.766   -1067.0455    8276.4688    309.56802    15405 
419000000   -3813.5054    3274.0748    12948.545   -1039.7322    8127.3125    310.30564    15397 
420000000   -3746.8468    3378.2281    13033.503   -1136.5036    8261.5785    312.34161    15405 
421000000   -3809.6895    3351.7323    12968.865   -1070.5854    8232.0072    310.79258    15410 
422000000   -3701.0034    3573.0309    12986.041   -977.01701    8251.0513     311.2042    15398 
423000000   -3786.9951    3619.7753    12755.271   -935.76551    8342.5359    305.67392    15405 
424000000   -3860.5943     3310.828    12909.883   -1017.0935    8188.5158    309.37912    15408 
425000000    -3802.408     3403.527    12816.412   -981.62631    8187.5613    307.13912    15391 
426000000   -3854.8292    3541.6386    12969.681   -964.67751    8361.1454    310.81214    15403 
427000000   -3825.0741     3531.977    12898.213   -948.77436    8305.8255    309.09944    15382 
428000000   -3927.2063    3325.1147    12964.807   -1051.5264    8303.8475    310.69534    15422 
429000000   -3872.5729    3299.2041    12882.194   -1025.3257    8197.1027    308.71556    15396 
430000000   -3945.4053    3282.7762    12936.419   -959.29154    8187.4731    310.01503    15409 
431000000   -3877.5056    3338.9858     12808.05    -1000.369    8216.8604    306.93872    15428 
432000000   -3814.4921    3294.6046    12865.421   -1071.6686    8180.7654     308.3136    15420 
433000000   -3896.8983    3279.8859    12973.552    -1055.874    8232.6582    310.90491    15411 
434000000   -3805.1924    3364.9144    13087.061   -1022.9613    8193.0681     313.6251    15422 
435000000   -3857.1145      3306.95    12985.429   -1037.3389    8201.4034    311.18953    15413 
436000000   -3856.1219    3418.4531    12920.836   -891.39468    8165.9697    309.64161    15401 
437000000   -3783.0963    3600.9832    12929.693   -921.67638    8305.7559    309.85385    15403 
438000000   -3822.3255    3522.3478    12788.217   -959.36312    8304.0365    306.46344    15401 
439000000   -3805.9781    3540.0173    12921.907   -906.74834    8252.7437    309.66726    15395 
440000000   -3867.8774    3347.2355    12971.276   -1052.1917    8267.3047    310.85036    15432 
441000000    -3837.776    3346.0049    12910.475   -939.74088    8123.5218     309.3933    15387 
442000000   -3772.8204    3538.5428    13033.622   -965.56613    8276.9294    312.34447    15398 
443000000   -3865.5913    3501.0853    12919.778   -972.09093    8338.7676    309.61624    15409 
444000000   -3857.8725    3379.7601    12938.316   -890.35428    8127.9869    310.06051    15389 
445000000   -3778.8479    3462.3542    12881.281   -1053.1253    8294.3275    308.69369    15413 
446000000   -3831.0473    3477.2461    12883.486   -937.22262     8245.516    308.74651    15416 
447000000   -3841.2229    3396.8634     12912.23   -985.04843    8223.1347    309.43537    15407 
448000000   -3868.5244    3346.4388    12916.172   -1083.0977     8298.061    309.52982    15408 
449000000   -3830.9768    3503.2598    12830.241   -973.26631    8307.5029    307.47052    15415 
450000000   -3744.6996    3507.0562    12844.121   -990.18591    8241.9417    307.80317    15398 
451000000   -3711.4217    3584.5756    12920.527   -932.09289    8228.0902    309.63419    15381 
452000000   -3748.3046    3498.1817    12870.447   -1015.7645    8262.2508    308.43406    15408 
453000000   -3857.3304    3506.1199    13044.711   -940.03663    8303.4869     312.6102    15394 
454000000   -3821.3753    3420.8819    12947.365   -989.22802    8231.4852    310.27734    15413 
455000000   -3779.2663    3512.1141    13035.946   -976.65307    8268.0334    312.40016    15408 
456000000   -3803.1958    3561.8865    12842.204   -905.66265    8270.7449    307.75722    15386 
457000000    -3810.809    3495.9526    12919.303   -946.98068    8253.7423    309.60487    15391 
458000000   -3766.9032    3650.4521    12786.255   -885.25324    8302.6085    306.41644    15373 
459000000    -3843.228    3594.9562    13037.631   -892.52143    8330.7056    312.44053    15401 
460000000   -3792.1822    3557.8086    13173.044   -921.69926      8271.69    315.68563    15411 
461000000   -3807.3864    3524.8393    13082.523   -945.15546    8277.3811    313.51635    15401 
462000000   -3859.3627    3396.6581    12957.969   -1108.2468    8364.2676    310.53146    15428 
463000000   -3749.1243    3538.1002     12898.98    -991.7377    8278.9622    309.11782    15393 
464000000   -3898.4138    3346.5717    12914.866   -985.74908    8230.7345    309.49854    15402 
465000000   -3785.2893    3532.8936    12763.147   -1000.1074    8318.2903    305.86265    15397 
466000000   -3851.9475    3402.0005    12958.008   -946.04681    8199.9948    310.53241    15405 
467000000   -3744.0219    3514.4394    12980.762   -894.06444    8152.5258    311.07769    15379 
468000000   -3823.8454    3555.2442    12993.085   -910.52643    8289.6161    311.37301    15416 
469000000   -3758.7772    3563.0586    13062.639   -923.71687    8245.5527    313.03983    15404 
470000000   -3719.3318    3729.1437    12873.398   -979.84279    8428.3183    308.50477    15398 
471000000   -3854.9997    3469.4989    12972.744   -956.75856    8281.2572    310.88556    15401 
472000000   -3746.0392    3612.2668    12977.332   -945.19487    8303.5009    310.99549    15401 
473000000   -3736.9526    3619.5496    12968.135   -961.11528    8317.6175     310.7751    15404 
474000000   -3844.7695     3350.379    12907.694   -981.04306    8176.1916    309.32665    15419 
475000000   -3883.9273    3423.7697    12920.897   -1029.0468    8336.7438    309.64306    15394 
476000000   -3709.0418    3595.2405    12981.241   -940.90809    8245.1904    311.08918    15382 
477000000   -3772.7901    3727.6155    12962.176   -856.15713    8356.5628    310.63229    15386 
478000000   -3867.9619    3520.3551    12863.806    -960.6216    8348.9386    308.27491    15405 
479000000   -3780.7428    3405.2319    12900.583   -1001.8397    8187.8143    309.15625    15401 
480000000   -3872.7109    3552.1594    12884.917    -909.2973    8334.1676    308.78082    15414 
481000000   -3806.3395    3562.7257     13074.66   -993.66976     8362.735    313.32791    15422 
482000000   -3800.0562    3471.4087    12847.737   -981.49222    8252.9571     307.8898    15392 
483000000   -3796.0461    3572.5887    12889.694   -946.86375    8315.4986    308.89529    15376 
484000000   -3791.3696    3534.0114    12789.319    -965.2358    8290.6168    306.48985    15396 
485000000     -3851.83    3358.5211    13059.543   -982.08117    8192.4323    312.96564    15399 
486000000   -3821.7548    3395.9541    12955.204   -1038.7945    8256.5034    310.46522    15401 
487000000   -3792.0781    3214.2275    12877.275   -1089.0448    8095.3505    308.59767    15423 
488000000   -3814.4613    3435.4358    13054.987   -991.56338    8241.4604    312.85647    15399 
489000000   -3829.3206    3475.6652     12857.98   -1003.0764    8308.0622    308.13529    15401 
490000000    -3829.774     3465.925    12904.797   -864.95513    8160.6541    309.25722    15392 
491000000   -3824.2266     3502.328    13029.809   -896.81541      8223.37    312.25307    15386 
492000000   -3871.7231    3433.3549    12967.589    -1058.169    8363.2469    310.76202    15412 
493000000   -3780.9605    3436.8952    12931.122   -1081.7252    8299.5809    309.88811    15426 
494000000   -3753.7276    3596.5397    12892.053   -977.90887    8328.1762    308.95184    15395 
495000000   -3805.8521    3591.7058    13012.192   -883.82577    8281.3837     311.8309    15390 
496000000   -3758.6934    3467.5268    12929.034   -984.79508    8211.0152    309.83805    15414 
497000000   -3784.9809    3648.1392    12934.844   -798.89484    8232.0149    309.97729    15396 
498000000   -3755.6538    3553.5054     12737.11   -952.42161    8261.5808    305.23869    15395 
499000000   -3891.3374    3386.7865    12828.722   -919.64259    8197.7664    307.43414    15388 
500000000   -3830.3644     3452.393    13024.819   -1004.2207    8286.9781    312.13351    15405 
Loop time of 182445 on 28 procs for 500000000 steps with 14000 atoms

Performance: 5919.602 ns/day, 0.004 hours/ns, 2740.557 timesteps/s
99.5% CPU use with 28 MPI tasks x no OpenMP threads

MPI task timing breakdown:
Section |  min time  |  avg time  |  max time  |%varavg| %total
---------------------------------------------------------------
Pair    | 24749      | 29277      | 33240      |1341.6 | 16.05
Bond    | 5826       | 7800.3     | 11172      |2161.9 |  4.28
Neigh   | 63667      | 64508      | 65590      | 209.3 | 35.36
Comm    | 41650      | 50047      | 58211      |1850.9 | 27.43
Output  | 0.63149    | 0.6318     | 0.63236    |   0.0 |  0.00
Modify  | 23427      | 23668      | 24006      |  93.5 | 12.97
Other   |            | 7144       |            |       |  3.92

Nlocal:    500 ave 536 max 457 min
Histogram: 2 0 1 4 4 8 1 4 2 2
Nghost:    806.714 ave 1106 max 556 min
Histogram: 4 4 1 3 6 1 1 2 4 2
Neighs:    6829.61 ave 7979 max 5284 min
Histogram: 2 1 3 2 1 4 5 4 2 4

Total # of neighbors = 191229
Ave neighs/atom = 13.6592
Ave special neighs/atom = 8.78771
Neighbor list builds = 99925406
Dangerous builds = 0
System init for write_restart ...
Total wall time: 50:40:50
