LAMMPS (5 Jun 2019)
Reading restart file ...
  restart file = 5 Jun 2019, LAMMPS = 5 Jun 2019
  restoring atom style full from restart
  orthogonal box = (-420 -420 -420) to (420 420 420)
  2 by 2 by 7 MPI processor grid
  restoring pair style lj/cut from restart
  restoring bond style hybrid from restart
  restoring angle style cosine from restart
  14000 atoms
  15734 bonds
  13600 angles
Finding 1-2 1-3 1-4 neighbors ...
  special bond factors lj:   1          1          1         
  special bond factors coul: 0          0          0         
  3 = max # of 1-2 neighbors
  4 = max # of 1-3 neighbors
  8 = max # of 1-4 neighbors
  56 = max # of special neighbors
  special bonds CPU = 1.38233 secs
  read_restart CPU = 1.72804 secs
Finding 1-2 1-3 1-4 neighbors ...
  special bond factors lj:   0          1          1         
  special bond factors coul: 0          0          0         
  3 = max # of 1-2 neighbors
  4 = max # of 1-3 neighbors
  8 = max # of 1-4 neighbors
  42672 = # of 1-3 neighbors before angle trim
  27200 = # of 1-3 neighbors after angle trim
  56 = max # of special neighbors
  special bonds CPU = 0.00297714 secs
Unused restart file global fix info:
  fix style: colvars, fix ID: CV_Rg
Neighbor list info ...
  update every 1 steps, delay 1 steps, check yes
  max neighbors/atom: 2000, page size: 100000
  master list distance cutoff = 26.9
  ghost atom cutoff = 26.9
  binsize = 13.45, bins = 63 63 63
  1 neighbor lists, perpetual/occasional/extra = 1 0 0
  (1) pair lj/cut, perpetual
      attributes: half, newton on
      pair build: half/bin/newton
      stencil: half/bin/3d/newton
      bin: standard
Setting up Verlet run ...
  Unit style    : real
  Current step  : 250000000
  Time step     : 0.1
Per MPI rank memory allocation (min/avg/max) = 1.103 | 7.739 | 16.65 Mbytes
Step Temp E_pair E_mol TotEng Press 
250000000    306.64295   -6667.5495    6354.7416      12482.9   -3.1439606 
250010000    307.03378   -6536.4153    6690.2151    12965.816   -1.7483172 
Loop time of 5.52719 on 28 procs for 10000 steps with 14000 atoms

Performance: 15.632 ns/day, 1.535 hours/ns, 1809.238 timesteps/s
99.7% CPU use with 28 MPI tasks x no OpenMP threads

MPI task timing breakdown:
Section |  min time  |  avg time  |  max time  |%varavg| %total
---------------------------------------------------------------
Pair    | 0.0003541  | 0.86274    | 3.3895     | 120.7 | 15.61
Bond    | 0.00056003 | 0.12039    | 0.43604    |  42.9 |  2.18
Neigh   | 0.0057218  | 0.0062976  | 0.007161   |   0.7 |  0.11
Comm    | 0.0015127  | 1.4015     | 3.6658     | 110.3 | 25.36
Output  | 9.8922e-05 | 0.00044957 | 0.00081423 |   0.0 |  0.01
Modify  | 0.00098581 | 0.25997    | 0.93159    |  63.1 |  4.70
Other   |            | 2.876      |            |       | 52.03

Nlocal:    500 ave 1759 max 0 min
Histogram: 16 0 0 2 1 2 1 3 0 3
Nghost:    547.214 ave 1738 max 0 min
Histogram: 14 2 0 0 1 4 3 0 1 3
Neighs:    10695.4 ave 39098 max 0 min
Histogram: 16 0 1 1 3 0 2 2 0 3

Total # of neighbors = 299471
Ave neighs/atom = 21.3908
Ave special neighs/atom = 8.28729
Neighbor list builds = 2
Dangerous builds = 0
4000 atoms in group rxnSites
Neighbor list info ...
  update every 1 steps, delay 1 steps, check yes
  max neighbors/atom: 2000, page size: 100000
  master list distance cutoff = 26.9
  ghost atom cutoff = 26.9
  binsize = 13.45, bins = 63 63 63
  2 neighbor lists, perpetual/occasional/extra = 1 1 0
  (1) pair lj/cut, perpetual
      attributes: half, newton on
      pair build: half/bin/newton
      stencil: half/bin/3d/newton
      bin: standard
  (2) fix bond/create/random, occasional, copy from (1)
      attributes: half, newton on
      pair build: copy
      stencil: none
      bin: none
Setting up Verlet run ...
  Unit style    : real
  Current step  : 0
  Time step     : 30
Per MPI rank memory allocation (min/avg/max) = 17.81 | 18.31 | 19.33 Mbytes
Step E_pair PotEng KinEng E_bond E_angle Temp Bonds 
       0   -6536.4153    153.79985    12812.016   -2051.7747    8741.9899    307.03378    15734 
 1000000   -4506.2584    3007.6012    12956.769   -996.90065    8510.7603    310.50273    15449 
 2000000   -4167.9358     3177.479    12839.327   -1080.3807    8425.7955    307.68828    15430 
 3000000   -4004.7481    3214.4732    12926.759   -1213.2558    8432.4771    309.78355    15430 
 4000000   -3917.4891    3396.2949     12891.48   -1130.9985    8444.7825    308.93809    15427 
 5000000   -3851.4962    3505.9465    12832.377   -1056.7909    8414.2336    307.52173    15404 
 6000000    -3829.677    3525.2787     12940.75   -1045.0463     8400.002    310.11883    15410 
 7000000   -3771.9023    3785.3666    12876.156   -922.52773    8479.7967    308.57087    15391 
 8000000   -3782.2378    3623.7202    13035.582   -1109.9973    8515.9553    312.39144    15413 
 9000000   -3759.4421    3825.3691    12982.494   -932.80329    8517.6144    311.11921    15403 
10000000   -3750.8016    3723.8996    13001.791   -1108.5043    8583.2055    311.58165    15412 
11000000   -3738.9088    3785.2365    12896.641   -865.00775     8389.153    309.06178    15380 
12000000   -3718.3409    3685.3425    12886.834   -1101.3502    8505.0336    308.82675    15406 
13000000   -3696.3659     3794.146    12971.757   -988.69839    8479.2103    310.86189    15417 
14000000   -3681.9243    3858.1578    12807.826   -986.01769    8526.0997    306.93336    15393 
15000000   -3663.7374     3700.412    13000.057   -1051.7282    8415.8776     311.5401    15407 
16000000   -3668.6011     3894.748    12954.733   -908.75753    8472.1066    310.45392    15386 
17000000   -3674.4855     3733.479    12957.522   -1084.9825    8492.9471    310.52077    15384 
18000000   -3642.0632    3897.2346    12937.563    -911.9721    8451.2699    310.04244    15378 
19000000   -3612.8584    3982.7097    12956.853   -951.18284    8546.7509    310.50472    15373 
20000000   -3684.2965    3713.2608    12938.098   -1006.9741    8404.5314    310.05528    15398 
21000000   -3670.7798    3799.8655    12912.789   -1030.3496    8500.9949    309.44876    15398 
22000000   -3603.2813    3842.0469    12990.457   -959.82452    8405.1527    311.31004    15387 
23000000   -3631.7957    3831.5769    12949.046   -1030.4775      8493.85    310.31764    15402 
24000000   -3555.2324    3906.1233    12924.888   -940.70489    8402.0607     309.7387    15389 
25000000   -3640.8597    3795.3139    12888.806   -935.12761    8371.3013    308.87401    15400 
26000000   -3660.8416     3821.726    12885.061   -963.12267    8445.6903    308.78426    15400 
27000000   -3733.4841    3722.9893    13028.005   -943.79674    8400.2701    312.20985    15381 
28000000   -3657.2193    3765.1511    12890.002   -1019.6203    8441.9906    308.90266    15387 
29000000   -3673.8022    3851.8435    13026.616   -978.00358    8503.6492    312.17655    15387 
30000000   -3640.6171    3807.8061    12854.129   -1050.8279    8499.2511      308.043    15399 
31000000   -3621.7639    3835.9244    12948.201   -911.49224    8369.1805    310.29738    15382 
32000000   -3741.9495    3588.5483    13019.755   -979.32249    8309.8202    312.01215    15395 
33000000   -3699.0662    3758.4852    12967.125   -938.13611    8395.6875    310.75089    15391 
34000000    -3695.412    3627.1774    12907.862   -1083.8394    8406.4288    309.33068    15386 
35000000   -3630.5456    3545.2249    12935.987   -1108.8706    8284.6411    310.00469    15421 
36000000   -3596.1901    3684.4085    12908.155   -989.46972    8270.0683    309.33771    15392 
37000000   -3642.9543    3731.2176    12933.469   -991.35403    8365.5259    309.94433    15398 
38000000   -3596.2578    3741.0984    12920.878   -1005.2118     8342.568    309.64261    15396 
39000000   -3730.1344    3606.9079     12986.55   -1037.2984    8374.3407     311.2164    15403 
40000000   -3695.6621    3667.4163    13001.465   -1025.0359    8388.1143    311.57383    15411 
41000000   -3699.1447    3666.9797    12926.761   -941.03767    8307.1621    309.78359    15403 
42000000   -3698.9034    3839.0921    12832.576   -932.34679    8470.3423    307.52648    15386 
43000000   -3619.9044    3666.8268    12937.393   -1021.4669    8308.1981    310.03839    15391 
44000000   -3689.1509    3516.2779    13010.934   -1105.4495    8310.8783    311.80074    15393 
45000000   -3755.6669    3636.2787    12954.171   -927.71101    8319.6566    310.44044    15393 
46000000   -3685.6938     3695.155    12917.913   -900.03813    8280.8869    309.57155    15393 
47000000   -3688.8441    3788.7036    12978.655   -883.89388    8361.4415     311.0272    15374 
48000000   -3711.2284    3646.8293    12899.829   -1051.5352    8409.5929    309.13818    15405 
49000000   -3773.7559    3661.8257    12924.312   -940.75042     8376.332     309.7249    15386 
50000000    -3773.537    3744.7416    12886.821   -914.84825    8433.1269    308.82644    15395 
51000000   -3700.4125    3748.4129    12930.463   -923.38564     8372.211    309.87229    15387 
52000000   -3700.2374    3699.1482    12827.321   -931.74532     8331.131    307.40057    15404 
53000000   -3688.5481    3700.1943    12958.404   -1016.4287    8405.1711    310.54189    15385 
54000000   -3679.3097    3718.2675    12817.872   -1000.5848    8398.1619    307.17412    15387 
55000000    -3623.535    3706.2831    13044.927   -1000.9348    8330.7528    312.61539    15403 
56000000   -3540.5885    3982.9557    12894.077   -893.17996    8416.7241    309.00034    15394 
57000000   -3709.9233    3717.4847    12846.726   -909.25471    8336.6626     307.8656    15394 
58000000   -3744.8928    3672.3642    12860.386   -997.68472    8414.9417    308.19294    15409 
59000000   -3663.1672    3663.7829     12927.25   -1091.5761    8418.5262    309.79531    15427 
60000000    -3695.611    3579.8587    13038.477   -1057.7287    8333.1985    312.46082    15397 
61000000   -3638.8287    3943.0523    12956.492   -814.39191    8396.2729    310.49607    15383 
62000000   -3687.7707    3614.8456    12870.648    -929.7347     8232.351    308.43886    15403 
63000000   -3683.9105    3537.7914    12929.502   -995.25194    8216.9539    309.84927    15400 
64000000   -3659.7777    3585.8607    12958.401   -973.16188    8218.8002    310.54182    15385 
65000000   -3698.1956    3584.0815    12948.756    -988.2161    8270.4932    310.31069    15394 
66000000   -3693.5331    3714.6453    12936.622    -1005.935    8414.1134     310.0199    15402 
67000000   -3735.6015    3553.7504    12784.161   -1028.6816    8318.0336    306.36626    15394 
68000000   -3632.3949    3781.9454     12969.31   -854.31381    8268.6541    310.80324    15355 
69000000   -3623.1768    3752.5005    12903.762   -927.93659    8303.6138    309.23242    15368 
70000000   -3663.5439     3811.383     12898.51   -940.29377    8415.2207    309.10657    15388 
71000000   -3734.9604    3681.7888    12928.081   -986.46799    8403.2172    309.81522    15402 
72000000    -3724.313    3749.1473    13010.393   -864.71189    8338.1721    311.78778    15375 
73000000   -3739.6802    3631.2573    12837.687   -1027.4609    8398.3984    307.64897    15408 
74000000   -3656.5128    3774.6777    12862.716   -940.36313    8371.5536    308.24878    15373 
75000000   -3752.0922    3582.5251    12951.403   -1050.2409    8384.8582    310.37413    15414 
76000000   -3737.9644    3755.3742    12952.946   -935.32397    8428.6626    310.41111    15385 
77000000   -3733.6797    3748.4151    12971.819   -934.59329    8416.6881    310.86337    15390 
78000000   -3648.4904    3945.9111    12843.311   -827.34395    8421.7455    307.78375    15385 
79000000    -3628.937    3760.3764    12849.393   -929.06759     8318.381     307.9295    15393 
80000000   -3622.7298    3750.8259    12866.904   -1007.5925    8381.1482    308.34915    15407 
81000000   -3662.5021    3610.3072    13041.321   -1091.3944    8364.2037    312.52895    15414 
82000000    -3611.104    3787.8249    12920.245   -999.14438    8398.0733    309.62744    15396 
83000000   -3679.4813    3785.3353    12988.932   -890.62934     8355.446    311.27348    15391 
84000000   -3639.3027    3594.8214    12989.214   -1069.1983    8303.3225    311.28024    15408 
85000000   -3762.0795    3495.0497    12949.753   -1039.0497    8296.1789    310.33458    15413 
86000000   -3711.5282    3669.8086    13023.441   -933.12099    8314.4578    312.10046    15387 
87000000   -3651.4773    3672.7836    12797.896   -1052.7234    8376.9843    306.69541    15395 
88000000   -3695.7968    3778.1374    12843.365    -1031.088    8505.0223    307.78505    15393 
89000000   -3726.0405    3487.0695    12979.874   -1102.4711    8315.5811    311.05641    15424 
90000000   -3711.6155    3550.4227    12967.792   -1049.9827    8312.0208    310.76688    15395 
91000000    -3716.398    3846.7483    12944.085   -948.58274    8511.7291    310.19874    15403 
92000000   -3793.1807    3723.8197    12976.885   -916.10826    8433.1087    310.98478    15386 
93000000   -3779.2068    3688.4538    12941.621   -982.00656    8449.6672     310.1397    15419 
94000000   -3731.7223    3536.6851    13095.168   -1058.7094    8327.1168    313.81938    15417 
95000000   -3774.6231    3529.7195    12962.064   -1073.9912    8378.3338     310.6296    15420 
96000000   -3816.6708    3497.4847     12944.76   -897.69966    8211.8552    310.21494    15394 
97000000   -3780.8558      3599.72    12925.847   -1027.8461    8408.4219    309.76169    15412 
98000000   -3741.6809    3605.0095    12840.071   -1004.6205     8351.311    307.70611    15398 
99000000   -3734.0198     3460.369    12790.858   -1142.4604    8336.8492    306.52673    15409 
100000000   -3765.4547    3649.8186    13096.439    -979.0872    8394.3606    313.84983    15407 
101000000    -3824.672    3545.0283    12957.119   -1046.0827    8415.7831    310.51111    15403 
102000000   -3749.0502    3627.7092    12943.937    -969.5123    8346.2716    310.19519    15406 
103000000   -3727.2455    3518.2695    12962.213   -1065.7295    8311.2445    310.63317    15402 
104000000   -3640.4541    3573.4877    13061.252   -1040.7777    8254.7194    313.00659    15398 
105000000   -3676.7309    3782.0955    12912.716    -950.6589    8409.4853      309.447    15386 
106000000   -3727.2828     3726.834    12908.965   -964.34601    8418.4628    309.35712    15391 
107000000   -3670.5466    3690.3237    12918.059   -976.57097    8337.4412    309.57504    15403 
108000000   -3588.9378    3772.3856    12900.671   -986.31894    8347.6423    309.15836    15393 
109000000   -3659.6751    3857.0754     12912.83   -907.99167    8424.7422    309.44975    15408 
110000000   -3711.5496    3625.6768    12992.605   -996.03703    8333.2635     311.3615    15396 
111000000   -3636.9113    3622.4749    12872.832   -1089.7227    8349.1089    308.49119    15404 
112000000   -3676.1665    3656.5334     13009.03    -996.3376    8329.0375    311.75512    15391 
113000000   -3760.3372    3534.4724     13028.43   -1004.7389    8299.5485    312.22004    15408 
114000000   -3745.7705    3677.4265     12975.15   -961.07897    8384.2759    310.94319    15400 
115000000   -3662.2711    3578.1921    12967.149   -979.96302    8220.4263    310.75148    15408 
116000000   -3685.2691    3726.1983    12801.671   -960.50178    8371.9692    306.78587    15400 
117000000   -3720.8556    3683.5596    12820.398    -889.9921    8294.4072    307.23465    15383 
118000000   -3639.2863    3506.5079    12942.297   -1126.4079    8272.2021     310.1559    15421 
119000000   -3645.5814    3645.0865    13013.632   -1027.1972    8317.8652    311.86542    15384 
120000000   -3722.7987    3522.4279     12703.17   -1062.6995    8307.9261    304.42533    15405 
121000000   -3767.9938    3513.6219    12926.556   -1097.3621    8378.9779    309.77867    15421 
122000000   -3725.6585    3519.3372    12861.438   -1072.0895    8317.0852    308.21815    15420 
123000000    -3865.336     3574.842    12860.431   -999.42039    8439.5984    308.19403    15409 
124000000   -3791.8507     3461.175    12962.553   -1073.1383     8326.164    310.64133    15399 
125000000   -3782.0389    3511.1635    12765.104   -1044.7062    8337.9087    305.90955    15392 
126000000   -3785.8814     3499.884    12823.656   -1081.3761    8367.1415    307.31272    15432 
127000000   -3700.9332    3508.5022    12907.543   -1164.9008    8374.3363    309.32304    15421 
128000000     -3750.19    3461.4283    13066.434   -1102.1671    8313.7855    313.13079    15401 
129000000   -3701.5056    3438.0312    12840.247   -1098.2981    8237.8348    307.71031    15402 
130000000   -3690.7852    3536.3791    12933.103   -1130.6009    8357.7652    309.93557    15414 
131000000   -3726.9528    3786.4007    13007.703   -933.04469    8446.3982    311.72332    15383 
132000000   -3689.9584    3671.1808    12872.648   -1033.7803    8394.9194    308.48681    15401 
133000000   -3737.3817    3716.8118    12808.429   -944.72936    8398.9229    306.94781    15392 
134000000   -3682.1874    3441.1337    12974.125   -1093.4584    8216.7795    310.91864    15407 
135000000   -3643.3234    3770.0385    12870.211   -992.74146    8406.1034    308.42839    15392 
136000000   -3658.6639    4010.3434    12883.943   -744.60846    8413.6157    308.75747    15368 
137000000   -3716.3288    3649.8901    12977.969   -935.14659    8301.3654    311.01075    15391 
138000000   -3764.7917    3669.4429    13051.541   -957.75315    8391.9877    312.77388    15412 
139000000   -3771.4397    3458.9349    12944.204   -1114.3821    8344.7566    310.20159    15411 
140000000   -3829.2717    3576.4526    12910.664   -935.16195    8340.8863    309.39782    15420 
141000000   -3771.2783    3632.2496    12951.878   -1023.4521      8426.98     310.3855    15401 
142000000   -3697.4162    3641.6896    12944.772   -1037.2142    8376.3201    310.21522    15383 
143000000   -3659.2321     3649.373    12826.571   -920.73103    8229.3362    307.38259    15380 
144000000   -3711.6403    3568.3348    13005.751   -983.81497      8263.79    311.67654    15390 
145000000   -3722.4084    3601.6498    12780.683   -1013.7658    8337.8241     306.2829    15398 
146000000   -3721.3873    3587.1521    12993.204   -1050.0232    8358.5626    311.37586    15383 
147000000   -3687.7672    3671.9588    12821.127   -920.62112    8280.3472    307.25213    15367 
148000000   -3797.5312    3350.5415    12929.321   -1027.2997    8175.3724    309.84493    15413 
149000000   -3717.6078    3536.5472    12956.356   -1069.1101    8323.2652    310.49282    15406 
150000000   -3718.7822    3585.3228    13043.879    -1086.341     8390.446    312.59025    15406 
151000000   -3640.9825    3574.0678    12994.691   -1023.7717     8238.822    311.41149    15381 
152000000   -3706.7865    3417.5813     12951.43   -1165.2788    8289.6466    310.37477    15425 
153000000   -3662.0543    3617.4561    12895.295   -1070.7244    8350.2347    309.02951    15390 
154000000   -3680.6314    3745.0445    12966.466   -1027.3093    8452.9853    310.73511    15401 
155000000   -3658.9265     3694.549    12998.004    -936.0209    8289.4964     311.4909    15401 
156000000   -3693.7012    3527.8914    12888.068   -1062.0144     8283.607    308.85634    15412 
157000000   -3701.5579    3694.2063    12782.397   -918.47811    8314.2423    306.32396    15383 
158000000   -3690.6025    3525.3039     12861.21   -1018.9803    8234.8867     308.2127    15404 
159000000   -3757.8065    3446.9884    12730.821   -1058.8735    8263.6685    305.08797    15411 
160000000   -3712.0872     3528.958    13009.632   -1070.2639     8311.309    311.76955    15408 
161000000   -3782.1053    3803.9618    12944.238   -887.61186     8473.679    310.20241    15402 
162000000   -3607.8484    3798.0771    12964.946   -894.67429    8300.5998    310.69867    15391 
163000000   -3651.0045    3820.3401    12939.007   -932.17096    8403.5156    310.07706    15383 
164000000   -3626.0297    3644.2952    13066.657   -989.57712     8259.902    313.13613    15405 
165000000   -3713.3843    3558.4495    12873.837   -956.07231     8227.906     308.5153    15398 
166000000   -3741.2023    3480.3168    12962.733   -1047.3099     8268.829    310.64565    15397 
167000000   -3813.9544    3438.2037    12961.705   -1024.5581    8276.7163    310.62099    15405 
168000000   -3749.6047    3548.7837    13041.834   -969.26329    8267.6517    312.54125    15401 
169000000    -3795.855    3652.2796    13048.296   -833.98169    8282.1163    312.69611    15387 
170000000   -3827.9324     3369.005    12882.499    -1072.085    8269.0224    308.72287    15416 
171000000   -3749.7759    3393.8108    13052.549   -1059.5896    8203.1763    312.79804    15396 
172000000   -3733.0784    3526.5867    13069.212   -1022.2608    8281.9259    313.19736    15404 
173000000    -3763.492    3440.0684    12996.298   -1034.2144    8237.7748       311.45    15408 
174000000   -3796.0083    3392.8057    12868.983   -1062.9331     8251.747    308.39896    15410 
175000000   -3781.5847     3459.678    12812.952    -1070.133    8311.3957    307.05621    15417 
176000000   -3783.4693     3670.623    13024.569     -861.164    8315.2564    312.12751    15377 
177000000   -3722.6979    3548.4044    12974.077    -1068.512    8339.6143     310.9175    15405 
178000000   -3806.8416    3352.7271    12879.293   -1082.5172    8242.0859    308.64603    15431 
179000000   -3741.3002    3492.7753    13029.221   -1050.3931    8284.4686    312.23898    15423 
180000000   -3757.6675    3494.7333    12764.133   -986.17676    8238.5776    305.88628    15413 
181000000   -3680.3387    3365.8392    12938.429   -1081.3785    8127.5564     310.0632    15410 
182000000   -3746.0401    3552.5495    13005.934   -965.01148    8263.6011    311.68094    15398 
183000000   -3707.9358    3345.1999    13113.817   -1171.6413    8224.7771    314.26629    15413 
184000000    -3735.956    3532.3069    13009.381   -1079.3166    8347.5795    311.76354    15422 
185000000    -3796.453    3286.2372    13139.039    -1091.577    8174.2672    314.87073    15402 
186000000    -3892.855    3359.3652    12940.927   -1066.7912    8319.0115    310.12306    15434 
187000000   -3870.7537    3260.6883    13018.926   -1139.1139    8270.5558    311.99228    15419 
188000000   -3897.7798    3467.8655    12960.221   -940.01397    8305.6593    310.58543    15413 
189000000   -3935.0461    3233.7857    12957.989   -1106.4575    8275.2893    310.53195    15429 
190000000   -3851.0506    3546.9832    12940.709   -815.61856    8213.6523    310.11785    15391 
191000000   -3895.2501    3332.3623    12881.502   -977.84761    8205.4599    308.69898    15398 
192000000   -3827.5622     3278.382    12985.685   -1103.2128     8209.157    311.19566    15429 
193000000   -3768.7456    3419.9222    12864.703   -1067.5794    8256.2472    308.29641    15404 
194000000   -3789.8723    3418.4257     12929.89   -1048.3163    8256.6143    309.85858    15417 
195000000    -3831.133    3384.1298    12959.189   -1108.8065    8324.0692    310.56071    15426 
196000000   -3793.1896    3403.4965    12958.908   -1068.0672    8264.7533    310.55398    15431 
197000000   -3839.4865    3373.2274      12866.9   -1067.6344    8280.3484    308.34906    15418 
198000000   -3715.1842    3444.6321    12919.764   -1070.9476    8230.7639    309.61592    15411 
199000000    -3762.475    3401.2734    12926.531   -1106.6144    8270.3628    309.77807    15417 
200000000   -3806.5869    3312.0683    12983.695   -1058.1167    8176.7719    311.14799    15425 
201000000    -3777.914    3423.4965    13004.715    -1072.046    8273.4564    311.65172    15408 
202000000    -3777.751    3610.2455    12958.905   -951.78454    8339.7811    310.55389    15393 
203000000   -3791.5966    3275.6186    12854.343   -1167.1105    8234.3257    308.04813    15422 
204000000   -3816.3192    3419.6291    12915.922   -1094.5235    8330.4718    309.52384    15416 
205000000    -3833.295     3492.148    12913.866   -973.33641    8298.7795    309.47457    15424 
206000000   -3860.5678    3427.2732    12918.974   -999.12325    8286.9642    309.59698    15391 
207000000   -3836.7271    3314.2985    12934.302    -1094.287    8245.3125    309.96429    15405 
208000000   -3825.8966    3424.3315     13096.55   -1035.2008     8285.429    313.85249    15409 
209000000   -3844.8833    3387.7819    12748.337   -1055.8166    8288.4817    305.50774    15409 
210000000   -3878.5864    3279.3578    12921.546   -1038.4252    8196.3694    309.65862    15414 
211000000   -3876.6502    3486.4309    12949.146   -1019.1178     8382.199    310.32003    15404 
212000000   -3792.4085     3478.491    12913.865   -1012.2108    8283.1103    309.47453    15411 
213000000   -3859.9367    3428.0433    12783.767   -1018.4423    8306.4222    306.35681    15395 
214000000   -3812.4377    3494.1332    13092.011   -875.41533    8181.9862    313.74372    15403 
215000000   -3794.9531    3339.1876    12888.339   -1084.6346    8218.7754    308.86283    15415 
216000000   -3889.1926     3559.064    12803.514    -1054.377    8502.6335    306.83003    15405 
217000000   -3911.8013    3392.9663    13011.777    -1052.546    8357.3137    311.82095    15417 
218000000   -3759.3083      3445.51    12755.552   -1064.2811    8269.0993    305.68064    15418 
219000000   -3790.8545    3607.7995    12955.994   -912.70842    8311.3624    310.48414    15410 
220000000   -3781.4685    3622.3063    13021.677   -894.46009    8298.2349     312.0582    15410 
221000000   -3780.0768    3399.6354    12783.146   -978.86353    8158.5757    306.34192    15400 
222000000   -3851.2397    3466.1018    13076.192   -1035.3774    8352.7189    313.36463    15405 
223000000   -3770.1794     3509.452    12869.583   -1005.1438    8284.7752    308.41334    15421 
224000000    -3817.427    3444.5561    13032.132   -993.09836    8255.0815    312.30874    15404 
225000000   -3871.1355    3380.6674    12930.162   -1021.6625    8273.4653     309.8651    15413 
226000000   -3878.2401    3398.6569    13029.774     -1058.64    8335.5371    312.25225    15411 
227000000   -3845.5932    3213.3646    13034.881   -1158.8661    8217.8239    312.37462    15423 
228000000   -3864.9064    3299.8398    13036.384   -1040.9539       8205.7    312.41064    15420 
229000000   -3821.2259    3462.2122     12838.77   -1032.9744    8316.4126    307.67491    15407 
230000000   -3792.3984    3441.6647    12883.153   -979.44447    8213.5076    308.73855    15415 
231000000   -3805.6855    3554.6203    12886.899   -906.44956    8266.7553     308.8283    15394 
232000000   -3715.1982    3607.2054    13068.833   -915.84764    8238.2512    313.18827    15390 
233000000   -3729.9236     3530.885    12955.401   -1015.7594    8276.5681    310.46994    15409 
234000000   -3721.8075     3415.658    12946.864   -1085.1669    8222.6324    310.26535    15398 
235000000   -3791.1965    3552.7501    13021.891   -1009.3716    8353.3182    312.06334    15408 
236000000   -3779.9201    3509.6412     13027.91   -1000.3849    8289.9462    312.20757    15417 
237000000   -3805.3057    3417.4925    13117.014   -1031.9352    8254.7334    314.34292    15408 
238000000   -3753.1496    3485.1934    12826.831   -1000.2152    8238.5582    307.38882    15406 
239000000   -3734.7685    3428.4912    12899.578   -1069.4819    8232.7417    309.13217    15420 
240000000   -3752.8618    3391.2852      12928.4   -969.56074    8113.7078    309.82287    15391 
241000000   -3797.3433    3471.3898    13009.054   -1029.8652    8298.5983    311.75569    15397 
242000000   -3767.5429    3343.7579    12889.841   -1094.1752    8205.4759    308.89881    15424 
243000000   -3816.6117    3320.0217    13060.353   -1107.8305    8244.4638    312.98505    15389 
244000000   -3788.2073    3534.7829    12890.794   -976.20427    8299.1945    308.92165    15393 
245000000   -3814.8074    3413.4149     12780.27   -1048.0455    8276.2678      306.273    15426 
246000000   -3760.8396    3421.1286    12874.936   -961.91321    8143.8814    308.54163    15404 
247000000    -3873.521    3359.8139    12958.608   -1119.9477    8353.2826     310.5468    15421 
248000000   -3750.3078    3435.3666    13114.839   -1042.4437    8228.1181    314.29078    15409 
249000000   -3754.6857    3437.9037    13049.733   -1085.4711    8278.0605    312.73055    15412 
250000000   -3713.5062      3456.68     12556.25   -968.83593    8139.0221    300.90447    15389 
251000000   -3821.7447    3432.2649    12973.251   -955.62963    8209.6392    310.89771    15394 
252000000   -3859.9842    3392.2519    12855.384   -987.28091    8239.5171    308.07308    15399 
253000000   -3743.4448    3623.3882    12868.388   -849.24692    8216.0799     308.3847    15412 
254000000   -3792.7394     3186.734    13027.104   -1125.7285    8105.2019    312.18826    15431 
255000000   -3822.3962    3370.8902    13132.373   -1048.2454    8241.5319    314.71098    15410 
256000000   -3858.1975    3307.8465    12904.535   -1114.9806    8281.0247    309.25096    15408 
257000000   -3881.2235     3399.296    12823.571   -1011.9489    8292.4683    307.31069    15393 
258000000   -3885.9998     3409.288    12854.402   -1044.5539    8339.8417    308.04953    15421 
259000000   -3890.3519    3548.3575    13018.942   -942.15062      8380.86    311.99267    15382 
260000000   -3866.1937    3268.5189    12785.273   -1076.4804     8211.193    306.39289    15429 
261000000    -3843.592    3219.5054    12989.637   -1074.7631    8137.8606    311.29037    15400 
262000000   -3729.4725    3626.5418    12911.404   -927.59479    8283.6092    309.41556    15388 
263000000   -3721.1441    3591.5739    12828.156   -984.17627    8296.8943    307.42056    15411 
264000000   -3758.1213    3454.9009    12957.751   -1016.2884    8229.3105    310.52624    15400 
265000000   -3807.4368    3497.0725    12869.717   -897.55083    8202.0601    308.41656    15392 
266000000   -3785.2033    3451.9224    12896.102   -1130.0672    8367.1929    309.04887    15416 
267000000   -3709.2952    3318.2575    12927.142   -1098.1068    8125.6595    309.79272    15427 
268000000   -3707.7323    3602.3446    12774.079    -963.8455    8273.9224    306.12464    15393 
269000000   -3751.2352    3519.2811    12983.952   -954.68286    8225.1991    311.15414    15412 
270000000   -3757.9682    3553.6225    13060.812   -991.68106    8303.2718    312.99605    15405 
271000000   -3759.6726    3634.1989    13013.354   -943.39821    8337.2697    311.85875    15389 
272000000   -3736.4128    3496.3567    12863.383   -1016.7305    8249.4999    308.26477    15397 
273000000   -3830.0534    3311.9403    12938.691   -967.85332     8109.847    310.06949    15403 
274000000   -3828.8294    3202.7602     13019.28   -1092.8756    8124.4652    312.00077    15399 
275000000   -3871.2965    3312.1079    12799.582     -1070.42    8253.8244     306.7358    15411 
276000000   -3816.1315    3341.8979    13093.712   -1020.2978    8178.3272    313.78449    15418 
277000000   -3912.7087    3448.6974    12801.321   -964.46676    8325.8729    306.77749    15397 
278000000   -3829.9467    3081.0314    12943.096   -1256.4918    8167.4699    310.17504    15439 
279000000   -3829.9303    3361.4329    12801.573   -1034.1879    8225.5511    306.78351    15394 
280000000   -3766.1109    3490.9992    12981.151   -1064.3755    8321.4856    311.08702    15420 
281000000   -3848.2948    3246.2639    12907.605   -1186.9181    8281.4767    309.32452    15431 
282000000   -3820.7012    3546.7907    12909.287   -1016.1039    8383.5958    309.36482    15395 
283000000   -3817.8752    3483.2992     13140.03   -1019.4499    8320.6243    314.89446    15393 
284000000   -3706.3142    3442.0887    12935.874   -1114.3433    8262.7462    310.00197    15410 
285000000   -3785.0372    3550.8028    12886.771   -1005.0132    8340.8532    308.82525    15416 
286000000   -3769.3037    3415.4767    12766.307   -1078.4934    8263.2737    305.93838    15422 
287000000   -3760.1947    3507.6542    12988.749   -1021.2872    8289.1361    311.26909    15410 
288000000   -3754.8988    3377.0321    12930.021   -1090.6056    8222.5365    309.86171    15419 
289000000   -3768.8914    3345.8589    12787.047   -1080.7023    8195.4525    306.43541    15405 
290000000   -3791.3258    3580.8206    12922.818   -941.02344    8313.1698    309.68911    15402 
291000000    -3793.206    3477.0995    12913.732    -1050.812    8321.1176    309.47136    15410 
292000000   -3803.1777     3324.264    12794.084   -1124.4367    8251.8783    306.60405    15407 
293000000   -3801.9059    3493.7748    13068.671   -986.45681    8282.1375    313.18439    15405 
294000000   -3833.8357    3403.0307    13014.583   -1038.5433    8275.4097    311.88821    15400 
295000000   -3833.3757    3406.6984    12976.122   -1045.8217    8285.8957    310.96649    15409 
296000000   -3878.9308    3363.3098    12979.413   -1030.5098    8272.7505    311.04537    15423 
297000000   -3855.5415    3354.5106    12996.195   -931.43697    8141.4891    311.44753    15396 
298000000   -3911.9784    3460.1432    12880.191   -975.88887    8348.0105    308.66755    15392 
299000000   -3915.1796    3301.6323    13042.975   -1002.1087    8218.9205    312.56859    15411 
300000000    -3786.339    3504.0371    12832.753   -973.54003    8263.9161    307.53072    15397 
301000000   -3871.0463    3288.8458    12806.447   -1135.6688    8295.5609    306.90032    15401 
302000000    -3839.335    3396.8234    12864.209    -972.5818    8208.7402    308.28455    15385 
303000000   -3750.3386    3481.3257    12861.835   -1008.0408    8239.7051    308.22767    15404 
304000000   -3788.4039    3444.4448    12829.007   -1041.1131    8273.9619    307.44096    15399 
305000000   -3780.6587    3440.1548    12876.462   -1021.3576     8242.171    308.57819    15398 
306000000   -3776.7901    3495.1223    12896.179   -1097.3786     8369.291    309.05071    15396 
307000000   -3690.8975    3519.4706    12944.139   -1049.4777    8259.8458    310.20003    15396 
308000000   -3717.0923    3504.8633    12886.356   -988.73281    8210.6884     308.8153    15405 
309000000   -3679.8958    3508.7764     12998.06   -1035.6048     8224.277    311.49223    15418 
310000000   -3759.6671    3394.5334    12918.496    -1083.071    8237.2715    309.58551    15415 
311000000    -3814.055    3377.4948    12896.029   -1122.2987    8313.8485     309.0471    15411 
312000000   -3748.8925    3519.8524    12963.623   -985.76599    8254.5109    310.66697    15423 
313000000   -3756.3918     3503.904     12872.16   -1024.4196    8284.7154    308.47509    15395 
314000000   -3690.4398    3538.6746    12936.097   -1044.2667    8273.3811    310.00732    15419 
315000000   -3725.7922    3640.7308    12898.304   -942.26345    8308.7865    309.10163    15397 
316000000   -3806.6964    3404.8302     12849.01   -1064.1324     8275.659    307.92033    15416 
317000000   -3741.1715    3333.0263    12937.184   -1100.3888    8174.5866    310.03336    15405 
318000000   -3742.1588    3556.1289    12907.812   -1005.5794    8303.8672    309.32948    15392 
319000000   -3779.0466    3546.0047     12887.28   -953.36749    8278.4188    308.83743    15406 
320000000   -3774.1395    3415.4204    12992.092    -1033.302    8222.8619    311.34921    15402 
321000000   -3766.5669    3384.9984    13061.313   -1051.1061    8202.6714    313.00806    15387 
322000000   -3736.2343    3489.4198    13004.049   -989.70868    8215.3628    311.63575    15403 
323000000   -3767.3721    3596.8406    12960.327   -897.77138    8261.9841    310.58798    15401 
324000000   -3757.4369    3276.9575    12889.305   -1039.2391    8073.6334    308.88598    15401 
325000000   -3804.7288    3332.2044    12959.692   -1130.0553    8266.9886    310.57277    15417 
326000000   -3761.7701    3382.3955    12983.508   -1079.9288    8224.0944     311.1435    15412 
327000000   -3792.9839    3502.5548    12930.054   -1065.5091    8361.0478    309.86251    15401 
328000000   -3804.6809    3314.6376    12941.281   -1141.5341    8260.8526    310.13154    15414 
329000000   -3770.0533    3482.1173    12909.489   -1052.8258    8304.9964    309.36968    15401 
330000000    -3789.857    3498.3338     12857.95    -1036.437    8324.6278    308.13457    15403 
331000000   -3792.1201    3437.2805    13138.008   -1087.9441    8317.3447    314.84602    15398 
332000000   -3849.0633     3267.944    13062.543   -1071.6858    8188.6932    313.03755    15414 
333000000   -3814.2088    3537.8203    12910.705   -1008.1526    8360.1818    309.39882    15399 
334000000     -3760.46    3443.4805     12915.11   -939.50185    8143.4424    309.50438    15398 
335000000   -3794.1388    3520.5116    13013.636   -979.44538    8294.0959    311.86552    15400 
336000000   -3771.3428    3470.9751    12973.539   -982.69055    8225.0084    310.90459    15406 
337000000   -3846.5575    3315.7827    12933.595   -993.63747    8155.9777    309.94736    15398 
338000000   -3833.4099    3253.3266    12844.286   -1133.1379    8219.8743    307.80711    15422 
339000000   -3777.7361    3423.3873     12967.95    -953.0191    8154.1425    310.77066    15407 
340000000   -3731.5942    3315.8915    13041.369   -1043.0662    8090.5519    312.53011    15407 
341000000   -3788.0819    3333.7644    13063.274   -1016.3236    8138.1699    313.05505    15413 
342000000   -3833.0558    3412.9726    12993.807   -982.62122    8228.6497     311.3903    15383 
343000000   -3758.8123     3561.127    12795.849   -974.08671     8294.026    306.64633    15385 
344000000   -3758.8489    3314.2427    12916.381   -1069.1069    8142.1985    309.53484    15416 
345000000   -3799.0874    3292.4298    13001.502   -1063.2903    8154.8075    311.57472    15389 
346000000   -3838.4736    3242.2509    12853.107   -1060.8377    8141.5622     308.0185    15426 
347000000   -3796.9571    3602.3161    13008.796   -913.15177     8312.425    311.74952    15376 
348000000   -3827.2246    3306.9364    12968.719   -1044.2153    8178.3763    310.78908    15404 
349000000   -3770.5397    3499.3445     12856.15   -922.42593    8192.3101    308.09143    15389 
350000000    -3748.667    3505.0456    13012.564   -1076.8986    8330.6113    311.83981    15425 
351000000   -3768.2673    3400.6345    13091.931   -1147.0483    8315.9501    313.74182    15435 
352000000   -3783.4355    3464.5961    13053.157   -968.81241    8216.8439    312.81261    15399 
353000000   -3776.4208    3486.4664    13041.514   -980.85556    8243.7428    312.53359    15421 
354000000   -3769.8165    3423.4565    13048.178   -1050.6752    8243.9481    312.69329    15412 
355000000    -3765.052    3496.0995    12984.104   -1121.2885    8382.4399    311.15778    15429 
356000000   -3797.0116    3648.5295    12829.119     -953.425    8398.9661    307.44364    15398 
357000000    -3847.274    3431.7246    13036.016   -1016.9606    8295.9591    312.40183    15399 
358000000   -3738.7418    3577.9004    12955.517   -1002.8511    8319.4933    310.47272    15404 
359000000   -3776.4844    3517.5058    12919.148   -1031.7338     8325.724    309.60115    15408 
360000000   -3743.6369    3475.0417    12869.853   -1042.8114      8261.49    308.41982    15405 
361000000   -3783.5848    3548.6139     12899.82   -915.74929    8247.9479    309.13795    15394 
362000000   -3817.4643    3527.8419    12975.755   -1023.1381    8368.4442    310.95771    15396 
363000000   -3806.1446    3386.7866    12909.546   -1055.2728     8248.204    309.37103    15401 
364000000   -3786.8925    3652.7778    12812.045   -1002.0161    8441.6863    307.03448    15406 
365000000   -3818.8026    3387.7119    13034.755   -1044.4453    8250.9598    312.37161    15428 
366000000   -3720.4861    3385.9473    12933.217   -1137.6652    8244.0985     309.9383    15433 
367000000   -3775.6128    3249.9623    12956.768   -1120.1489     8145.724    310.50269    15409 
368000000   -3730.2729    3348.4298    12888.531   -1106.6032     8185.306    308.86742    15403 
369000000   -3735.7349    3420.3076    12909.296   -1039.6005     8195.643    309.36504    15408 
370000000   -3695.9406    3528.7521    13012.915   -1000.8864    8225.5792    311.84822    15389 
371000000   -3700.5265    3615.4853    12912.845   -939.14509     8255.157     309.4501    15386 
372000000   -3710.0582    3391.1218    12896.536   -971.14487    8072.3249    309.05927    15376 
373000000   -3746.2294    3558.7915    12963.204   -966.85633    8271.8772    310.65693    15401 
374000000    -3714.799    3464.3454    12798.518   -1065.1706     8244.315     306.7103    15414 
375000000   -3751.7852    3565.7356    13076.618   -976.52896    8294.0497    313.37484    15384 
376000000   -3750.7563    3540.8172    12925.915   -1037.0549    8328.6283    309.76331    15403 
377000000      -3787.6    3487.5463    12923.254    -952.3728    8227.5192    309.69953    15405 
378000000   -3767.0605    3495.1819    12943.562    -1085.365    8347.6074    310.18622    15426 
379000000   -3776.3024    3352.3905    12930.553   -1133.1207    8261.8136    309.87445    15410 
380000000   -3729.7075    3461.3741    13016.958   -1048.7646    8239.8462    311.94513    15408 
381000000   -3785.6672    3552.7844    12929.237   -990.11117    8328.5628    309.84293    15423 
382000000   -3762.8305    3464.3599    12887.102   -1042.2854    8269.4759    308.83318    15428 
383000000   -3777.9108    3429.2285    12832.986   -976.62533    8183.7646    307.53631    15403 
384000000   -3787.1082     3355.851    12921.198   -1114.3079    8257.2671    309.65028    15420 
385000000   -3811.3603    3464.1926    12836.356   -1003.0932    8278.6462    307.61708    15414 
386000000   -3718.2876    3495.5344     12877.73   -1081.1887    8295.0107    308.60858    15410 
387000000     -3717.96    3559.1581    13019.236   -1040.8236    8317.9417    311.99971    15406 
388000000   -3726.1962    3500.6598     12921.04    -1007.257     8234.113    309.64649    15404 
389000000   -3806.8347    3515.3856    12963.631   -938.00062    8260.2209    310.66716    15389 
390000000   -3799.6848    3405.7233    12933.261   -1064.6857    8270.0938    309.93937    15412 
391000000   -3792.5205    3277.6628     13024.81   -1206.4819    8276.6652    312.13329    15421 
392000000   -3760.0088    3585.0495    12732.154   -922.42953    8267.4878    305.11993    15383 
393000000   -3861.0094    3468.5522    12756.338   -1061.5792    8391.1408    305.69949    15415 
394000000   -3750.8434     3521.985    12781.285   -1039.7452    8312.5735    306.29733    15401 
395000000   -3827.2984     3392.582    12913.297    -1027.731    8247.6114    309.46092    15402 
396000000   -3763.8642    3415.7714    12866.347   -993.71181    8173.3474     308.3358    15395 
397000000   -3893.2441    3411.1736    12926.496   -1027.2484    8331.6661    309.77723    15409 
398000000   -3890.8006    3412.8572    12995.667   -996.59921     8300.257    311.43489    15406 
399000000    -3839.662    3391.3383    12999.019   -972.16305    8203.1634     311.5152    15405 
400000000     -3865.19    3386.3982    12833.399   -988.38295    8239.9711     307.5462    15397 
Loop time of 123266 on 28 procs for 400000000 steps with 14000 atoms

Performance: 8411.068 ns/day, 0.003 hours/ns, 3245.011 timesteps/s
99.7% CPU use with 28 MPI tasks x no OpenMP threads

MPI task timing breakdown:
Section |  min time  |  avg time  |  max time  |%varavg| %total
---------------------------------------------------------------
Pair    | 16980      | 21681      | 26030      |1513.2 | 17.59
Bond    | 4485.5     | 5953.4     | 9174.3     |2442.5 |  4.83
Neigh   | 24894      | 25186      | 25486      | 104.9 | 20.43
Comm    | 30923      | 40056      | 47371      |2166.2 | 32.50
Output  | 0.71996    | 0.72334    | 0.72463    |   0.2 |  0.00
Modify  | 19703      | 20023      | 20488      | 151.1 | 16.24
Other   |            | 1.036e+04  |            |       |  8.41

Nlocal:    500 ave 536 max 475 min
Histogram: 2 5 2 6 3 4 2 3 0 1
Nghost:    815.857 ave 1131 max 508 min
Histogram: 2 3 3 4 2 4 2 3 3 2
Neighs:    6905.14 ave 8495 max 5508 min
Histogram: 4 1 5 2 3 2 5 2 3 1

Total # of neighbors = 193344
Ave neighs/atom = 13.8103
Ave special neighs/atom = 8.77257
Neighbor list builds = 37010427
Dangerous builds = 0
System init for write_restart ...
Total wall time: 34:14:34
