LAMMPS (5 Jun 2019)
Reading restart file ...
  restart file = 5 Jun 2019, LAMMPS = 5 Jun 2019
  restoring atom style full from restart
  orthogonal box = (-420 -420 -420) to (420 420 420)
  2 by 2 by 7 MPI processor grid
  restoring pair style lj/cut from restart
  restoring bond style hybrid from restart
  restoring angle style cosine from restart
  14000 atoms
  15734 bonds
  13600 angles
Finding 1-2 1-3 1-4 neighbors ...
  special bond factors lj:   1          1          1         
  special bond factors coul: 0          0          0         
  3 = max # of 1-2 neighbors
  4 = max # of 1-3 neighbors
  8 = max # of 1-4 neighbors
  56 = max # of special neighbors
  special bonds CPU = 1.02795 secs
  read_restart CPU = 1.11631 secs
Finding 1-2 1-3 1-4 neighbors ...
  special bond factors lj:   0          1          1         
  special bond factors coul: 0          0          0         
  3 = max # of 1-2 neighbors
  4 = max # of 1-3 neighbors
  8 = max # of 1-4 neighbors
  42672 = # of 1-3 neighbors before angle trim
  27200 = # of 1-3 neighbors after angle trim
  56 = max # of special neighbors
  special bonds CPU = 0.00310983 secs
Unused restart file global fix info:
  fix style: colvars, fix ID: CV_Rg
Neighbor list info ...
  update every 1 steps, delay 1 steps, check yes
  max neighbors/atom: 2000, page size: 100000
  master list distance cutoff = 26.9
  ghost atom cutoff = 26.9
  binsize = 13.45, bins = 63 63 63
  1 neighbor lists, perpetual/occasional/extra = 1 0 0
  (1) pair lj/cut, perpetual
      attributes: half, newton on
      pair build: half/bin/newton
      stencil: half/bin/3d/newton
      bin: standard
Setting up Verlet run ...
  Unit style    : real
  Current step  : 250000000
  Time step     : 0.1
Per MPI rank memory allocation (min/avg/max) = 1.103 | 7.739 | 16.65 Mbytes
Step Temp E_pair E_mol TotEng Press 
250000000    306.64295   -6667.5495    6354.7416      12482.9   -3.1439606 
250010000    306.30049    -6520.809    6814.0668    13074.675    -1.851865 
Loop time of 5.63583 on 28 procs for 10000 steps with 14000 atoms

Performance: 15.330 ns/day, 1.566 hours/ns, 1774.360 timesteps/s
99.6% CPU use with 28 MPI tasks x no OpenMP threads

MPI task timing breakdown:
Section |  min time  |  avg time  |  max time  |%varavg| %total
---------------------------------------------------------------
Pair    | 0.00034552 | 0.82702    | 3.1013     | 117.5 | 14.67
Bond    | 0.00053026 | 0.11508    | 0.39787    |  41.8 |  2.04
Neigh   | 0.004732   | 0.0050157  | 0.0055945  |   0.5 |  0.09
Comm    | 0.0012792  | 1.4169     | 3.6789     | 108.4 | 25.14
Output  | 8.7287e-05 | 0.00043711 | 0.00078293 |   0.0 |  0.01
Modify  | 0.00097919 | 0.24894    | 0.86437    |  61.4 |  4.42
Other   |            | 3.022      |            |       | 53.63

Nlocal:    500 ave 1759 max 0 min
Histogram: 16 0 0 2 1 2 2 2 0 3
Nghost:    548.5 ave 1746 max 0 min
Histogram: 14 2 0 0 1 4 3 0 1 3
Neighs:    10680.4 ave 39029 max 0 min
Histogram: 16 0 1 1 3 0 2 2 0 3

Total # of neighbors = 299052
Ave neighs/atom = 21.3609
Ave special neighs/atom = 8.28729
Neighbor list builds = 2
Dangerous builds = 0
4000 atoms in group rxnSites
Neighbor list info ...
  update every 1 steps, delay 1 steps, check yes
  max neighbors/atom: 2000, page size: 100000
  master list distance cutoff = 26.9
  ghost atom cutoff = 26.9
  binsize = 13.45, bins = 63 63 63
  2 neighbor lists, perpetual/occasional/extra = 1 1 0
  (1) pair lj/cut, perpetual
      attributes: half, newton on
      pair build: half/bin/newton
      stencil: half/bin/3d/newton
      bin: standard
  (2) fix bond/create/random, occasional, copy from (1)
      attributes: half, newton on
      pair build: copy
      stencil: none
      bin: none
Setting up Verlet run ...
  Unit style    : real
  Current step  : 0
  Time step     : 30
Per MPI rank memory allocation (min/avg/max) = 17.81 | 18.31 | 19.33 Mbytes
Step E_pair PotEng KinEng E_bond E_angle Temp Bonds 
       0    -6520.809     293.2578    12781.417   -1937.5518    8751.6186    306.30049    15734 
 1000000   -4447.8063    2746.9664     13041.07   -1196.1112     8390.884    312.52295    15463 
 2000000   -4180.0133    3243.1309    12835.438   -1084.4001    8507.5444    307.59507    15433 
 3000000   -3966.8455    3609.1159    12858.217   -904.29406    8480.2555    308.14096    15415 
 4000000   -3882.0452    3746.2379    12957.261   -864.59723    8492.8803    310.51451    15394 
 5000000   -3788.5448    3797.5229    12829.118   -861.60144    8447.6692    307.44361    15394 
 6000000   -3706.4215    3836.5485    12929.517   -935.79943    8478.7694    309.84964    15392 
 7000000   -3761.3896    3669.9178    12970.138   -1054.9436     8486.251     310.8231    15407 
 8000000   -3690.1462    3723.6452    12888.279   -979.24757    8393.0389    308.86137    15399 
 9000000   -3709.5151    3914.5468    12845.417   -956.29759    8580.3595    307.83422    15384 
10000000   -3635.5602     3725.528     12887.97   -1126.3672    8487.4554    308.85397    15395 
11000000   -3610.2043    4010.3761    12851.255   -965.35833    8585.9387    307.97413    15391 
12000000   -3605.2108    3773.7421    12901.076   -1117.1355    8496.0885    309.16806    15430 
13000000   -3581.5947    3876.4107    12897.071   -963.87341    8421.8788    309.07209    15386 
14000000   -3592.0857    4030.7759    12778.517   -858.29047    8481.1521      306.231    15376 
15000000   -3731.0987    3847.5626    13057.244   -945.14189    8523.8032    312.91055    15395 
16000000   -3679.3985    3651.7639    12978.953   -1036.5388    8367.7012    311.03434    15395 
17000000   -3685.0713    3828.0823     13004.76   -962.14039     8475.294    311.65279    15388 
18000000   -3638.5886    4040.8824    13051.357   -838.65062    8518.1216    312.76948    15379 
19000000   -3635.0673    3899.4527    12942.202    -971.7489    8506.2689    310.15361    15394 
20000000   -3606.2333     3814.079    12816.661   -995.36793    8415.6802    307.14508    15380 
21000000   -3687.3453    3822.9077    12956.601   -946.62842    8456.8813    310.49869    15397 
22000000   -3663.8584    3650.9962    13025.938   -1075.5336    8390.3882    312.16031    15403 
23000000   -3712.6484    3661.3304     12900.93   -988.58785    8362.5666    309.16455    15406 
24000000   -3704.5102    3819.6075    12959.036    -920.7141    8444.8318    310.55703    15376 
25000000   -3684.9269    3916.2223    13140.506   -922.82582     8523.975    314.90589    15388 
26000000   -3704.6401     3791.561    12862.426   -1038.2326    8534.4337    308.24182    15395 
27000000   -3631.4328     3801.165    13032.573   -979.95878    8412.5566    312.31932    15401 
28000000   -3737.2607    3643.9427    12890.697   -1022.8366      8404.04    308.91933    15427 
29000000   -3727.0537    3452.0735    12866.774   -1242.7327    8421.8599    308.34604    15444 
30000000   -3685.9384    3905.4777    12815.685   -931.99307    8523.4092    307.12172    15383 
31000000   -3565.0967    3915.8074    12879.685   -1053.0793    8533.9833    308.65543    15402 
32000000   -3604.6317    3826.3504    13015.931   -930.73825    8361.7203    311.92049    15379 
33000000   -3616.0331    3835.0737    12924.115   -1053.2112     8504.318    309.72018    15392 
34000000   -3578.0585    3941.7226    12782.817   -965.21677    8484.9979    306.33404    15384 
35000000   -3551.7289    3849.7844    12730.181   -1071.8798     8473.393    305.07264    15393 
36000000   -3581.5915    4001.2923    12882.075   -867.30348    8450.1873    308.71271    15371 
37000000   -3592.4396    3923.7932    12877.424    -852.4624    8368.6953    308.60124    15363 
38000000   -3613.8307    3692.4778     12801.04   -1020.6873    8326.9958    306.77073    15396 
39000000    -3572.135    3950.5808    12905.878    -914.6106    8437.3264    309.28313    15382 
40000000   -3584.9864    3904.0177    12871.308   -966.24052    8455.2446    308.45469    15377 
41000000   -3572.1701    3886.4592    12728.727   -921.72777     8380.357    305.03779    15377 
42000000   -3647.9022     3825.834    12925.602   -951.32143    8425.0576    309.75581    15380 
43000000   -3608.4493    3917.8866     12896.35   -966.19824    8492.5342    309.05479    15401 
44000000   -3648.5133    3881.7431    12708.047   -978.65622    8508.9126     304.5422    15395 
45000000   -3549.4209     3943.287    13076.331   -846.01924    8338.7272    313.36796    15381 
46000000   -3540.9549    3960.8176    12968.217   -888.59199    8390.3646    310.77706    15382 
47000000   -3537.8613     3893.998    12970.431   -990.32361    8422.1829    310.83012    15385 
48000000   -3614.8443    3946.6372    12925.422   -938.39575    8499.8772     309.7515    15400 
49000000   -3588.6855    3576.2502    13055.698   -1194.4726    8359.4083     312.8735    15420 
50000000   -3595.1057    3815.5253    12908.482   -1033.8804    8444.5114    309.34554    15398 
51000000    -3658.095    3696.5974    13009.991   -1080.5143    8435.2067    311.77815    15415 
52000000   -3618.8033    3696.6929    12913.191    -976.8201    8292.3163     309.4584    15383 
53000000   -3657.5507    3736.9492    12913.867   -1110.7296    8505.2294     309.4746    15416 
54000000   -3606.9797    4148.6524    12956.739    -832.7283    8588.3604      310.502    15369 
55000000   -3586.4228    3865.4613    12863.901   -1025.2282    8477.1124    308.27717    15412 
56000000   -3654.4937    3760.5765    12914.289   -1021.7565    8436.8266     309.4847    15389 
57000000   -3679.4834    3710.3233     12940.72   -948.68104    8338.4878     310.1181    15389 
58000000   -3735.6339    3666.7805    13017.613   -1013.7003    8416.1147     311.9608    15386 
59000000   -3653.3071    3590.4767    12952.992   -992.20844    8235.9922    310.41219    15396 
60000000   -3641.2907    3749.4092     13089.87   -870.31001    8261.0099    313.69242    15384 
61000000   -3636.3158     3681.631    13085.505    -1042.659    8360.6059    313.58782    15386 
62000000   -3685.9199    3505.2457    12988.879   -1050.4918    8241.6575    311.27221    15421 
63000000   -3648.0826    3823.0712    13093.341   -986.95631    8458.1102    313.77559    15366 
64000000   -3627.2491    3698.0223    12981.414   -1041.1459    8366.4173    311.09333    15389 
65000000   -3614.4051    3557.5237    12852.108   -1049.0845    8221.0132    307.99456    15401 
66000000   -3676.7949    3541.6389     12901.58    -1035.136    8253.5698    309.18014    15414 
67000000   -3771.2265    3735.0014    12981.127   -833.61051    8339.8384    311.08644    15377 
68000000    -3688.648    3735.9289    12723.143   -948.33097    8372.9078    304.90398    15379 
69000000   -3719.4524    3439.0617    12907.266   -1147.5171    8306.0312    309.31641    15399 
70000000   -3697.9444    3697.5392    12859.997   -897.38479    8292.8683    308.18363    15376 
71000000   -3769.9555    3536.0198    12886.921   -1100.1451    8406.1205    308.82883    15397 
72000000   -3768.9345    3694.4336    12880.046   -974.28521    8437.6533    308.66408    15396 
73000000   -3717.3931    3547.0517    12860.469   -1065.9518    8330.3965    308.19493    15395 
74000000   -3766.3146    3761.6032    12941.566   -1044.9442    8572.8619    310.13839    15407 
75000000   -3746.1895    3508.8241    13038.527   -1115.7958    8370.8094      312.462    15414 
76000000   -3756.2768    3604.9228    12840.171   -976.38363    8337.5832     307.7085    15387 
77000000   -3761.6173    3605.1742    13046.069   -1009.8105     8376.602    312.64275    15399 
78000000   -3703.4578    3631.6473    12870.207   -960.96351    8296.0686    308.42831    15409 
79000000   -3693.5455    3801.7009    12936.722   -896.17435    8391.4208    310.02229    15378 
80000000   -3722.1005    3639.3062    12915.461   -960.07007    8321.4768     309.5128    15393 
81000000   -3689.4781    3695.2798    12989.574   -1051.6776    8436.4355    311.28888    15398 
82000000   -3647.2873    3714.0023    12928.263   -968.68921    8329.9788    309.81959    15371 
83000000   -3673.6018    3714.0942    12956.544    -990.1637    8377.8597    310.49733    15370 
84000000   -3688.8578    3628.6464    12797.607      -1089.5    8407.0043    306.68847    15408 
85000000   -3635.9379    3679.3514    12899.507   -956.83416    8272.1234    309.13045    15402 
86000000    -3748.161    3482.1957    12962.703   -1046.6019    8276.9585    310.64492    15413 
87000000   -3676.5782    3589.3884    12880.913   -1035.2594    8301.2259    308.68486    15409 
88000000   -3748.6141    3659.7126    12992.358    -981.7726    8390.0994    311.35558    15379 
89000000    -3722.068    3671.2757     12794.43   -1012.6308    8405.9745    306.61234    15397 
90000000   -3731.1541    3728.4672    12975.851   -968.80932    8428.4306    310.96001    15403 
91000000   -3692.2358    3611.4105    12957.021   -1024.6267    8328.2729    310.50874    15401 
92000000   -3650.1179     3708.725    12883.932   -958.88252    8317.7255     308.7572    15384 
93000000   -3670.2594      3595.89    12985.345   -997.91477    8264.0642    311.18753    15408 
94000000   -3764.4109    3753.5202     12928.95   -858.97412    8376.9052    309.83604    15393 
95000000    -3789.537    3620.8174     12985.06   -986.61606    8396.9704     311.1807    15386 
96000000    -3707.626    3571.4174      12873.4   -1077.0028    8356.0462    308.50481    15423 
97000000   -3672.2759    3597.2213    12862.589    -1083.872    8353.3692    308.24573    15417 
98000000   -3683.8857    3563.5293    12823.988   -1005.0084    8252.4234    307.32068    15387 
99000000   -3680.1923    3574.4573    12951.328   -1017.2114    8271.8609    310.37233    15394 
100000000   -3647.8732    3849.2411    13003.574   -897.33613    8394.4505    311.62436    15385 
101000000   -3661.1522    3544.0094    12868.975   -1102.5165    8307.6781    308.39876    15410 
102000000   -3640.7446    3681.7737    12901.634   -1053.6193    8376.1377    309.18143    15415 
103000000   -3683.9902    3681.3192     12829.38   -951.23697    8316.5464    307.44991    15396 
104000000   -3671.5936    3827.0079    13056.455   -1031.5007    8530.1023    312.89165    15398 
105000000   -3684.9858    3588.9728    12870.623   -1026.9978    8300.9563    308.43827    15396 
106000000   -3721.3452    3612.8217    12869.064   -960.30148    8294.4684     308.4009    15391 
107000000   -3761.9418    3608.4822    12890.413   -1011.4528    8381.8769    308.91253    15389 
108000000   -3772.4122    3520.7409    12958.115   -975.65376    8268.8068    310.53498    15416 
109000000    -3842.729    3310.0504    13056.469   -1095.4312    8248.2106    312.89196    15421 
110000000   -3835.9633    3543.6655    13158.155   -1031.2544    8410.8832    315.32883    15409 
111000000   -3882.3499    3319.2366    12976.426   -1134.4555     8336.042    310.97379    15421 
112000000   -3774.6626    3694.9528    12988.069   -969.09641    8438.7119     311.2528    15401 
113000000    -3750.774    3473.5435    13018.146   -1033.1338    8257.4514    311.97358    15417 
114000000   -3710.6678    3504.2099    12781.485   -1042.0139    8256.8915    306.30211    15399 
115000000   -3764.7738    3451.3013    12925.717   -942.20408    8158.2792    309.75856    15386 
116000000   -3826.6246    3594.6894    12793.953   -949.19287    8370.5069    306.60091    15387 
117000000   -3805.0278    3416.8379     13075.23   -1091.2075    8313.0731    313.34158    15407 
118000000   -3785.9916    3628.6936    12894.889   -934.45094    8349.1361    309.01979    15401 
119000000   -3801.6101    3610.6121    12998.068   -945.47945    8357.7017    311.49242    15394 
120000000   -3671.5127     3584.798    13012.992    -1012.532    8268.8426    311.85007    15388 
121000000   -3666.6821    3568.9002    12978.471   -971.86219    8207.4445    311.02279    15389 
122000000    -3692.225    3572.7289     13023.37   -1010.6434    8275.5974    312.09877    15390 
123000000   -3709.3858    3589.0264    12855.913   -984.11273    8282.5249    308.08574    15393 
124000000   -3794.7662    3573.2602    12867.234   -1000.7218    8368.7483    308.35705    15397 
125000000   -3717.8693    3476.7096    12825.631   -1110.6969    8305.2758    307.36005    15404 
126000000   -3744.2433    3398.9232    13043.242   -1064.8966    8208.0631      312.575    15428 
127000000   -3745.6708     3706.175    12953.041   -908.71974    8360.5655    310.41337    15399 
128000000   -3742.0457    3388.3437    12813.852   -1093.7179    8224.1073    307.07778    15421 
129000000   -3751.7431    3563.1387    12845.957   -1041.4999    8356.3816    307.84716    15411 
130000000   -3715.9876    3545.6488    12935.854   -980.52902    8242.1654    310.00148    15386 
131000000   -3770.0356    3565.6294    13009.736   -964.95946    8300.6244    311.77205    15384 
132000000   -3668.1727    3558.3784    12836.851   -1009.7942    8236.3453    307.62894    15403 
133000000   -3771.9208    3471.6349    12937.883   -1040.7403     8284.296    310.05013    15400 
134000000   -3760.1306    3508.3586    12948.558   -1034.6696    8303.1588    310.30595    15409 
135000000   -3645.1272    3687.0968    12870.071   -975.67711    8307.9011    308.42503    15398 
136000000   -3728.9368    3578.7107    12900.665   -1066.6133    8374.2609    309.15821    15413 
137000000   -3790.6967    3581.6054     12917.21   -974.37572    8346.6778    309.55471    15399 
138000000   -3776.9154    3410.1519    12956.589   -1105.0064    8292.0738     310.4984    15427 
139000000    -3732.526    3625.1322    12960.928   -1018.9797    8376.6378    310.60238    15386 
140000000   -3752.4518    3538.7627    12894.638   -928.93458    8220.1491    309.01377    15393 
141000000   -3758.4709    3584.5663    12880.612   -924.37814    8267.4153    308.67764    15401 
142000000   -3710.8061    3528.8289    12898.651   -999.31665    8238.9516    309.10995    15411 
143000000   -3751.7853    3421.5129    13047.022   -1029.4894    8202.7876    312.66558    15394 
144000000   -3721.0126    3531.5966    12790.698   -1059.7701    8312.3792     306.5229    15412 
145000000    -3756.427    3428.4728    12890.699   -1052.9587    8237.8585    308.91937    15390 
146000000   -3746.6242    3562.0548    12949.147   -975.85266    8284.5317    310.32005    15407 
147000000   -3824.9155      3572.43    13018.292   -911.38864    8308.7342    311.97707    15374 
148000000   -3850.4955    3414.1723    13063.267   -1045.1626    8309.8305    313.05488    15412 
149000000   -3759.0463    3531.2852    12749.173   -1058.9085      8349.24    305.52778    15408 
150000000   -3758.9331    3682.8984    12735.312   -909.74836    8351.5798    305.19559    15392 
151000000   -3702.6517    3512.0618    12850.591   -1165.5231    8380.2365    307.95822    15412 
152000000   -3731.0283    3638.0767    12932.274   -994.43707    8363.5421    309.91571    15395 
153000000   -3744.2889     3612.272    13184.792   -958.02003     8314.581    315.96718    15394 
154000000   -3703.7738    3468.8378    13034.161   -1015.5953    8188.2069    312.35737    15405 
155000000   -3706.1364    3637.3103    12944.427   -946.55022    8289.9969    310.20695    15382 
156000000   -3678.7053    3579.9603    13056.436    -1031.516    8290.1816    312.89119    15405 
157000000   -3636.3125    3659.6555     12982.88   -1027.3186    8323.2866    311.12846    15385 
158000000   -3735.9431    3487.9336    12937.841   -976.61888    8200.4955    310.04912    15392 
159000000   -3786.8106    3461.9954    12791.044   -1018.4082    8267.2142    306.53119    15424 
160000000   -3833.7048    3230.0256    12907.282   -1261.9383    8325.6687    309.31679    15430 
161000000   -3884.5427    3339.9987    12939.148   -1073.9488    8298.4901    310.08043    15417 
162000000   -3806.4428     3395.482    12973.588   -1053.0248    8254.9496    310.90577    15387 
163000000   -3746.6879    3415.7763    13102.605   -1142.4922    8304.9565     313.9976    15421 
164000000   -3849.8767    3478.7269    12971.763   -939.45846     8268.062    310.86203    15411 
165000000   -3766.2788    3517.0152    12846.401   -1030.2376    8313.5315    307.85779    15417 
166000000    -3820.833     3501.234    13036.302   -1026.9624    8349.0294    312.40869    15417 
167000000   -3727.2217    3438.6688    12898.557   -1120.6174    8286.5079     309.1077    15414 
168000000   -3716.3328    3671.4028    12870.701   -954.98823    8342.7237    308.44012    15399 
169000000   -3783.1934    3629.5647    12824.106     -1005.11    8417.8682    307.32352    15392 
170000000   -3769.3691    3685.4591    12738.647   -930.76757    8385.5957    305.27551    15394 
171000000   -3810.5584    3438.3742    12920.803   -1054.4464     8303.379    309.64079    15400 
172000000   -3753.9357    3454.0224    12879.046   -993.90913    8201.8672    308.64011    15392 
173000000   -3722.5723    3674.8642    12945.752   -1034.7866    8432.2231    310.23869    15403 
174000000   -3706.9681    3505.3384    12852.183   -1067.4086    8279.7151    307.99635    15406 
175000000   -3704.9375    3733.8246    12912.857   -919.74553    8358.5076    309.45038    15380 
176000000   -3760.9464    3541.0016    12929.751   -934.61587    8236.5639    309.85523    15391 
177000000   -3794.4711    3443.3207    12990.547   -996.15114    8233.9429    311.31219    15408 
178000000   -3828.2942    3530.6158    12990.573   -955.30748    8314.2175    311.31281    15391 
179000000    -3777.635    3521.3048      12806.1   -1024.6953    8323.6351      306.892    15397 
180000000   -3818.9643    3575.3986    12820.628   -926.88955    8321.2525    307.24017    15404 
181000000   -3751.8794    3617.1055    13142.122   -923.56999    8292.5549    314.94462    15400 
182000000   -3772.7053    3573.8844    13031.563   -1112.3332    8458.9229    312.29511    15408 
183000000   -3760.0794    3546.5973    13005.763   -1014.0373     8320.714    311.67684    15422 
184000000    -3761.631    3706.2456    12953.407   -873.59891    8341.4755    310.42214    15399 
185000000   -3756.3174    3480.8712    12980.501   -981.40078    8218.5893    311.07144    15394 
186000000   -3719.9208    3731.5403    13073.728   -946.04989    8397.5109    313.30559    15395 
187000000   -3777.3366    3528.2815    13056.446   -983.08146    8288.6995    312.89142    15390 
188000000   -3750.2362     3531.118    12973.079   -1065.0585    8346.4127    310.89358    15409 
189000000   -3794.0645    3294.6363    12927.278   -1034.8866    8123.5874    309.79597    15410 
190000000   -3708.1509    3532.6543    12954.308   -1074.2807    8315.0859    310.44375    15413 
191000000   -3747.6905     3484.762    12757.477   -1157.2073    8389.6598    305.72678    15434 
192000000   -3845.7578    3386.0282    12922.931   -1088.3145    8320.1005    309.69181    15422 
193000000   -3816.3285    3563.3704    12886.529   -960.27335    8339.9723    308.81944    15415 
194000000   -3843.1982    3524.1511    12997.388   -976.34945    8343.6987    311.47613    15412 
195000000   -3791.0449    3422.9105     12982.19   -1092.7989    8306.7543    311.11192    15392 
196000000   -3732.1367    3526.2773    13108.965   -1074.7586    8333.1726    314.15003    15416 
197000000   -3793.9476    3494.3572    12869.605   -968.52787    8256.8326    308.41386    15395 
198000000   -3786.0956    3419.6902    12914.968   -1029.4571    8235.2429    309.50097    15399 
199000000   -3802.6531    3766.0811    12917.644   -883.33657    8452.0708    309.56511    15370 
200000000   -3697.1139    3676.7902    12918.546   -895.75268    8269.6568    309.58672    15372 
201000000   -3706.1267     3766.697    12766.176   -888.03592    8360.8596    305.93523    15353 
202000000   -3746.9011    3613.9474    12791.123   -927.47932    8288.3279    306.53309    15389 
203000000    -3744.599    3594.6127    12983.838   -977.93221    8317.1439    311.15142    15390 
204000000   -3707.0578    3512.8991     12852.31   -1057.1143    8277.0712    307.99941    15386 
205000000   -3687.6297     3514.683    12786.406    -1075.405    8277.7177    306.42005    15378 
206000000   -3698.1496    3688.6893    13020.695   -941.47502     8328.314    312.03467    15382 
207000000   -3693.3747    3598.4427    12847.972   -978.72051    8270.5378    307.89543    15367 
208000000   -3713.6878    3596.2311    12943.694   -991.50679    8301.4258    310.18937    15408 
209000000   -3718.8535    3557.8979    13000.282   -1020.4295    8297.1809    311.54548    15407 
210000000   -3651.6624    3661.5295    12922.117     -929.369    8242.5609     309.6723    15378 
211000000   -3676.6741    3484.1773    13008.804   -1068.3943    8229.2457    311.74972    15402 
212000000   -3736.2715    3582.2346     12976.66    -986.4367    8304.9428    310.97939    15384 
213000000        -3687    3761.3414    12866.319   -887.00207    8335.3434    308.33512    15383 
214000000   -3687.9587    3624.7581    12883.213   -968.18681    8280.9036    308.73999    15389 
215000000   -3684.0822    3726.8548    12895.005   -928.92542    8339.8624    309.02258    15379 
216000000   -3824.0314    3443.1684    12855.635   -1027.6459    8294.8457    308.07908    15409 
217000000   -3836.5112    3356.2326    12805.692   -1021.3466    8214.0904    306.88222    15392 
218000000   -3821.4094    3565.8907    12856.267   -851.73956    8239.0397    308.09423    15378 
219000000   -3854.8858    3427.2777     12921.92   -1006.7985     8288.962    309.66758    15404 
220000000   -3798.3171    3512.5435    12853.725   -1018.9872    8329.8479    308.03331    15388 
221000000   -3786.7103    3514.7259    12923.104   -1078.8158     8380.252    309.69595    15397 
222000000     -3780.49    3426.2754    12957.163   -1058.0542    8264.8196    310.51215    15409 
223000000   -3748.1435    3599.6726     12851.88   -963.98425    8311.8004     307.9891    15400 
224000000    -3732.148    3693.7971    12933.125   -1008.7964    8434.7415     309.9361    15403 
225000000   -3799.2754    3415.9005    12877.568   -1106.5013    8321.6772     308.6047    15426 
226000000   -3753.2092    3599.7703    12944.177   -992.48074    8345.4602    310.20096    15392 
227000000   -3663.2282    3599.1537    12929.736   -991.32083    8253.7027    309.85489    15392 
228000000   -3675.9966    3777.5972    12912.829   -944.32282    8397.9166    309.44971    15387 
229000000   -3773.1304     3560.303    13006.287   -981.89075    8315.3241    311.68939    15401 
230000000   -3708.1128    3603.2102    12862.125    -966.7131    8278.0362    308.23462    15398 
231000000   -3746.2947    3493.7764    13013.971   -1073.9553    8314.0263    311.87354    15401 
232000000   -3704.1101    3596.8346    12881.245   -1074.4559    8375.4006    308.69283    15401 
233000000    -3727.939    3573.8476    12805.405    -1011.244    8313.0306    306.87534    15395 
234000000   -3714.7152    3678.6689    12941.925   -896.22807    8289.6122    310.14698    15405 
235000000   -3748.3795      3525.35    12879.542   -1061.6343    8335.3638      308.652    15391 
236000000   -3724.1745    3536.7435    12942.602   -1009.1314    8270.0495    310.16321    15395 
237000000   -3729.0633    3769.8754    13211.903   -880.68826     8379.627    316.61689    15396 
238000000   -3705.3302    3624.3119    12943.086   -964.35747    8293.9996    310.17481    15384 
239000000   -3695.0923    3599.3396    12981.671   -1022.9542    8317.3861    311.09949    15398 
240000000   -3763.2605    3650.0583    12909.033   -926.65915     8339.978    309.35874    15387 
241000000   -3736.9719    3522.8872    12808.743   -1009.0357    8268.8949    306.95533    15408 
242000000   -3835.8885    3473.3524    12834.409   -1024.0373    8333.2782    307.57043    15402 
243000000   -3826.4797    3281.2944    12960.459   -1034.5213    8142.2953    310.59115    15393 
244000000    -3791.652    3573.7608    12838.854    -1020.485    8385.8978    307.67695    15419 
245000000   -3737.7811    3590.8297    12869.818   -906.59281    8235.2036    308.41899    15382 
246000000   -3864.3684    3556.2559    12775.061   -867.36512    8287.9894    306.14817    15400 
247000000   -3715.4535    3570.4818    13016.493   -1030.0544    8315.9897    311.93396    15403 
248000000   -3676.4055    3626.1222    12891.361   -902.95108    8205.4789    308.93524    15390 
249000000   -3754.9225    3479.8726    13056.409   -993.07455    8227.8697    312.89053    15402 
250000000   -3792.9565    3512.2766      12864.5   -1030.2515    8335.4847    308.29154    15401 
251000000   -3694.2793     3630.453    12970.838   -1006.6644    8331.3966    310.83988    15400 
252000000   -3656.0342    3636.0338    13028.511   -1070.4515    8362.5195    312.22197    15404 
253000000   -3637.2351     3636.963    12894.327   -935.83011    8210.0282    309.00632    15396 
254000000   -3710.9776    3724.4759    12933.658   -847.54671    8283.0003    309.94887    15381 
255000000   -3732.1184     3532.459    13031.744   -1105.5106     8370.088    312.29946    15416 
256000000   -3730.6077     3442.572    12839.497   -1104.2544    8277.4341    307.69234    15415 
257000000   -3774.4852    3575.8205    12872.644   -931.48379    8281.7894    308.48671    15404 
258000000   -3732.7873    3389.4004    12960.641   -1122.0456    8244.2333    310.59549    15402 
259000000   -3810.7347    3427.2992     12992.62   -1039.1153    8277.1492    311.36186    15430 
260000000   -3787.4112    3337.6885    13064.905   -1110.9448    8236.0446    313.09413    15416 
261000000   -3745.3248    3491.6283    13041.983   -1049.8691    8286.8221    312.54482    15402 
262000000   -3718.4892    3587.5968     12830.33   -999.43079    8305.5168    307.47267    15404 
263000000   -3746.5993    3523.0414    12998.932   -1001.7199    8271.3606    311.51314    15412 
264000000   -3755.5618    3491.1816    12857.858   -992.57393    8239.3173    308.13236    15389 
265000000   -3794.3636    3577.2941    12928.199   -990.75249    8362.4101    309.81804    15403 
266000000   -3831.5252    3642.6777    12983.478   -812.57772    8286.7806    311.14279    15367 
267000000   -3770.6496     3520.621     12903.74   -986.54614    8277.8167    309.23191    15390 
268000000    -3782.292    3414.3128    12839.129   -1016.2732     8212.878    307.68353    15393 
269000000   -3781.2685    3489.2314     13017.39   -961.10719    8231.6071    311.95548    15378 
270000000   -3780.5178    3520.1045     12869.04   -997.88211    8298.5044    308.40034    15401 
271000000   -3776.5564     3533.871    12851.074   -918.85321    8229.2806    307.96978    15395 
272000000   -3773.7091    3511.0789    12932.486   -924.02637    8208.8144     309.9208    15394 
273000000   -3830.3097    3402.5522    12988.649   -960.84827    8193.7102    311.26669    15384 
274000000   -3888.0656    3198.6078    12986.525   -1024.7549    8111.4283     311.2158    15431 
275000000   -3829.5382    3400.4226    12999.274   -982.64067    8212.6015    311.52132    15404 
276000000   -3798.3886    3354.4551     12959.88   -1055.9578    8208.8016    310.57726    15405 
277000000   -3847.8077    3411.8856    12810.962   -997.30958    8257.0028    307.00851    15406 
278000000   -3795.4729    3438.7688    13087.515   -1151.2377    8385.4793    313.63598    15434 
279000000   -3783.3553    3418.7641    12896.168    -993.3244    8195.4437    309.05045    15393 
280000000   -3775.8853    3445.7873    12888.918   -1112.9832    8334.6558    308.87669    15412 
281000000    -3771.076    3597.7349    12903.616   -1017.3429    8386.1538    309.22892    15411 
282000000   -3837.8145    3525.1127    12912.619   -934.06544    8296.9926    309.44467    15404 
283000000   -3809.8781    3449.4043    12859.733   -1104.2088    8363.4912     308.1773    15398 
284000000     -3819.95    3406.8659     12960.95   -1017.3695    8244.1854    310.60291    15404 
285000000   -3819.1513    3462.3475    12971.563   -1018.1168    8299.6156    310.85725    15412 
286000000   -3767.6049    3373.6418    12896.885   -1098.7097    8239.9563    309.06761    15412 
287000000   -3803.6748    3354.7075      13037.4   -1109.3316    8267.7139      312.435    15412 
288000000   -3831.7908    3371.2835      12945.7   -1025.0371    8228.1113    310.23746    15408 
289000000   -3755.7144     3426.065    12938.025   -1054.6242    8236.4036    310.05352    15402 
290000000   -3807.0736    3530.3703    12823.184   -904.93205     8242.376     307.3014    15377 
291000000   -3835.4892    3438.6285    12928.581   -973.90935     8248.027    309.82719    15393 
292000000   -3814.7669    3325.3598     12996.33   -1185.8391    8325.9658    311.45078    15415 
293000000   -3723.6549    3452.2757    12970.853   -1080.0834     8256.014    310.84024    15413 
294000000   -3838.7479    3485.2352    12945.741   -925.16894    8249.1521    310.23844    15402 
295000000   -3790.2952    3493.7198    12887.276   -1009.8935    8293.9085    308.83736    15432 
296000000   -3803.2712    3476.7266    12942.429   -1024.6091    8304.6069    310.15906    15399 
297000000   -3832.9903    3348.7224    13000.973   -1012.3061    8194.0188    311.56205    15411 
298000000   -3813.1452    3288.4485    12988.825   -1051.7975    8153.3912    311.27092    15408 
299000000   -3856.8271    3351.7417    12997.353   -1043.5749    8252.1437    311.47529    15417 
300000000   -3799.7358    3422.4313    12820.704   -1074.6124    8296.7795    307.24198    15427 
301000000   -3840.4145    3498.5629     12955.01   -986.26802    8325.2454    310.46057    15415 
302000000   -3753.8581    3677.4564    12975.559   -953.90309    8385.2176    310.95301    15401 
303000000   -3813.6308    3586.3764    12997.769   -1003.8758    8403.8829    311.48525    15410 
304000000   -3819.1317    3408.8742    12984.155   -1068.0217    8296.0276      311.159    15418 
305000000   -3767.4092    3464.6194    13045.066   -953.86694    8185.8956    312.61872    15394 
306000000   -3840.0597    3373.7578    13116.726   -1056.4169    8270.2344    314.33602    15400 
307000000   -3786.7879    3419.2669    12817.657   -989.63075    8195.6856    307.16895    15371 
308000000   -3740.9459    3692.9654    13118.556   -941.45719    8375.3685    314.37986    15395 
309000000   -3753.1314    3599.2553    12978.426   -930.81911    8283.2058    311.02171    15394 
310000000   -3748.2892    3474.7576    12991.643   -1089.6483    8312.6951    311.33844    15412 
311000000   -3861.5146    3303.1467    12952.809   -1057.8636    8222.5248    310.40781    15427 
312000000   -3811.3674    3508.2101    12940.948   -998.23298    8317.8105    310.12358    15410 
313000000   -3789.6776    3447.7229    12986.473   -1092.2733    8329.6738    311.21455    15405 
314000000   -3785.8397    3405.3011     12995.87   -1069.4859    8260.6266    311.43976    15418 
315000000   -3818.3089    3348.4005    12937.298   -1069.8431    8236.5524    310.03611    15411 
316000000   -3772.1904    3493.1761    13037.826   -1022.0045     8287.371    312.44522    15387 
317000000   -3751.1315    3515.2554    12793.025   -991.70098    8258.0878    306.57868    15404 
318000000   -3780.0261    3324.4925    12956.641   -1186.7142    8291.2329    310.49964    15419 
319000000   -3850.2853    3358.3427    13045.931   -1104.8592    8313.4871    312.63943    15410 
320000000   -3764.2709    3462.6101    12942.509   -1012.8668    8239.7478    310.16099    15394 
321000000   -3800.9959    3311.6546    12737.541   -1119.0247    8231.6752    305.24903    15418 
322000000   -3757.1211    3465.1318    12984.291   -993.20012     8215.453    311.16225    15385 
323000000   -3802.0902    3389.6598    13090.063   -1042.2549     8234.005    313.69703    15392 
324000000   -3780.2155    3523.2942    12947.292   -1020.8131    8324.3229     310.2756    15405 
325000000   -3787.4056    3550.4726    12812.329   -942.96146    8280.8397    307.04127    15398 
326000000   -3735.9776    3510.2485    12901.952   -1042.7638    8288.9899    309.18905    15394 
327000000   -3778.4733    3681.6587    12987.595   -886.08388    8346.2158    311.24145    15387 
328000000   -3697.8553    3437.6414    12878.615   -1056.4382    8191.9349     308.6298    15385 
329000000   -3748.3538    3439.1477    13105.325    -983.7925     8171.294    314.06278    15393 
330000000   -3738.8821    3543.7731    13075.865   -1085.4761    8368.1313    313.35678    15415 
331000000    -3696.524    3502.9209     12900.62   -962.94077    8162.3857    309.15714    15395 
332000000   -3836.5611    3641.5747    12821.763   -933.13678    8411.2725    307.26736    15388 
333000000   -3717.9495    3527.5987    12945.091   -1058.3575    8303.9056    310.22287    15404 
334000000   -3700.9082    3714.9197    12778.817   -852.68148    8268.5094    306.23818    15394 
335000000   -3698.5134    3549.2664    12860.027   -1034.6779    8282.4577    308.18434    15406 
336000000   -3751.6611    3534.1992    13010.284   -982.99044    8268.8508    311.78518    15401 
337000000   -3792.6802    3507.3221     13060.11   -903.41464     8203.417    312.97924    15401 
338000000   -3791.9791    3553.5203    12838.047   -984.20875    8329.7081     307.6576    15413 
339000000   -3838.3154    3505.2823    12813.943   -969.54716    8313.1448    307.07995    15399 
340000000   -3799.9181    3549.6537    13006.642    -1007.183    8356.7548    311.69791    15404 
341000000   -3834.1929    3581.2439    12921.005   -890.61004    8306.0469    309.64564    15381 
342000000   -3753.9059    3536.7685     13017.98   -1027.3535     8318.028    311.96962    15400 
343000000   -3778.9789    3583.4407    12915.368    -971.4615    8333.8811    309.51056    15403 
344000000   -3765.4071    3396.5393    13063.814   -1081.4171    8243.3635      313.068    15403 
345000000   -3831.4868    3534.4512    12892.299   -982.27096     8348.209    308.95773    15404 
346000000   -3795.4682    3511.5457    13000.457   -1052.0418    8359.0557    311.54967    15392 
347000000   -3857.3179     3388.474    12850.554   -1075.8577    8321.6496    307.95732    15407 
348000000   -3857.3963    3381.2604    12926.743   -1087.0858    8325.7426    309.78315    15403 
349000000   -3761.3081    3505.4244    12910.251   -1038.4262    8305.1587    309.38794    15411 
350000000    -3805.813    3508.4717    12969.216    -1095.698    8409.9827    310.80101    15416 
351000000   -3851.6923    3475.5384    12893.614   -998.86776    8326.0985    308.98924    15396 
352000000   -3796.9465    3416.9761    13016.909   -1031.8002    8245.7228    311.94395    15398 
353000000   -3795.3398    3407.2934    12827.944   -1052.7579    8255.3911    307.41548    15413 
354000000   -3732.5211    3581.3485    13063.403    -997.5802    8311.4498    313.05814    15389 
355000000   -3844.4654    3312.4936    12970.372   -1086.4993    8243.4583     310.8287    15405 
356000000   -3790.6031    3488.0027    12886.946   -1001.5109    8280.1167    308.82943    15410 
357000000   -3771.7378    3596.6685    12995.671   -953.08726    8321.4936    311.43499    15393 
358000000   -3796.8731    3457.1168    13114.846   -907.78547    8161.7754    314.29094    15393 
359000000   -3785.1593    3409.1492    12904.649   -1058.4171    8252.7257    309.25369    15416 
360000000   -3808.4561    3570.9422    13024.479   -925.82608    8305.2244    312.12535    15385 
361000000   -3744.5095    3542.6117    13025.796   -921.66868    8208.7899    312.15691    15402 
362000000   -3779.5043    3529.2902    12833.045   -1130.1192    8438.9137    307.53773    15426 
363000000    -3774.439    3571.4824    12990.042   -932.18191    8278.1033    311.30008    15375 
364000000   -3750.4234    3493.5894    12942.451   -1018.5707    8262.5835    310.15958    15404 
365000000   -3773.0245    3457.0717    13021.957   -1013.7943    8243.8906    312.06492    15387 
366000000   -3791.3479    3410.1558    12886.623   -1040.0304    8241.5341     308.8217    15408 
367000000   -3746.5943    3335.6233    12859.453   -1167.9003     8250.118    308.17058    15416 
368000000   -3783.6748    3522.2082     13004.69   -983.52724    8289.4103    311.65112    15410 
369000000   -3768.3903    3407.3759    13073.792   -1076.4066    8252.1729    313.30712    15429 
370000000   -3742.3348    3465.7267    12714.013   -1037.4857    8245.5472    304.68517    15416 
371000000   -3797.7862    3551.9415    12958.027    -904.6688    8254.3965    310.53287    15399 
372000000   -3696.5478    3447.6366    12870.098   -1030.6671    8174.8515    308.42569    15392 
373000000   -3736.8664    3520.3868    12966.714   -966.43118    8223.6844    310.74105    15387 
374000000   -3777.1933    3630.9058    12880.093   -1000.0279    8408.1269    308.66521    15400 
375000000   -3775.3195    3540.7245    12857.077    -1062.492    8378.5361    308.11364    15407 
376000000   -3747.5925    3464.8381    13082.816   -1068.3947    8280.8254    313.52337    15411 
377000000   -3699.5531    3604.5088    12979.174   -924.69891    8228.7608    311.03965    15377 
378000000   -3753.9054    3419.4134    13018.399   -1032.0537    8205.3724    311.97966    15391 
379000000   -3683.7746    3762.7548    12761.703   -927.33263     8373.862    305.82805    15384 
380000000   -3751.3782    3658.2588    12986.673   -928.39869    8338.0357    311.21935    15391 
381000000   -3750.2282    3672.2262    12954.028   -850.25481    8272.7092    310.43703    15378 
382000000   -3788.7199    3556.4368    12975.426   -994.17623     8339.333    310.94981    15399 
383000000   -3811.5654    3345.6412    12881.608   -1058.9985    8216.2051    308.70153    15419 
384000000   -3798.1144    3582.1913    12962.554   -947.46143    8327.7672    310.64135    15407 
385000000   -3687.5516    3612.9782    13040.107   -1014.5295    8315.0593    312.49986    15411 
386000000   -3800.6407    3651.0329    13029.685   -862.63906    8314.3127    312.25012    15388 
387000000   -3846.8197    3398.6149    12971.367   -1082.6814     8328.116    310.85254    15416 
388000000   -3764.1266    3584.7817    13040.451    -1009.267    8358.1754    312.50812    15407 
389000000   -3678.0999     3541.231    12977.337   -1056.4137    8275.7446    310.99561    15410 
390000000   -3645.8189    3633.9048     13004.58     -1088.57    8368.2937    311.64848    15416 
391000000   -3796.8338    3377.6012    12893.449    -1098.576     8273.011    308.98529    15408 
392000000   -3734.6577    3457.5716    12887.077   -1141.6584    8333.8877    308.83258    15417 
393000000   -3707.3355    3488.6051    12964.308   -1159.6764     8355.617    310.68338    15418 
394000000   -3747.8401    3595.2902    12956.275   -1062.7448    8405.8751    310.49089    15400 
395000000   -3775.5091    3396.5845    12929.689   -1107.8989    8279.9925    309.85374    15428 
396000000   -3785.9928    3410.9168    13082.115   -1002.7824    8199.6921    313.50657    15416 
397000000    -3773.662    3546.1139    12902.997   -988.60453    8308.3804     309.2141    15403 
398000000    -3767.069    3723.9495    12770.742   -773.22999    8264.2485    306.04467    15378 
399000000   -3846.2715    3427.8878    12883.113    -1023.545    8297.7043    308.73758    15424 
400000000   -3771.1376    3454.5717    12992.498   -1047.2733    8272.9826    311.35895    15412 
Loop time of 109004 on 28 procs for 400000000 steps with 14000 atoms

Performance: 9511.580 ns/day, 0.003 hours/ns, 3669.591 timesteps/s
99.7% CPU use with 28 MPI tasks x no OpenMP threads

MPI task timing breakdown:
Section |  min time  |  avg time  |  max time  |%varavg| %total
---------------------------------------------------------------
Pair    | 13878      | 19532      | 22963      |1644.9 | 17.92
Bond    | 3673       | 4708.6     | 7309.6     |1277.9 |  4.32
Neigh   | 23773      | 23954      | 24296      |  85.7 | 21.98
Comm    | 28764      | 34607      | 40282      |1504.1 | 31.75
Output  | 0.67749    | 0.67819    | 0.67929    |   0.1 |  0.00
Modify  | 16382      | 17883      | 18902      | 695.6 | 16.41
Other   |            | 8319       |            |       |  7.63

Nlocal:    500 ave 542 max 473 min
Histogram: 5 1 4 6 2 5 3 1 0 1
Nghost:    792.857 ave 1119 max 436 min
Histogram: 2 1 2 7 1 5 1 3 4 2
Neighs:    6780.11 ave 8197 max 5296 min
Histogram: 3 4 2 1 3 4 1 2 6 2

Total # of neighbors = 189843
Ave neighs/atom = 13.5602
Ave special neighs/atom = 8.80071
Neighbor list builds = 37001281
Dangerous builds = 0
System init for write_restart ...
Total wall time: 30:16:51
