LAMMPS (5 Jun 2019)
Reading restart file ...
  restart file = 5 Jun 2019, LAMMPS = 5 Jun 2019
  restoring atom style full from restart
  orthogonal box = (-420 -420 -420) to (420 420 420)
  2 by 2 by 7 MPI processor grid
  restoring pair style lj/cut from restart
  restoring bond style hybrid from restart
  restoring angle style cosine from restart
  14000 atoms
  15734 bonds
  13600 angles
Finding 1-2 1-3 1-4 neighbors ...
  special bond factors lj:   1          1          1         
  special bond factors coul: 0          0          0         
  3 = max # of 1-2 neighbors
  4 = max # of 1-3 neighbors
  8 = max # of 1-4 neighbors
  56 = max # of special neighbors
  special bonds CPU = 0.729407 secs
  read_restart CPU = 0.751686 secs
Finding 1-2 1-3 1-4 neighbors ...
  special bond factors lj:   0          1          1         
  special bond factors coul: 0          0          0         
  3 = max # of 1-2 neighbors
  4 = max # of 1-3 neighbors
  8 = max # of 1-4 neighbors
  42672 = # of 1-3 neighbors before angle trim
  27200 = # of 1-3 neighbors after angle trim
  56 = max # of special neighbors
  special bonds CPU = 0.00205567 secs
Unused restart file global fix info:
  fix style: colvars, fix ID: CV_Rg
Neighbor list info ...
  update every 1 steps, delay 1 steps, check yes
  max neighbors/atom: 2000, page size: 100000
  master list distance cutoff = 26.9
  ghost atom cutoff = 26.9
  binsize = 13.45, bins = 63 63 63
  1 neighbor lists, perpetual/occasional/extra = 1 0 0
  (1) pair lj/cut, perpetual
      attributes: half, newton on
      pair build: half/bin/newton
      stencil: half/bin/3d/newton
      bin: standard
Setting up Verlet run ...
  Unit style    : real
  Current step  : 250000000
  Time step     : 0.1
Per MPI rank memory allocation (min/avg/max) = 1.103 | 7.739 | 16.65 Mbytes
Step Temp E_pair E_mol TotEng Press 
250000000    30.664295   -6667.5495    6354.7416    966.76285   -4.0321422 
250010000    262.15266   -6504.3887    5224.2069    9659.0187    1.2339148 
Loop time of 5.03727 on 28 procs for 10000 steps with 14000 atoms

Performance: 17.152 ns/day, 1.399 hours/ns, 1985.202 timesteps/s
99.7% CPU use with 28 MPI tasks x no OpenMP threads

MPI task timing breakdown:
Section |  min time  |  avg time  |  max time  |%varavg| %total
---------------------------------------------------------------
Pair    | 0.00033839 | 0.7982     | 2.998      | 115.4 | 15.85
Bond    | 0.00051647 | 0.11089    | 0.38719    |  41.0 |  2.20
Neigh   | 0.013636   | 0.014318   | 0.015731   |   0.7 |  0.28
Comm    | 0.0015742  | 1.2371     | 3.2076     | 103.8 | 24.56
Output  | 8.935e-05  | 0.00043084 | 0.00077507 |   0.0 |  0.01
Modify  | 0.00092279 | 0.24006    | 0.83831    |  60.4 |  4.77
Other   |            | 2.636      |            |       | 52.34

Nlocal:    500 ave 1764 max 0 min
Histogram: 16 0 0 2 1 2 2 2 0 3
Nghost:    548.929 ave 1741 max 0 min
Histogram: 14 2 0 0 1 5 2 0 1 3
Neighs:    10699.8 ave 39156 max 0 min
Histogram: 16 0 1 1 3 0 2 2 0 3

Total # of neighbors = 299593
Ave neighs/atom = 21.3995
Ave special neighs/atom = 8.28729
Neighbor list builds = 6
Dangerous builds = 0
4000 atoms in group rxnSites
Neighbor list info ...
  update every 1 steps, delay 1 steps, check yes
  max neighbors/atom: 2000, page size: 100000
  master list distance cutoff = 26.9
  ghost atom cutoff = 26.9
  binsize = 13.45, bins = 63 63 63
  2 neighbor lists, perpetual/occasional/extra = 1 1 0
  (1) pair lj/cut, perpetual
      attributes: half, newton on
      pair build: half/bin/newton
      stencil: half/bin/3d/newton
      bin: standard
  (2) fix bond/create/random, occasional, copy from (1)
      attributes: half, newton on
      pair build: copy
      stencil: none
      bin: none
Setting up Verlet run ...
  Unit style    : real
  Current step  : 0
  Time step     : 25
Per MPI rank memory allocation (min/avg/max) = 17.81 | 18.31 | 19.33 Mbytes
Step E_pair PotEng KinEng E_bond E_angle Temp Bonds 
       0   -6504.3887   -1280.1818    10939.201     -2973.26    8197.4669    262.15266    15734 
 1000000   -3672.2591    3840.4643    12871.614    -950.0354    8462.7588    308.46201    15379 
 2000000   -3686.5534    3896.4091    13076.101   -944.19043    8527.1529    313.36244    15388 
 3000000   -3591.5296    3940.1502    12875.797   -914.51024      8446.19    308.56226    15365 
 4000000   -3703.4951    3723.0936    13024.025   -990.99512    8417.5839    312.11448    15384 
 5000000    -3635.845    3713.4106    12950.216   -1052.0636    8401.3192    310.34568    15390 
 6000000   -3682.9584    3708.8794    12965.755   -909.64269    8301.4804    310.71805    15383 
 7000000   -3730.5755    3691.7543     13018.54   -930.54938    8352.8792    311.98304    15400 
 8000000    -3781.243      3690.21    12891.001   -884.49137    8355.9444     308.9266    15394 
 9000000   -3747.9896    3564.4074    13068.157   -1035.2298    8347.6268    313.17208    15408 
10000000   -3786.1537    3697.2045    12818.131   -915.70907    8399.0672    307.18031    15406 
11000000   -3669.3016    3592.3021    12879.313   -1056.6522    8318.2559    308.64652    15414 
12000000   -3711.5497    3599.5518    13002.493   -980.46318    8291.5647    311.59846    15376 
13000000   -3817.3582     3416.275    12897.556   -1107.6154    8341.2486     309.0837    15420 
14000000   -3764.6278    3640.2532    13024.185   -943.86104     8348.742    312.11831    15384 
15000000   -3812.3048    3592.7575    13020.375   -944.48745    8349.5498      312.027    15397 
16000000   -3759.8948     3653.067    12892.955   -923.52669    8336.4885    308.97345    15385 
17000000   -3750.3484    3397.9147    13087.931   -1004.1365    8152.3997    313.64595    15409 
18000000   -3837.8837    3267.1412    12937.156   -1125.9331    8230.9581    310.03269    15435 
19000000   -3857.6825    3597.4924    12985.071   -868.93655    8324.1114    311.18096    15400 
20000000   -3861.2657    3558.7536    13028.231   -843.44507    8263.4643    312.21528    15392 
21000000   -3858.2123    3496.2974    12809.584   -980.81913    8335.3288    306.97549    15415 
22000000   -3695.7756    3644.5026     12839.05   -1010.6092    8350.8874    307.68163    15399 
23000000   -3785.2548    3474.6687     12983.23   -1003.7973    8263.7208    311.13683    15400 
24000000   -3744.3181    3412.1661    12909.974   -1045.4434    8201.9275     309.3813    15420 
25000000   -3842.1806    3353.5327     12880.78   -1066.9501    8262.6634    308.68168    15404 
26000000   -3826.9416    3413.0481    12879.214   -989.48128    8229.4709    308.64414    15417 
27000000    -3747.863    3520.5018    12949.478   -973.43519       8241.8      310.328    15384 
28000000   -3839.2403     3421.774    12947.734   -1138.4921    8399.5064    310.28619    15427 
29000000   -3771.1452    3642.6586    12974.753   -902.06724     8315.871     310.9337    15392 
30000000    -3847.129    3449.9477    12921.306   -1013.7857    8310.8623    309.65286    15436 
31000000   -3880.0649     3273.177    12943.151   -1089.8489    8243.0908    310.17638    15416 
32000000   -3674.1791    3680.1028    13034.454   -954.04926    8308.3312    312.36439    15389 
33000000   -3733.0802    3496.5494    12950.222   -1035.4675    8265.0971    310.34583    15404 
34000000   -3748.7006    3527.6939    12844.737   -1033.5111    8309.9056    307.81792    15410 
35000000   -3827.2634    3566.6616    12871.787   -901.17218    8295.0972    308.46617    15382 
36000000   -3887.6807    3404.2453    12877.347   -933.81327    8225.7393    308.59941    15417 
37000000   -3817.1618    3410.9112    12868.868   -988.06691    8216.1399    308.39622    15416 
38000000    -3876.482    3343.3111    12954.127   -1147.5729    8367.3659    310.43941    15424 
39000000   -3774.0122    3476.7871     12966.27   -1002.2318    8253.0311     310.7304    15392 
40000000   -3847.2538     3308.916    12958.216   -1047.4285    8203.5983     310.5374    15415 
41000000   -3911.2836     3387.202    12898.513   -1035.8903     8334.376    309.10664    15404 
42000000   -3824.0182    3337.7287    12881.922   -1088.6875    8250.4344    308.70903    15434 
43000000   -3738.9937    3456.9055    12929.389   -1042.2609    8238.1601    309.84656    15417 
44000000   -3808.3759    3407.8043    12872.844   -1034.4414    8250.6216    308.49149    15411 
45000000   -3732.6468    3720.3133    13034.545   -904.72333    8357.6835    312.36657    15408 
46000000   -3804.6554    3433.9096     12974.39   -985.28985    8223.8548    310.92499    15409 
47000000   -3797.5239    3527.5741    12919.589   -985.73528    8310.8333    309.61171    15413 
48000000   -3831.8556    3568.0068     12971.41   -954.84584    8354.7082    310.85358    15390 
49000000   -3678.2141    3729.2067    12924.477   -957.79112    8365.2119    309.72884    15382 
50000000   -3781.4469    3536.1606    12925.622   -959.94333    8277.5508     309.7563    15405 
51000000   -3782.2125    3407.4619    12792.817    -1062.386    8252.0603    306.57369    15430 
52000000   -3904.1801    3422.4383    13100.816   -975.50081    8302.1192    313.95474    15416 
53000000   -3718.6548    3476.3007    12918.752   -1054.6927    8249.6481    309.59166    15392 
54000000   -3802.1109    3489.7114    12929.353   -951.82372    8243.6461    309.84571    15401 
55000000    -3826.979    3334.5509    12901.415   -1088.4441    8249.9739    309.17619    15417 
56000000   -3783.0312    3621.0686    12867.738   -875.63297    8279.7328    308.36914    15373 
57000000   -3774.0168    3720.4559    13033.769   -832.95651    8327.4292    312.34799    15385 
58000000   -3774.8663    3405.4024    12843.886   -983.60711    8163.8758    307.79753    15396 
59000000   -3859.3737     3231.479    12958.396   -1108.3754    8199.2281    310.54171    15422 
60000000   -3822.3309    3372.9235    12987.461   -999.54985    8194.8043    311.23823    15414 
61000000   -3927.0592    3348.7823    13017.043   -1057.6432    8333.4846    311.94716    15416 
62000000   -3921.9103    3267.7485    12918.221   -1034.0558    8223.7147    309.57893    15406 
63000000   -3814.4686    3395.2552     12816.31   -1029.2388    8238.9626    307.13669    15419 
64000000   -3696.3339    3562.8175    12977.421    -948.5938    8207.7452    310.99763    15396 
65000000   -3750.3117    3615.4346    12944.114   -982.51623    8348.2626    310.19944    15406 
66000000   -3877.4683    3369.5677    12928.996   -1086.9373    8333.9733    309.83714    15441 
67000000   -3871.1723    3361.7897    12954.634   -916.79585    8149.7578    310.45154    15397 
68000000   -3854.1698    3429.6799    12937.524   -1080.2849    8364.1345    310.04151    15409 
69000000   -3847.7539    3277.1255    13047.838   -1041.6993    8166.5787    312.68515    15420 
70000000   -3785.8412    3493.2816    12939.242   -955.04418     8234.167     310.0827    15403 
71000000   -3794.1258    3551.3012    12898.165   -1017.0105    8362.4375     309.0983    15397 
72000000   -3773.9817    3452.5475    12825.578   -1038.5194    8265.0486    307.35879    15409 
73000000    -3825.151    3529.9818    12872.322   -890.21004    8245.3428    308.47899    15395 
74000000   -3781.0066     3487.009    12994.681   -895.25742     8163.273    311.41125    15394 
75000000   -3876.4571    3381.7562    13038.501   -1077.1642    8335.3775    312.46138    15425 
76000000   -3827.7957    3311.4129    12992.371   -1010.2622    8149.4708     311.3559    15415 
77000000   -3864.0086    3393.7888    12832.208   -1051.6849    8309.4823    307.51767    15430 
78000000    -3829.256    3386.5226    12903.417   -1059.8064    8275.5851    309.22416    15424 
79000000   -3863.5161    3269.8927    13005.917    -973.1345    8106.5433    311.68052    15414 
80000000   -3816.7097    3396.6871    12889.218   -991.18101    8204.5778    308.88389    15410 
81000000   -3879.6672    3358.3214    13014.173   -1005.6966    8243.6851    311.87838    15423 
82000000   -3762.7254     3490.276    12848.536   -968.76291    8221.7643    307.90897    15383 
83000000   -3886.1707    3110.7805    12779.513   -1138.0554    8135.0066    306.25486    15438 
84000000   -3784.4574     3611.191    12872.251   -898.70184    8294.3503    308.47729    15391 
85000000   -3770.0072    3425.5202    12920.156   -984.88056    8180.4079     309.6253    15395 
86000000    -3777.396    3369.8031    12847.231   -1065.3189    8212.5179    307.87769    15414 
87000000   -3771.8254    3346.3591    12886.925   -1116.9418    8235.1263    308.82894    15409 
88000000      -3805.3    3487.1923    12990.586    -1007.925    8300.4174    311.31313    15425 
89000000   -3799.0325    3430.8356    12917.834   -1020.8594    8250.7276    309.56966    15407 
90000000    -3801.365    3410.1321    13016.208   -1055.2132    8266.7104    311.92713    15407 
91000000   -3830.5176    3477.3948    13033.527   -975.79453     8283.707    312.34219    15401 
92000000   -3738.3579    3660.8608    12858.047   -916.09771    8315.3163    308.13689    15402 
93000000   -3838.7634     3366.402    13023.439   -1061.0763    8266.2417    312.10042    15415 
94000000   -3752.2824    3454.2502    12937.324   -1089.0452    8295.5779    310.03672    15442 
95000000    -3812.256    3480.5449     12889.04    -944.3595    8237.1605    308.87963    15399 
96000000   -3810.5511    3290.6534    12850.726   -1104.1592    8205.3638    307.96145    15426 
97000000   -3730.5313    3518.4799    12872.369   -899.43927    8148.4505     308.4801    15391 
98000000   -3890.4492    3288.6684    12749.604   -1013.8036    8192.9213     305.5381    15408 
99000000   -3858.7319    3395.3585    12946.221   -1022.5319    8276.6223    310.24993    15418 
100000000   -3943.2748    3151.9886    12880.349   -1168.7663    8264.0296    308.67135    15430 
101000000   -3745.5169    3386.2493    12918.435   -1077.4552    8209.2214    309.58405    15416 
102000000   -3829.5385    3437.5994    12901.562   -936.56509     8203.703    309.17971    15397 
103000000   -3875.1716    3493.4601    12946.659   -994.83067    8363.4624    310.26042    15408 
104000000   -3838.8655    3436.7783    13036.978   -958.14876    8233.7926    312.42489    15393 
105000000    -3857.805    3269.8534    13042.218   -1014.5978    8142.2563    312.55047    15427 
106000000   -3814.0028    3448.9349    13140.442   -965.66093    8228.5986    314.90434    15410 
107000000   -3793.7095    3439.3987    12965.512   -1001.4191    8234.5273    310.71223    15411 
108000000   -3858.1481    3477.0531    12791.562    -1050.487    8385.6882     306.5436    15400 
109000000   -3788.8519    3486.3613    12882.307   -978.04189    8253.2552    308.71828    15387 
110000000   -3807.1145    3505.7008    13034.187   -950.75081    8263.5662    312.35801    15415 
111000000   -3827.7412    3492.1682    12761.453   -988.84166     8308.751    305.82207    15414 
112000000   -3777.2581    3454.0607    12925.394   -1000.0074    8231.3262    309.75082    15424 
113000000   -3728.0716    3664.4956    12924.968   -950.04143    8342.6086    309.74061    15382 
114000000   -3918.4678    3302.3944     12976.14   -995.37819    8216.2405    310.96694    15403 
115000000   -3791.6146     3554.779    12788.029    -833.7347    8180.1284    306.45893    15391 
116000000   -3891.6978    3325.8662    12884.529    -1078.605     8296.169    308.77152    15405 
117000000   -3791.2344    3427.5627    13088.123   -1126.8722    8345.6693    313.65054    15418 
118000000   -3739.8954    3503.8084    12648.918   -1008.9933    8252.6971    303.12522    15416 
119000000   -3729.2531    3532.2642    12863.262   -971.63225    8233.1496    308.26186    15406 
120000000   -3786.6578    3565.7511    12887.424   -1002.0664    8354.4753    308.84089    15427 
121000000   -3773.9837    3540.3074    12957.774   -884.09889      8198.39    310.52679    15395 
122000000   -3752.0187    3356.1854    12919.502   -1035.2249    8143.4291    309.60963    15415 
123000000   -3813.8698    3279.9272    12852.116   -1138.1188    8231.9158    307.99475    15442 
124000000   -3857.2332    3441.7516    12917.698   -1041.3435    8340.3282     309.5664    15413 
125000000   -3918.0809    3350.4698    12853.293   -981.33767    8249.8884    308.02296    15416 
126000000   -3816.5043     3492.903    13028.009   -997.76594    8307.1733    312.20995    15421 
127000000   -3814.0631    3378.2098    12998.753   -1022.6045    8214.8775    311.50885    15406 
128000000   -3750.0703    3546.4598    12924.834   -1074.6301    8371.1601    309.73741    15431 
129000000   -3825.1928    3498.4359    13018.219   -959.25801    8282.8866    311.97533    15403 
130000000   -3803.5244    3530.7921    12871.646   -963.76652    8298.0829    308.46278    15402 
131000000   -3762.0695    3409.0797    13025.767   -1059.3648     8230.514    312.15621    15395 
132000000   -3784.1356    3578.0316    12934.481   -944.22428    8306.3914     309.9686    15391 
133000000   -3867.8561    3340.3415    12977.569   -1123.3698    8331.5673    311.00117    15426 
134000000   -3906.5856     3383.909    12875.805   -1065.6683    8356.1629    308.56246    15418 
135000000   -3816.0099    3465.7537    13003.472   -964.72854    8246.4921    311.62193    15404 
136000000   -3848.6886    3432.3105    12996.358   -947.93658    8228.9357    311.45144    15412 
137000000   -3796.9123    3466.0473    12992.242   -938.13455    8201.0942    311.35281    15411 
138000000   -3788.3717    3416.3857    13061.281   -1039.1512    8243.9086     313.0073    15413 
139000000   -3836.4736    3436.4885    12956.217   -994.89938    8267.8614    310.48949    15416 
140000000   -3769.8004    3487.3169    12989.198   -976.99361    8234.1109    311.27986    15396 
141000000   -3805.4246    3300.2986     12987.01   -1130.1312    8235.8545    311.22743    15419 
142000000   -3758.8317     3693.425    13002.071   -933.80117    8386.0579    311.58836    15391 
143000000   -3853.6497     3323.135    12888.076   -1059.5247    8236.3093    308.85653    15419 
144000000   -3790.0637    3517.0623    13021.693   -923.15164    8230.2777    312.05858    15409 
145000000   -3823.2531    3370.2079    13039.553   -1041.8977    8235.3587    312.48659    15419 
146000000     -3705.64    3477.7548    12939.966   -1005.1325    8188.5273    310.10003    15404 
147000000    -3756.065    3641.6495    13059.136   -940.98368    8338.6981    312.95588    15407 
148000000   -3827.1351    3568.7294    12843.165   -875.17363    8271.0382    307.78026    15396 
149000000   -3780.0507    3544.0819    12887.007   -997.31202    8321.4446    308.83091    15395 
150000000   -3867.1003    3468.1759    12968.571   -970.45183     8305.728    310.78554    15386 
151000000   -3901.9915    3295.5262     13146.84   -1029.6834    8227.2012    315.05767    15416 
152000000   -3844.5183    3245.9383    12789.203   -1055.1419    8145.5986    306.48707    15400 
153000000   -3838.5512    3398.1765    12983.427   -1000.6788    8237.4065    311.14157    15407 
154000000   -3753.3286    3493.6791    13006.762   -948.99736     8196.005    311.70078    15395 
155000000   -3839.8662    3347.6955    13016.569    -1012.155    8199.7167     311.9358    15395 
156000000   -3811.4318    3283.5028    13060.263   -1083.2785    8178.2131     312.9829    15408 
157000000    -3901.344    3341.7311     12915.46   -948.03351    8191.1087    309.51275    15405 
158000000   -3813.4304    3371.1681    12851.839   -1025.1282    8209.7267    307.98813    15418 
159000000    -3786.776    3567.2756    12969.784   -896.62493    8250.6766    310.81461    15404 
160000000   -3789.5541    3438.8333    13016.197   -1010.5866     8238.974    311.92687    15416 
161000000    -3970.932    3116.5237    12929.571   -1140.9249    8228.3806    309.85093    15441 
162000000   -3762.4065    3440.9852    13061.669   -973.79542    8177.1871    313.01659    15391 
163000000    -3859.469    3294.7702     12825.01    -1093.831    8248.0703    307.34517    15433 
164000000   -3821.6247    3358.0457    13058.065   -1063.7583    8243.4287    312.93022    15418 
165000000   -3802.2825    3410.8656    12920.302    -1071.584    8284.7321    309.62881    15417 
166000000   -3760.7191    3510.2823    13069.261   -1020.0905     8291.092    313.19853    15413 
167000000   -3821.8961    3444.7705    13006.086   -1027.8391    8294.5057    311.68457    15407 
168000000   -3860.0234     3378.327    13111.172   -956.31589    8194.6663    314.20291    15423 
169000000   -3861.3531    3354.3998    12928.434   -1019.1169    8234.8698    309.82369    15417 
170000000   -3808.2402    3460.6989     12884.11   -1023.3946    8292.3337    308.76149    15405 
171000000   -3679.3684    3595.0037     12924.78   -923.00469    8197.3768    309.73611    15391 
172000000   -3754.4755    3387.7842    12844.711   -1059.5188    8201.7785    307.81731    15431 
173000000   -3751.1297    3470.0793    12932.847   -990.57845    8211.7875    309.92945    15379 
174000000   -3816.1706    3493.5777    13007.113   -935.75261    8245.5009    311.70919    15398 
175000000   -3876.9611    3396.1438    12828.127   -970.74277    8243.8477    307.41987    15421 
176000000   -3802.6172    3545.0147    12859.665   -833.00465    8180.6366    308.17566    15365 
177000000   -3841.0753    3497.2977    12839.151   -992.81007     8331.183    307.68405    15409 
178000000   -3913.2916    3290.2526    12857.457   -975.37768    8178.9218    308.12276    15400 
179000000   -3924.4935    3280.9628    12948.583   -1021.0284    8226.4847    310.30654    15411 
180000000   -3836.8639    3440.6716    12869.431    -989.4448    8266.9803    308.40971    15408 
181000000   -3824.0159    3456.4193    12872.203   -996.81497    8277.2502    308.47612    15407 
182000000   -3737.1547    3575.7606    12759.964     -985.179    8298.0943    305.78637    15401 
183000000   -3777.9689    3536.5847    12844.275    -928.4518    8243.0055    307.80684    15410 
184000000   -3824.5029    3409.1673    12927.997   -1003.2793    8236.9496     309.8132    15401 
185000000   -3928.8092    3600.4344    13064.694   -960.79763    8490.0413    313.08908    15421 
186000000    -3823.768    3360.3735     12777.16    -992.7576    8176.8991    306.19847    15424 
187000000   -3862.6982    3391.8692    12895.042   -1107.5752    8362.1426    309.02346    15432 
188000000   -3743.4583    3571.7852      12875.3   -919.35357    8234.5971    308.55034    15394 
189000000    -3793.984    3548.0791    12941.025   -927.44434    8269.5075    310.12541    15398 
190000000   -3866.3809    3527.7098     12966.19   -1028.3911    8422.4819    310.72849    15412 
191000000   -3826.7964    3476.2911    12887.656    -961.7041    8264.7915    308.84646    15402 
192000000   -3913.4771     3341.291    12920.118   -958.67682    8213.4449    309.62438    15413 
193000000   -3803.0728     3462.925    12879.795   -992.70968    8258.7075    308.65807    15407 
194000000   -3865.9995    3475.4368    12808.613   -844.53495    8185.9713    306.95223    15389 
195000000   -3737.8973    3661.0431    12947.451   -962.63562     8361.576     310.2794    15419 
196000000   -3832.3568    3493.1863    12935.607   -955.80778    8281.3509    309.99558    15423 
197000000    -3931.667    3535.8599    12854.772   -934.45948    8401.9864    308.05841    15413 
198000000   -3854.9286    3353.4127    12950.537    -1035.752    8244.0933    310.35337    15418 
199000000   -3810.6151    3395.7692    12878.509   -1041.5242    8247.9085    308.62726    15408 
200000000   -3788.6988    3431.8737     12963.22   -1001.2388    8221.8113    310.65731    15416 
201000000   -3754.6833    3633.7164    12855.945    -934.8337    8323.2334    308.08652    15393 
202000000   -3882.3236    3242.5782    12903.781    -1115.425    8240.3268    309.23288    15445 
203000000   -3889.9171    3363.4375    13093.123   -1037.0086    8290.3632    313.77037    15415 
204000000    -3874.507    3291.7198    12977.959   -1017.3195    8183.5463    311.01053    15411 
205000000      -3803.2    3325.6179    12973.633   -1030.8286    8159.6466    310.90685    15410 
206000000   -3893.2513    3387.8963    12945.996   -998.06534     8279.213    310.24453    15406 
207000000   -3753.0612    3336.2569    13091.679   -1108.8145    8198.1326    313.73577    15396 
208000000   -3914.2147    3219.3943     12917.09   -1109.0849    8242.6939    309.55183    15435 
209000000   -3846.5986    3257.4344    13128.218   -1108.1691    8212.2021    314.61142    15412 
210000000   -3786.7132    3487.5382    12821.497   -998.57335    8272.8248    307.26099    15397 
211000000   -3855.0077    3279.9268    12906.912   -1104.2663    8239.2008    309.30792    15429 
212000000   -3837.9948    3560.0663    12920.207   -943.90643    8341.9675    309.62653    15385 
213000000   -3749.8663    3746.4889    12987.686   -812.96868    8309.3239    311.24361    15371 
214000000   -3734.1206    3533.0666    12902.564   -1036.8439    8304.0311    309.20372    15401 
215000000   -3789.9838     3685.199    12867.902   -839.27874    8314.4616    308.37305    15385 
216000000   -3808.7271    3314.9235    12953.059   -1064.8801    8188.5306     310.4138    15418 
217000000   -3881.3615    3385.0084    12989.204    -977.7693    8244.1392    311.28001    15406 
218000000   -3769.1915    3625.4229    12904.778   -891.55219    8286.1666    309.25678    15389 
219000000   -3819.1837    3444.4092    12973.264   -979.93475    8243.5276    310.89801    15407 
220000000   -3828.5329    3474.6068    13037.822    -955.7692    8258.9089     312.4451    15408 
221000000   -3881.2231    3345.4445     12856.13   -984.13975    8210.8073    308.09095    15409 
222000000   -3796.6122    3543.6896    13034.039   -1006.5306    8346.8324    312.35445    15411 
223000000   -3765.4081    3404.5154    12914.996   -1052.2704    8222.1939    309.50164    15425 
224000000   -3929.6059    3402.5502    12874.291   -1078.1979     8410.354    308.52616    15436 
225000000   -3767.2265     3295.813     13050.37    -1049.818    8112.8575    312.74582    15395 
226000000   -3874.8781    3454.9094    12901.966   -944.77166    8274.5592    309.18938    15401 
227000000   -3764.5347    3611.2236    12837.337   -974.08928    8349.8476    307.64058    15395 
228000000    -3832.685    3637.8214    13021.694   -882.20225    8352.7087    312.05861    15401 
229000000   -3805.1143    3545.8634     12885.17   -931.77521     8282.753    308.78687    15391 
230000000   -3893.5645    3373.4036     12994.39   -1034.2342    8301.2023    311.40428    15419 
231000000    -3788.625     3423.953    13001.141   -1075.8915    8288.4695    311.56606    15412 
232000000   -3798.0477    3473.0777    12960.778   -987.90089    8259.0263    310.59879    15384 
233000000     -3819.05    3359.5001    12796.225   -1008.4681    8187.0181    306.65534    15401 
234000000   -3833.7872    3509.5283    12965.945   -950.12247     8293.438    310.72262    15390 
235000000   -3839.9855     3419.511    13094.079   -1031.1131    8290.6096    313.79329    15397 
236000000   -3840.7343    3323.7483      12825.2   -1060.9127    8225.3953    307.34973    15412 
237000000    -3690.209    3471.4607    13074.623   -971.83317    8133.5028    313.32704    15395 
238000000   -3760.3272    3611.4487    12812.587   -878.04438    8249.8202    307.04747    15384 
239000000   -3765.0955    3410.6109    12966.947   -1025.5155    8201.2218    310.74662    15425 
240000000   -3887.6323     3258.141    12888.781   -1085.4622    8231.2355    308.87341    15428 
241000000   -3873.2645      3281.96    13008.287   -1100.4878    8255.7123    311.73733    15420 
242000000   -3784.4448    3546.3255     12935.51   -982.01339    8312.7836    309.99324    15399 
243000000   -3786.0244    3388.1769    13111.272   -1087.8757    8262.0769    314.20529    15408 
244000000   -3850.6116    3390.5705    12896.992   -1024.3429     8265.525    309.07019    15419 
245000000   -3882.1752    3361.0791    12951.195   -974.72674     8217.981    310.36914    15431 
246000000   -3811.7248    3385.0495    12781.383   -1050.9699    8247.7442    306.29968    15396 
247000000   -3840.7181    3482.3801    13108.102   -917.04713    8240.1453    314.12932    15383 
248000000   -3768.1848    3591.6095     12962.19   -997.94289    8357.7372    310.63262    15401 
249000000   -3758.0052    3424.4999     12819.33   -1047.2212    8229.7263    307.20905    15399 
250000000   -3761.5027    3498.4653    13006.829     -918.608     8178.576    311.70238    15389 
251000000   -3873.3499    3294.9499    12903.993   -968.74481    8137.0446    309.23795    15398 
252000000   -3788.9033    3553.3237    12828.607   -906.20556    8248.4326    307.43137    15396 
253000000   -3912.4964    3251.7964    12916.933   -1044.3405    8208.6334    309.54806    15398 
254000000   -3790.5874    3334.8765    12876.126   -1144.6681     8270.132    308.57014    15411 
255000000   -3861.0272    3377.3555    12999.008   -984.85336    8223.2361    311.51496    15409 
256000000   -3773.0792    3462.4885    12816.557   -984.61203    8220.1797    307.14259    15397 
257000000   -3781.2428    3583.0593    12866.393   -861.14489    8225.4469     308.3369    15383 
258000000   -3778.5159     3675.646     12995.15    -872.2798    8326.4417    311.42249    15377 
259000000   -3815.9326    3452.1244    12986.446   -951.78016    8219.8372    311.21391    15401 
260000000   -3818.2996    3562.0253    12899.938   -912.13438    8292.4594    309.14079    15389 
261000000   -3882.7126    3434.2074    12994.542   -967.98086    8284.9008    311.40794    15401 
262000000   -3822.8809    3512.1807    12881.357   -1024.0478    8359.1094     308.6955    15395 
263000000   -3839.8825    3450.1156    12863.793   -987.41555    8277.4137     308.2746    15404 
264000000    -3851.036    3494.4115    12968.559   -970.66893    8316.1165    310.78524    15411 
265000000    -3831.968    3424.5889     12917.05   -946.13645    8202.6933    309.55086    15403 
266000000   -3865.0404     3345.703    12908.192   -955.49211    8166.2355    309.33858    15404 
267000000   -3806.4204    3487.6334    12995.507   -916.46084    8210.5146    311.43104    15389 
268000000   -3787.1004    3489.6152    12960.931   -1027.3551    8304.0707    310.60244    15398 
269000000   -3728.7436    3548.2199    12873.767   -917.77691    8194.7404    308.51362    15390 
270000000   -3820.0152    3214.0024    13100.336   -1124.2166    8158.2343    313.94322    15416 
271000000   -3849.9166    3443.3949    12973.141   -1027.7005    8321.0121    310.89507    15408 
272000000   -3725.7516    3483.2752    12976.644   -999.98675    8209.0136    310.97902    15413 
273000000   -3814.0941    3464.3749    12850.747   -1039.3114    8317.7805    307.96195    15403 
274000000   -3935.5976    3624.9092    13041.164   -851.53862    8412.0455    312.52521    15398 
275000000   -3851.4987    3378.1343    12986.518   -974.83798     8204.471    311.21564    15411 
276000000   -3778.1805    3481.5862    12988.226   -988.66446    8248.4312    311.25656    15386 
277000000   -3737.4328    3697.3349    12911.155   -882.35689    8317.1245     309.4096    15377 
278000000   -3820.7286    3551.3603    12953.441     -833.727    8205.8159    310.42295    15395 
279000000   -3819.4873    3416.6848    12752.712   -1027.3409     8263.513    305.61259    15403 
280000000   -3803.3619    3419.8419    12982.751   -991.35482    8214.5586    311.12536    15402 
281000000   -3800.2462    3409.2938    12954.108   -1029.7656    8239.3056    310.43895    15414 
282000000   -3816.2623    3543.4967    12984.292   -994.95437    8354.7134    311.16229    15407 
283000000   -3788.0572    3423.8787     13027.22   -1020.0502    8231.9862    312.19105    15403 
284000000   -3818.3971    3667.4819    12880.819   -887.39581    8373.2749    308.68261    15378 
285000000   -3687.3531     3640.047    12903.059   -933.58921    8260.9893    309.21559    15410 
286000000   -3836.7019    3389.7738    12940.989   -999.66512    8226.1409    310.12456    15384 
287000000   -3845.5473    3399.9244    12804.637   -1037.6133    8283.0849    306.85693    15418 
288000000   -3880.0178    3389.7904    12966.364   -988.64676     8258.455    310.73267    15381 
289000000   -3839.1466    3384.5689    12949.249   -1039.3993    8263.1148    310.32249    15421 
290000000    -3731.805    3481.6198    13016.677   -999.64196    8213.0667    311.93839    15387 
291000000   -3817.0801    3359.4598    12946.481   -1048.1598    8224.6997    310.25616    15423 
292000000   -3812.7363    3585.3315    12978.667   -887.07981    8285.1476     311.0275    15391 
293000000   -3842.3753    3421.2757    12928.016   -1054.4253    8318.0763    309.81366    15415 
294000000   -3772.9669    3570.0879    12870.559   -1015.7917    8358.8465    308.43674    15413 
295000000   -3835.9549    3456.4319    12933.152   -1064.2054    8356.5922    309.93675    15402 
296000000   -3855.3116    3438.9837    12932.429   -1009.1743    8303.4696    309.91941    15411 
297000000   -3798.7521    3450.0326    12975.894    -1100.083    8348.8677    310.96104    15444 
298000000   -3789.5624    3391.4292    13132.541   -1085.5769    8266.5684    314.71501    15422 
299000000    -3849.353    3590.2801    12940.181   -986.74412    8426.3772     310.1052    15399 
300000000   -3677.3676    3748.1905    13030.332   -937.77638    8363.3345    312.26562    15391 
301000000   -3669.8681    3689.1744    13111.479   -921.26738    8280.3099    314.21028    15396 
302000000   -3782.2532    3608.6794    12930.103   -874.28181    8265.2144    309.86368    15375 
303000000   -3814.3686    3331.4853    12912.221   -1060.8883    8206.7422    309.43513    15407 
304000000   -3845.7266    3245.6394    12855.802   -1095.5309    8186.8968     308.0831    15436 
305000000    -3841.311    3429.4693    12733.582   -937.18348    8207.9638    305.15414    15397 
306000000    -3833.884    3385.5821    12949.648   -947.05599    8166.5222    310.33207    15409 
307000000   -3884.4347     3375.298    13033.477   -1062.0002    8321.7329    312.34098    15419 
308000000   -3723.9924    3579.7851    12899.168   -972.15976    8275.9372    309.12234    15390 
309000000   -3835.1594    3402.8114     12909.13   -964.06319     8202.034    309.36106    15398 
310000000   -3920.3201    3386.8018    12949.858   -980.94007    8288.0619     310.3371    15399 
311000000   -3860.7524    3304.7587    12965.624   -1059.9212    8225.4323    310.71491    15412 
312000000   -3864.4615    3307.6755    13010.384   -1026.8322    8198.9692    311.78758    15403 
313000000   -3879.6117    3489.0662    13105.924   -1017.4285    8386.1063    314.07715    15399 
314000000   -3832.9178    3369.2509    12877.279   -1020.1692    8222.3378    308.59778    15397 
315000000   -3878.0128    3524.7082    13085.091    -987.0072    8389.7281    313.57788    15421 
316000000   -3861.3795    3474.6514    12819.254   -971.17372    8307.2046    307.20724    15405 
317000000   -3847.5239    3507.7692    13165.359   -835.01911    8190.3122    315.50146    15378 
318000000   -3840.0074    3286.6013    13061.762   -1079.3247    8205.9334    313.01883    15404 
319000000   -3788.3689     3237.815    12963.176   -1054.8466    8081.0305    310.65625    15411 
320000000   -3780.0871    3463.7114    12925.652   -999.77265    8243.5712    309.75701    15410 
321000000    -3818.278    3508.9873    12940.175   -908.42933    8235.6946    310.10506    15403 
322000000   -3940.0201    3350.0581    12935.961    -970.3604    8260.4386    310.00406    15405 
323000000   -3804.9034    3511.6478    12918.315   -915.01764    8231.5688    309.58117    15401 
324000000   -3906.3162    3371.3566    12877.242   -890.12335    8167.7962     308.5969    15402 
325000000   -3817.2559    3389.9069    12787.362   -989.17172    8196.3345    306.44296    15405 
326000000   -3784.6341    3420.3326    13005.245   -1043.9768    8248.9434    311.66442    15403 
327000000   -3755.0553     3507.151    12839.539   -921.59977     8183.806    307.69335    15388 
328000000   -3814.9668    3391.3708     12861.91   -1001.7084     8208.046    308.22947    15420 
329000000    -3853.249    3268.6156    12777.074   -1124.0968    8245.9614    306.19641    15427 
330000000   -3821.0064    3345.1863    13081.714    -1015.584    8181.7766    313.49696    15415 
331000000   -3793.8993    3289.9465    12981.017   -1054.6895    8138.5353    311.08381    15410 
332000000   -3726.1044    3421.9783     12793.62   -993.34677    8141.4294    306.59292    15400 
333000000   -3731.8811    3358.4549    13006.565     -1161.43     8251.766    311.69606    15426 
334000000   -3783.7377    3555.9688    12819.186   -890.18689    8229.8933    307.20561    15374 
335000000   -3844.8277    3437.4559     13016.78   -974.55588    8256.8395    311.94084    15416 
336000000   -3809.9949    3581.4885    13048.739   -853.91057     8245.394    312.70674    15410 
337000000   -3782.2501    3446.9752     12822.56   -1033.6712    8262.8965    307.28645    15410 
338000000   -3819.7534     3353.037    12930.212   -1007.4043    8180.1947    309.86628    15396 
339000000    -3817.235    3595.9713    12871.508   -950.32121    8363.5276    308.45947    15396 
340000000   -3812.3198    3280.9777     13054.14   -1028.5338    8121.8313    312.83615    15402 
341000000   -3926.1892    3116.5486    12854.392   -1182.0658    8224.8036    308.04929    15421 
342000000    -3844.939    3297.6393    12954.691   -1162.1588    8304.7371    310.45293    15424 
343000000   -3813.2362     3480.577    13003.147    -972.8862    8266.6994    311.61414    15408 
344000000   -3853.2447    3467.0757    12868.102    -1052.068    8372.3883    308.37786    15430 
345000000    -3806.355    3389.3263     12820.06   -1007.4423    8203.1236    307.22654    15392 
346000000   -3831.2218    3431.1258    12921.292   -1030.1626    8292.5102    309.65252    15408 
347000000   -3778.8176     3714.781    12803.014   -909.70636     8403.305    306.81804    15399 
348000000   -3849.1944     3528.303      12858.4   -940.81351     8318.311    308.14534    15396 
349000000   -3828.8485    3343.4607    12973.041   -936.58952    8108.8987    310.89267    15389 
350000000   -3854.5844    3388.7316    12865.804   -964.95073    8208.2667    308.32277    15393 
351000000    -3877.218    3466.0031    13064.422   -1010.2305    8353.4517    313.08256    15400 
352000000   -3875.7138    3413.0892     12982.84   -993.51594     8282.319    311.12749    15413 
353000000   -3971.1609    3100.7937     12935.46   -1078.3628    8150.3174    309.99204    15424 
354000000   -3896.4958    3531.6879    12932.678   -885.90373    8314.0874    309.92538    15389 
355000000   -3847.5711    3626.6994    13031.364   -750.78842    8225.0589    312.29035    15380 
356000000   -3810.1374    3430.8304    12888.747   -961.81109    8202.7789    308.87259    15410 
357000000   -3816.5013    3468.7027    12914.947   -914.76602    8199.9701    309.50046    15383 
358000000   -3822.8656    3486.9746    12954.834   -912.05811    8221.8983    310.45634    15413 
359000000   -3859.1333    3352.7967     13004.34   -1050.4232    8262.3532    311.64273    15418 
360000000   -3865.2171    3605.1832    12878.433    -908.8172    8379.2175    308.62543    15387 
361000000   -3885.1159    3254.3101    13045.972   -1055.0037    8194.4297    312.64043    15397 
362000000   -3747.6819    3384.2839    13104.108   -1073.9571    8205.9229    314.03362    15425 
363000000   -3786.2521    3551.6706    12921.963   -991.12247    8329.0452     309.6686    15394 
364000000   -3820.3429    3350.0211    12942.672   -1102.0634    8272.4274     310.1649    15429 
365000000   -3748.9785    3428.5234    12815.036    -1085.748    8263.2499    307.10616    15410 
366000000   -3764.1205    3352.6712    12999.553   -1047.0055    8163.7972      311.528    15393 
367000000   -3824.7387    3463.5738    12939.791   -962.93226    8251.2447    310.09584    15406 
368000000   -3900.8855    3097.0603     12969.32   -1014.5778    8012.5235    310.80349    15409 
369000000   -3852.5983      3408.38    12950.743   -985.97013    8246.9484     310.3583    15408 
370000000   -3826.8404    3487.8523    12888.023   -992.10419    8306.7969    308.85525    15400 
371000000   -3757.6657    3501.0918     12928.18   -951.24558    8210.0031    309.81759    15390 
372000000   -3877.8853    3419.2007    12957.062   -974.07799    8271.1639    310.50974    15422 
373000000   -3884.7024    3205.2585    13022.321   -1040.2875    8130.2484    312.07364    15406 
374000000   -3789.0117    3484.6885    12800.463   -959.62971    8233.3299    306.75691    15389 
375000000   -3753.0427    3586.3023    12964.248   -866.83736    8206.1824    310.68195    15380 
376000000   -3851.8327    3591.7775    13003.266   -879.93691    8323.5471    311.61699    15398 
377000000     -4012.69    3227.8263    12955.688   -1006.8541    8247.3704    310.47681    15423 
378000000   -3792.3708    3253.9288    12805.559   -1100.7208    8147.0204    306.87904    15419 
379000000   -3751.7462    3393.1798    12949.399   -1039.4628    8184.3889     310.3261    15410 
380000000   -3770.3767    3485.2502    12884.509   -1000.4111     8256.038    308.77103    15403 
381000000   -3809.8486     3459.998    13074.608   -952.62451    8222.4711    313.32668    15386 
382000000   -3800.0949    3486.5619     13040.15   -1014.0492     8300.706     312.5009    15417 
383000000   -3808.7114    3434.5675    13021.701   -1012.3995    8255.6783    312.05877    15418 
384000000    -3846.903    3511.0805    12951.174   -923.09935    8281.0829    310.36864    15385 
385000000   -3787.7549    3391.0979    12935.788   -1046.9218    8225.7746    309.99992    15415 
386000000   -3725.8753    3413.1132    13027.974   -1047.3864    8186.3749    312.20911    15417 
387000000   -3785.6385    3471.2969    13034.867   -960.48521    8217.4206     312.3743    15409 
388000000   -3848.5061     3417.774     13070.15    -988.0768    8254.3569    313.21983    15417 
389000000   -3924.9939    3317.2314    12908.596   -1020.7549    8262.9802    309.34827    15426 
390000000   -3741.2538    3557.7933    13047.439   -1020.3234    8319.3705    312.67559    15390 
391000000    -3619.789    3590.6202    12937.113   -976.72707    8187.1363    310.03167    15379 
392000000    -3870.368    3338.8193     12924.36   -993.16212    8202.3494    309.72605    15401 
393000000   -3816.2837    3444.3408    12880.373   -1025.7909    8286.4154    308.67192    15399 
394000000   -3814.0529    3584.4956    13019.859   -940.91965    8339.4682    312.01465    15407 
395000000   -3779.3816    3411.2669    12887.188   -1028.6827    8219.3311    308.83524    15402 
396000000   -3840.2753    3453.8852    12957.248   -937.74615    8231.9066     310.5142    15414 
397000000   -3899.5254    3333.7158    12971.674   -1047.4857    8280.7268    310.85992    15421 
398000000   -3842.6545    3362.1957    12877.573    -1042.872    8247.7222    308.60482    15420 
399000000   -3759.1656    3376.8144    12865.178   -980.69625    8116.6763    308.30778    15415 
400000000   -3863.8919    3366.5121    12822.071   -1050.2953    8280.6992    307.27474    15428 
Loop time of 163463 on 28 procs for 400000000 steps with 14000 atoms

Performance: 5285.616 ns/day, 0.005 hours/ns, 2447.044 timesteps/s
99.5% CPU use with 28 MPI tasks x no OpenMP threads

MPI task timing breakdown:
Section |  min time  |  avg time  |  max time  |%varavg| %total
---------------------------------------------------------------
Pair    | 19250      | 23886      | 27436      |1329.3 | 14.61
Bond    | 4734       | 6426.3     | 8908.2     |2304.1 |  3.93
Neigh   | 53014      | 53653      | 54552      | 184.4 | 32.82
Comm    | 37678      | 45682      | 52586      |1895.5 | 27.95
Output  | 0.82915    | 0.83024    | 0.83127    |   0.1 |  0.00
Modify  | 21109      | 21214      | 21404      |  51.7 | 12.98
Other   |            | 1.26e+04   |            |       |  7.71

Nlocal:    500 ave 532 max 464 min
Histogram: 1 3 1 4 3 6 3 3 2 2
Nghost:    819.179 ave 1184 max 581 min
Histogram: 3 6 5 3 3 0 1 5 1 1
Neighs:    6880.61 ave 8170 max 5564 min
Histogram: 2 1 5 1 7 2 1 4 2 3

Total # of neighbors = 192657
Ave neighs/atom = 13.7612
Ave special neighs/atom = 8.83
Neighbor list builds = 79940641
Dangerous builds = 0
System init for write_restart ...
Total wall time: 45:24:28
