LAMMPS (5 Jun 2019)
Reading restart file ...
  restart file = 5 Jun 2019, LAMMPS = 5 Jun 2019
  restoring atom style full from restart
  orthogonal box = (-420 -420 -420) to (420 420 420)
  2 by 2 by 7 MPI processor grid
  restoring pair style lj/cut from restart
  restoring bond style hybrid from restart
  restoring angle style cosine from restart
  14000 atoms
  15575 bonds
  13600 angles
Finding 1-2 1-3 1-4 neighbors ...
  special bond factors lj:   0          1          1         
  special bond factors coul: 0          0          0         
  3 = max # of 1-2 neighbors
  6 = max # of 1-3 neighbors
  17 = max # of 1-4 neighbors
  56 = max # of special neighbors
  special bonds CPU = 0.28811 secs
  read_restart CPU = 0.494645 secs
Finding 1-2 1-3 1-4 neighbors ...
  special bond factors lj:   0          1          1         
  special bond factors coul: 0          0          0         
  3 = max # of 1-2 neighbors
  6 = max # of 1-3 neighbors
  17 = max # of 1-4 neighbors
  38088 = # of 1-3 neighbors before angle trim
  27200 = # of 1-3 neighbors after angle trim
  56 = max # of special neighbors
  special bonds CPU = 0.00248921 secs
Neighbor list info ...
  update every 1 steps, delay 1 steps, check yes
  max neighbors/atom: 2000, page size: 100000
  master list distance cutoff = 26.9
  ghost atom cutoff = 26.9
  binsize = 13.45, bins = 63 63 63
  1 neighbor lists, perpetual/occasional/extra = 1 0 0
  (1) pair lj/cut, perpetual
      attributes: half, newton on
      pair build: half/bin/newton
      stencil: half/bin/3d/newton
      bin: standard
Setting up Verlet run ...
  Unit style    : real
  Current step  : 400000000
  Time step     : 0.1
Per MPI rank memory allocation (min/avg/max) = 1.103 | 5.466 | 16.84 Mbytes
Step Temp E_pair E_mol TotEng Press 
400000000     307.5378   -3009.4969    6589.6969    16413.248  -0.11854422 
400010000    308.66773   -2983.5542    6573.5757     16470.22  0.023904179 
Loop time of 8.62084 on 28 procs for 10000 steps with 14000 atoms

Performance: 10.022 ns/day, 2.395 hours/ns, 1159.979 timesteps/s
99.7% CPU use with 28 MPI tasks x no OpenMP threads

MPI task timing breakdown:
Section |  min time  |  avg time  |  max time  |%varavg| %total
---------------------------------------------------------------
Pair    | 0.00033428 | 0.43044    | 4.6902     | 176.7 |  4.99
Bond    | 0.0005172  | 0.11199    | 1.0552     |  79.5 |  1.30
Neigh   | 0.033068   | 0.034465   | 0.037559   |   0.8 |  0.40
Comm    | 0.0019843  | 2.3939     | 6.192      | 164.7 | 27.77
Output  | 8.539e-05  | 0.00076952 | 0.0012376  |   0.0 |  0.01
Modify  | 0.00095186 | 0.23942    | 2.2443     | 115.5 |  2.78
Other   |            | 5.41       |            |       | 62.75

Nlocal:    500 ave 4716 max 0 min
Histogram: 24 1 0 0 0 0 1 1 0 1
Nghost:    332.071 ave 2486 max 0 min
Histogram: 18 5 2 0 0 1 0 1 0 1
Neighs:    5445.14 ave 56898 max 0 min
Histogram: 24 1 0 0 0 0 1 1 0 1

Total # of neighbors = 152464
Ave neighs/atom = 10.8903
Ave special neighs/atom = 7.468
Neighbor list builds = 7
Dangerous builds = 0
4000 atoms in group rxnSites
Neighbor list info ...
  update every 1 steps, delay 1 steps, check yes
  max neighbors/atom: 2000, page size: 100000
  master list distance cutoff = 26.9
  ghost atom cutoff = 26.9
  binsize = 13.45, bins = 63 63 63
  2 neighbor lists, perpetual/occasional/extra = 1 1 0
  (1) pair lj/cut, perpetual
      attributes: half, newton on
      pair build: half/bin/newton
      stencil: half/bin/3d/newton
      bin: standard
  (2) fix bond/create/random, occasional, copy from (1)
      attributes: half, newton on
      pair build: copy
      stencil: none
      bin: none
Setting up Verlet run ...
  Unit style    : real
  Current step  : 0
  Time step     : 25
Per MPI rank memory allocation (min/avg/max) = 17.8 | 18.16 | 20.14 Mbytes
Step E_pair PotEng KinEng E_bond E_angle Temp Bonds 
       0   -2983.5542    3590.0215    12880.198   -1567.5427    8141.1184    308.66773    15575 
 1000000   -3043.6024     3531.792    12719.543   -1601.5539    8176.9483     304.8177    15568 
 2000000   -3032.3502    3680.3961    12997.881   -1478.2806    8191.0268    311.48795    15573 
 3000000   -2961.4021    3661.1776    12981.401    -1525.398    8147.9777      311.093    15556 
 4000000   -2881.7951    3770.4977    12839.911   -1552.4182     8204.711    307.70227    15574 
 5000000   -2985.3252    3480.7687    12959.036   -1571.7992    8037.8931    310.55705    15595 
 6000000   -2988.2031    3632.1616    12985.573   -1586.4985    8206.8632    311.19298    15583 
 7000000   -2940.8463    3736.3718    12977.177   -1489.8604    8167.0785    310.99177    15562 
 8000000   -3029.0297    3592.5872    12876.634    -1637.227    8258.8439    308.58232    15593 
 9000000   -2852.7218     3784.632    12779.556   -1520.0765    8157.4304    306.25589    15569 
10000000   -2933.6288    3739.8513    12881.374   -1564.8104    8238.2905    308.69592    15594 
11000000   -2971.0721    3709.6216    12821.409   -1515.3618    8196.0555    307.25887    15576 
12000000   -3056.3697    3573.3087    12943.803    -1627.393    8257.0713    310.19199    15575 
13000000   -3001.5933     3555.193    12908.162   -1575.8454    8132.6317    309.33788    15571 
14000000   -3034.4071    3459.1704    12970.398   -1591.9681    8085.5456    310.82933    15574 
15000000   -2974.4764    3527.8632    13140.246   -1590.8554     8093.195    314.89964    15585 
16000000   -2927.4941    3455.9649    12846.287   -1658.8808    8042.3398    307.85507    15568 
17000000   -3016.3095    3580.9615    12899.786   -1603.5132    8200.7842    309.13713    15561 
18000000   -3033.6784    3626.8746    13014.965   -1508.5576    8169.1106    311.89734    15567 
19000000   -2912.9421     3664.372    12967.639   -1486.3783    8063.6925     310.7632    15565 
20000000   -2977.7713    3533.6897    12851.941   -1620.0205    8131.4815    307.99056    15576 
21000000   -3053.0327    3574.4314    12959.259   -1525.0218     8152.486    310.56238    15572 
22000000   -2975.1083    3515.2348    12934.972   -1608.2992    8098.6423    309.98036    15577 
23000000    -3078.493    3518.0338    12720.292   -1629.6079    8226.1347    304.83565    15574 
24000000   -2944.6877    3673.3673     13003.62   -1560.2873    8178.3422    311.62547    15586 
25000000   -2990.0582    3647.6318    12862.659   -1561.2144    8198.9044    308.24742    15573 
26000000   -2953.5711     3698.237    12871.307   -1600.3141    8252.1222    308.45465    15571 
27000000    -2987.135    3595.8688    12901.681   -1576.4117    8159.4154    309.18254    15579 
28000000    -2934.084    3551.1005    12851.318   -1556.5196    8041.7041    307.97564    15570 
29000000   -2915.6947    3750.2719    12939.193   -1504.7318    8170.6983    310.08152    15588 
30000000   -2994.4655    3548.9869    12973.805   -1612.5141    8155.9665    310.91097    15585 
31000000   -3126.1686    3427.9144    12736.314    -1588.421    8142.5041    305.21962    15578 
32000000   -3064.2082    3514.5771    12777.471   -1594.3896    8173.1749    306.20593    15561 
33000000   -3032.3995     3547.958    13013.061   -1534.8447    8115.2022    311.85172    15561 
34000000   -2922.0597      3581.45    13021.483   -1557.5092    8061.0189    312.05355    15579 
35000000   -3049.6504    3666.3702    12897.856   -1476.8209    8192.8416     309.0909    15577 
36000000   -2934.0854    3677.6912    12865.234   -1620.3272    8232.1038    308.30912    15580 
37000000   -3028.6371    3573.3333    13015.944   -1508.6597    8110.6302    311.92081    15552 
38000000   -3076.4475    3529.4957    12917.257   -1552.9016    8158.8448    309.55583    15578 
39000000   -3012.0021    3520.0336    13028.081   -1618.9203     8150.956    312.21167    15581 
40000000   -3164.1714    3375.5726    12874.885   -1674.1046    8213.8487     308.5404    15576 
41000000   -3073.8101    3552.4263    12923.065   -1606.6431    8232.8795    309.69502    15571 
42000000   -3129.5776    3625.8518     12905.43   -1423.1452    8178.5745    309.27241    15571 
43000000   -3045.9282    3650.0953    12927.711   -1466.3981    8162.4215    309.80636    15549 
44000000   -3016.1825    3496.0607    12896.289   -1643.3496    8155.5928    309.05335    15585 
45000000   -3044.0332    3674.3141    12827.815   -1485.1564    8203.5037     307.4124    15562 
46000000   -2905.9603    3844.4075    12940.903   -1414.5715    8164.9394    310.12249    15545 
47000000   -3030.5357    3466.7755    12772.468   -1617.2713    8114.5825    306.08604    15587 
48000000   -2959.0458     3442.897    12953.662   -1716.2179    8118.1607    310.42826    15583 
49000000   -2954.5539    3761.1075    12722.723     -1402.22    8117.8814    304.89392    15565 
50000000   -2951.3168    3693.5888    12809.229   -1554.5686    8199.4741    306.96698    15575 
51000000    -3049.591    3849.3245    13001.081   -1422.6838    8321.5993    311.56462    15555 
52000000   -3100.1212    3515.9423    12992.447   -1462.4661    8078.5297    311.35772    15571 
53000000   -3050.5821    3546.7208    13028.319   -1571.5779    8168.8808    312.21736    15582 
54000000   -3003.1644    3556.5968    12860.944   -1633.1038     8192.865    308.20632    15582 
55000000   -3005.4228    3517.2451    12812.339   -1613.6796    8136.3475    307.04152    15594 
56000000   -3030.2456    3595.7882    12980.269   -1500.2205    8126.2543    311.06589    15558 
57000000   -3042.1813    3601.4721    12770.691   -1550.9259    8194.5792    306.04345    15562 
58000000   -2934.0789    3712.8643    12860.655   -1539.6466    8186.5897     308.1994    15557 
59000000     -2961.12     3521.836    12890.174   -1650.7243    8133.6804     308.9068    15584 
60000000   -3049.4661    3490.3821     12891.86   -1667.1197    8206.9679    308.94719    15597 
61000000   -2986.4787    3472.0007    12980.148   -1660.8143    8119.2938    311.06298    15569 
62000000   -2913.1903    3781.4984    13004.279   -1588.2291    8282.9177    311.64128    15594 
63000000   -3046.0241    3492.8893    12901.505   -1614.3881    8153.3015    309.17834    15585 
64000000   -2918.5917    3591.7549    12891.473   -1536.6065    8046.9531    308.93793    15587 
65000000    -2981.814    3776.3495    13091.123   -1531.6598    8289.8234    313.72245    15569 
66000000   -2966.5204    3610.2603     12942.17   -1600.9696    8177.7503    310.15285    15574 
67000000    -3001.816    3553.9501    12941.296   -1471.9335    8027.6996    310.13192    15563 
68000000    -3017.678    3521.2643    13076.636   -1564.2922    8103.2344    313.37526    15590 
69000000   -3036.4869    3492.1842     12936.14   -1641.7184    8170.3894    310.00835    15596 
70000000   -3082.0174    3493.8335    12984.073   -1619.1118    8194.9627    311.15704    15585 
71000000   -3085.5476    3466.6033    12920.554   -1602.0061    8154.1569    309.63484    15590 
72000000   -3004.0113    3497.7784    12930.795    -1563.206    8064.9957    309.88025    15586 
73000000    -2978.177    3536.6581    13023.278   -1589.1399     8103.975    312.09656    15574 
74000000   -3046.1018     3533.153    13095.603   -1567.9153      8147.17    313.82981    15581 
75000000   -2885.9526    3641.1074    13013.512   -1574.0383    8101.0983    311.86253    15597 
76000000   -3000.6051    3375.2286    12897.257   -1624.0007    7999.8343    309.07653    15587 
77000000   -3092.3673    3529.4107     12952.49   -1516.0877    8137.8656    310.40018    15569 
78000000   -2953.9328    3617.8946    12952.415   -1487.5666     8059.394    310.39837    15569 
79000000   -3022.5243    3655.6259    12866.049    -1536.547    8214.6971    308.32865    15562 
80000000    -2900.141    3472.5911    12911.892   -1719.2392    8091.9714    309.42725    15597 
81000000   -2974.3059    3603.8337    12809.352   -1592.3578    8170.4974    306.96994    15561 
82000000   -3009.4016    3572.0632    12945.416   -1529.2036    8110.6684    310.23064    15564 
83000000   -2873.0577    3615.2489    12973.365   -1594.5555    8082.8622    310.90042    15589 
84000000   -2982.4193    3516.2811    12893.076   -1652.9163    8151.6167    308.97635    15588 
85000000    -2932.197    3648.7109    12860.653   -1573.5169    8154.4248    308.19935    15577 
86000000    -2939.928     3823.547    12979.809   -1448.7843    8212.2593    311.05486    15582 
87000000   -2952.8246    3624.4571    12884.371   -1632.2097    8209.4914    308.76772    15589 
88000000   -2916.0598    3738.3167    13050.457   -1544.6821    8199.0586     312.7479    15594 
89000000    -2903.409     3651.133    12856.163    -1603.298      8157.84    308.09174    15573 
90000000   -2917.2906    3802.0085     12897.63   -1531.9632    8251.2623    309.08548    15573 
91000000   -2933.8238    3540.9475    12935.257   -1637.7663    8112.5377    309.98719    15604 
92000000   -2918.1135    3692.7915    12765.785   -1558.8997    8169.8047    305.92587    15580 
93000000   -2835.9734    3839.9713    12903.823   -1440.9289    8116.8736     309.2339    15552 
94000000   -2918.2142     3630.045    12867.935   -1555.3408       8103.6    308.37385    15580 
95000000   -2993.0064    3646.3519    12801.468   -1508.3179    8147.6761      306.781    15560 
96000000   -2946.1451    3559.8366    13155.891   -1586.9779    8092.9596    315.27457    15568 
97000000   -2930.5366    3654.4535    12876.342   -1572.6044    8157.5945    308.57531    15585 
98000000   -2997.8853     3462.294    13000.637   -1698.6446    8158.8239    311.55399    15591 
99000000   -2977.3152    3574.5147    13064.399   -1545.5109    8097.3408    313.08202    15562 
100000000   -3070.4866    3476.3975     12838.17   -1645.4946    8192.3787    307.66054    15587 
101000000    -3050.839     3462.493    12907.837   -1615.7962    8129.1283    309.33009    15580 
102000000   -3018.5337    3442.4361    12919.742   -1681.7187    8142.6884    309.61538    15595 
103000000   -3037.7425    3631.1525    12867.201   -1541.3925    8210.2875    308.35627    15565 
104000000   -3000.0316    3624.3318    13061.948   -1659.4489    8283.8123    313.02328    15589 
105000000   -2979.3581    3546.1718    12882.869   -1623.3892    8148.9191    308.73173    15567 
106000000   -2833.8812    3839.0316    13014.421    -1478.512    8151.4248    311.88431    15576 
107000000   -2828.0557     3698.978    12909.251   -1487.4659    8014.4997    309.36397    15572 
108000000   -2974.8435    3702.8429    12873.472   -1518.1031    8195.7895    308.50654    15583 
109000000    -2971.398    3863.9154    12972.625   -1430.3677    8265.6811    310.88269    15557 
110000000   -2971.8721    3665.5708    12979.167   -1590.3011     8227.744    311.03946    15578 
111000000   -2982.2447    3680.7437    12877.347   -1527.6508    8190.6391    308.59941    15583 
112000000   -2895.6612    3738.5389    12768.388   -1601.8265    8236.0267    305.98825    15585 
113000000   -2917.6358    3703.2381    13034.023   -1574.4068    8195.2807    312.35408    15564 
114000000   -2931.9505    3784.9734    12847.901   -1505.5067    8222.4307    307.89374    15570 
115000000   -2859.3717    3823.7193     12857.76   -1550.7935    8233.8845    308.13002    15585 
116000000   -2970.5388    3817.9794    12851.344   -1499.6465    8288.1647    307.97627    15585 
117000000    -2963.875    3641.4933    13076.521   -1549.0696    8154.4378    313.37251    15578 
118000000   -2939.4548    3476.5361    13007.337   -1654.5093    8070.5002    311.71455    15584 
119000000   -2984.4551    3497.9442    12920.159   -1638.1115    8120.5109    309.62537    15587 
120000000   -2942.7231    3821.1397    12855.947   -1476.4141    8240.2769    308.08656    15579 
121000000   -2994.0504    3578.4973    12943.545   -1611.0971    8183.6449    310.18581    15597 
122000000   -2987.4875    3528.0621    12858.933   -1537.7747    8053.3244    308.15811    15583 
123000000   -3063.2119    3462.0736    12912.636   -1529.2772    8054.5627    309.44509    15564 
124000000   -2993.5118    3624.0673    12863.273   -1533.4608    8151.0399    308.26214    15568 
125000000   -2927.6802    3659.3673    12884.921   -1513.6403    8100.6878    308.78091    15579 
126000000   -2948.4518     3686.208    12908.206    -1584.952    8219.6118    309.33892    15578 
127000000   -2995.6051    3773.2568    12976.364   -1498.1339    8266.9958    310.97229    15562 
128000000   -2936.6306    3676.8265    12986.915   -1566.3186    8179.7757    311.22514    15585 
129000000   -2830.8353    3824.0594    12825.365   -1555.9465    8210.8412    307.35367    15562 
130000000   -2900.1912    3600.7028    12991.479   -1567.5347    8068.4287    311.33453    15591 
131000000   -2878.4622     3758.757    12944.535   -1474.0686    8111.2878    310.20953    15577 
132000000   -2834.5235    3810.8565    12802.763   -1600.5182    8245.8982    306.81203    15583 
133000000   -2912.4208    3667.0287     12987.91   -1527.5028    8106.9523    311.24899    15572 
134000000    -2984.324    3645.8099    12932.932   -1542.2067    8172.3406    309.93147    15574 
135000000   -2981.0349    3556.2104    12943.822   -1580.7977     8118.043    310.19245    15573 
136000000   -2982.5535    3521.4703    12975.458   -1644.6975    8148.7213    310.95059    15603 
137000000   -2874.8897    3579.3685    12981.396   -1582.5148     8036.773    311.09288    15578 
138000000   -2919.9849    3553.7316     12973.13   -1636.0158    8109.7322    310.89479    15594 
139000000   -2808.2993    3701.8573    12755.062   -1595.8336    8105.9902     305.6689    15557 
140000000   -2964.4943     3622.537    12874.272   -1541.9723    8129.0036    308.52572    15572 
141000000   -2916.4566    3480.9729    12852.923     -1543.33    7940.7595     308.0141    15571 
142000000   -2981.8743    3608.2152    12988.528   -1501.0731    8091.1626     311.2638    15562 
143000000   -2912.5808    3729.2593    13115.957   -1478.5196    8120.3597    314.31757    15572 
144000000   -2834.7867    3716.0724    12944.772   -1603.4077    8154.2668    310.21522    15579 
145000000   -2837.0055    3814.8378    12843.175   -1521.9153    8173.7586    307.78049    15577 
146000000   -2912.9399    3892.6231    12875.706   -1453.2064    8258.7694    308.56007    15562 
147000000   -2890.1004    3727.8109    12914.275   -1631.6312    8249.5425    309.48436    15583 
148000000   -2933.3792    3728.0878    12802.041   -1534.6056    8196.0727    306.79474    15584 
149000000   -2998.4162    3534.0653    12811.259   -1627.8179    8160.2994    307.01564    15572 
150000000   -2946.2505    3572.9954    12937.852   -1612.0462     8131.292    310.04938    15584 
151000000   -2984.9625    3859.5352    12902.994   -1377.4959    8221.9936    309.21403    15556 
152000000   -2917.4004    3398.6582    12943.441   -1610.7944     7926.853    310.18332    15582 
153000000   -3043.0741    3500.8936    13106.825   -1514.2997    8058.2675    314.09873    15568 
154000000   -2950.5654    3555.9012    12859.747   -1585.0926    8091.5591    308.17763    15570 
155000000    -2971.996    3572.8046    12761.325   -1579.7345    8124.5351    305.81899    15578 
156000000   -2991.4984    3618.1694    12966.749   -1589.7344    8199.4021    310.74187    15584 
157000000   -2944.0537     3720.981    12967.563   -1584.4781    8249.5129    310.76138    15597 
158000000   -3005.6226    3564.3004    12947.526   -1626.7162    8196.6393    310.28121    15597 
159000000   -2951.2089    3688.3485    12894.397   -1520.4448    8160.0022      309.008    15567 
160000000   -2861.6752    3768.2109    13018.035   -1606.8784    8236.7646    311.97092    15573 
161000000   -2862.8162    3740.6167    12863.318     -1546.48    8149.9128    308.26321    15559 
162000000   -2981.8487    3671.0686    13001.524   -1581.6964    8234.6137    311.57525    15574 
163000000   -2976.9196    3764.0908    12881.685   -1548.9412    8289.9516    308.70336    15552 
164000000   -3008.1479    3661.8387    12821.149   -1562.2193    8232.2059    307.25265    15582 
165000000   -3006.1492    3664.5925    12836.974   -1628.9169    8299.6586    307.63189    15569 
166000000   -2937.9447     3866.363    12983.514   -1543.6823      8347.99    311.14366    15584 
167000000   -2870.5925    3809.4002    12839.934   -1490.4057    8170.3985    307.70281    15552 
168000000   -2836.0848    3890.2409    12816.514   -1425.1289    8151.4546    307.14157    15571 
169000000   -2925.2164     3635.293    12991.702   -1590.4081    8150.9175    311.33986    15579 
170000000   -2946.1969    3593.0111    12893.921   -1626.8379    8166.0458     308.9966    15596 
171000000   -2971.9761    3667.9436    12887.319   -1590.8262    8230.7459    308.83837    15583 
172000000   -3021.5882    3568.4474    13170.672   -1597.6285     8187.664    315.62878    15575 
173000000   -3070.8406    3395.1274    12839.752   -1679.0558    8145.0238    307.69846    15574 
174000000   -2980.6953    3626.5896    12819.215   -1529.6688    8136.9536     307.2063    15574 
175000000   -3048.2084    3592.3616    12919.811    -1606.323    8246.8929    309.61704    15561 
176000000   -2970.0717    3448.2619    12792.307   -1634.0665    8052.4001    306.56147    15580 
177000000   -2998.2455    3680.1154    12969.055   -1510.6293    8188.9902    310.79715    15559 
178000000   -3041.3727    3492.8815      13011.3   -1628.9084    8163.1626    311.80952    15577 
179000000   -2977.8673    3598.2374    13005.264   -1586.8036    8162.9083    311.66487    15583 
180000000   -3025.1602    3632.5042    12925.991   -1621.2735    8278.9379    309.76514    15577 
181000000   -2919.9556    3629.2088    12997.246   -1584.6085    8133.7729    311.47271    15567 
182000000   -2995.1987    3542.2448    12851.086   -1652.7959    8190.2393    307.97008    15580 
183000000   -2913.4295    3672.8344    12893.067   -1619.6199    8205.8838    308.97613    15578 
184000000   -2909.5372    3866.5371    12925.652   -1468.7979    8244.8722    309.75701    15582 
185000000   -2856.6878    3687.4553    12971.338   -1675.1012    8219.2443    310.85186    15585 
186000000    -2962.104    3607.0363    12991.907   -1637.1386    8206.2789    311.34477    15590 
187000000   -2972.0695    3684.1116    12955.268   -1596.7763    8252.9575    310.46674    15590 
188000000   -2871.2536    3751.2967     12808.51    -1516.543    8139.0934    306.94976    15567 
189000000   -2991.3868    3525.2154    13018.746    -1607.494    8124.0961    311.98796    15595 
190000000   -2846.2508    3810.5112    12914.465   -1552.2972    8209.0592    309.48893    15579 
191000000    -2960.784    3690.0492    12972.395   -1493.2247    8144.0579    310.87718    15568 
192000000   -2964.0063    3578.6201    13036.161   -1567.1124    8109.7389    312.40532    15578 
193000000   -2993.7582    3488.5626    12938.735   -1637.3831    8119.7039    310.07054    15568 
194000000    -3001.451    3490.2745     13087.61   -1645.2033    8136.9289    313.63825    15575 
195000000   -2887.7934    3739.9561    12900.883   -1589.2413    8216.9908    309.16344    15572 
196000000   -2906.7563    3654.1402    13034.063   -1604.4295     8165.326    312.35504    15591 
197000000   -2874.0902    3720.2299    13078.238   -1499.0479     8093.368    313.41365    15572 
198000000   -2967.8078    3597.9822    12954.146   -1611.5196    8177.3097    310.43986    15576 
199000000   -2874.4475    3716.0786    12935.522   -1543.0521    8133.5783    309.99353    15574 
200000000   -2902.6636    3928.8305    12831.074   -1383.3278    8214.8218     307.4905    15561 
201000000   -2962.0592    3648.9606    12996.377    -1507.076    8118.0959     311.4519    15571 
202000000   -2908.4403    3752.0702    12966.647   -1490.0704     8150.581    310.73944    15560 
203000000   -2973.4991    3710.8515    12898.858   -1497.4408    8181.7913    309.11491    15566 
204000000   -2932.7874    3886.1056    12921.825   -1412.3304    8231.2234     309.6653    15569 
205000000   -2916.9272    3773.6087    12880.481   -1465.8563    8156.3922    308.67451    15560 
206000000   -2849.6014    3680.9754    12962.911   -1627.2906    8157.8674    310.64989    15573 
207000000   -2895.5049    3767.3831    13047.818   -1503.7448    8166.6327    312.68465    15566 
208000000   -2954.8534    3691.2749    12971.944   -1533.1397    8179.2679    310.86639    15569 
209000000   -2885.3903    3715.1488    12897.182   -1584.3822    8184.9213    309.07474    15572 
210000000   -2972.6399      3623.22     12898.95   -1663.7902    8259.6501    309.11712    15593 
211000000   -2958.1184    3600.8879    12940.658   -1590.5558    8149.5622    310.11662    15595 
212000000    -2876.209    3872.3672    12967.677   -1481.4235    8229.9997    310.76412    15575 
213000000   -2970.5916    3600.2461     12911.17   -1546.0312    8116.8689    309.40996    15560 
214000000   -3008.9452    3474.4356      12936.1   -1708.7533     8192.134     310.0074    15601 
215000000   -2997.1795    3651.9757    12901.616   -1621.6389    8270.7941      309.181    15580 
216000000   -2976.8838    3588.8533     12874.28   -1651.1529      8216.89    308.52591    15575 
217000000   -2968.5412    3632.2749    12992.934   -1552.1808    8152.9969     311.3694    15589 
218000000    -3061.453    3572.2359     12915.37    -1623.014    8256.7029    309.51061    15583 
219000000   -2951.8064    3654.4751    12804.565   -1541.0751    8147.3566    306.85523    15565 
220000000   -2908.3381    3742.1628    12909.407   -1554.5776    8205.0785    309.36772    15577 
221000000   -2851.6367    3690.3343    12944.673   -1537.4202    8079.3912    310.21284    15585 
222000000   -2905.2096    3664.8101    12823.537   -1576.6471    8146.6668    307.30987    15576 
223000000    -2888.905    3897.1042    13061.943    -1408.092    8194.1013    313.02317    15554 
224000000   -2942.4416    3646.3765    12946.297   -1567.4212    8156.2393    310.25175    15563 
225000000   -2973.0196    3824.3974     12944.86    -1452.871     8250.288    310.21733    15570 
226000000   -3001.0055    3650.7058    13009.307   -1552.8856     8204.597    311.76175    15575 
227000000   -2899.6874    3753.7956    12934.732   -1547.5362    8201.0193    309.97461    15589 
228000000   -2910.0226    3629.3677    12931.771    -1577.557    8116.9472    309.90366    15574 
229000000   -2792.9062     3748.374    12912.361   -1517.6318     8058.912    309.43849    15578 
230000000   -2890.0495     3636.423     12823.93   -1642.3599    8168.8324     307.3193    15580 
231000000   -3017.5273    3636.7017    12826.916   -1565.4848    8219.7137    307.39085    15579 
232000000   -2970.1446    3546.0167    13026.142   -1663.1472    8179.3086    312.16521    15598 
233000000   -2966.3742    3609.1138    12773.207   -1511.5194    8087.0074    306.10374    15572 
234000000   -2998.1804    3571.0035    12942.478   -1518.5871     8087.771    310.16024    15579 
235000000   -3000.1135    3650.2593    13051.488   -1535.0158    8185.3886    312.77261    15568 
236000000     -3052.92    3565.2252    12998.651   -1577.2795    8195.4248     311.5064    15567 
237000000   -2951.7833    3562.1484    13209.096   -1613.5819    8127.5136    316.54961    15576 
238000000   -2982.1487    3536.8035    13057.481   -1571.2273    8090.1795    312.91622    15571 
239000000   -3002.3769    3719.0816    13019.626   -1478.8163    8200.2748    312.00906    15560 
240000000   -3107.1878    3556.9946    12956.601   -1484.5962    8148.7785    310.49869    15576 
241000000   -3087.2131    3552.4875    12948.217   -1503.0456    8142.7461    310.29777    15578 
242000000   -2945.1601    3832.4135    12838.297   -1457.3047    8234.8783    307.66359    15563 
243000000   -2920.9834    3719.1102    12915.116   -1474.2157    8114.3092    309.50451    15562 
244000000   -3009.6712    3568.6283    12956.086   -1592.4824    8170.7819    310.48635    15572 
245000000   -3021.3702    3503.8415    12936.941   -1604.5318    8129.7436    310.02754    15580 
246000000    -3022.249    3568.7533    12841.265   -1571.0576    8162.0599    307.73471    15581 
247000000   -3020.9158    3632.5796    12883.493    -1470.965    8124.4604     308.7467    15559 
248000000   -3023.3701    3769.7387    12961.385   -1470.8845    8263.9933    310.61334    15566 
249000000   -2917.5932    3707.7283    13021.272   -1543.2372    8168.5587     312.0485    15571 
250000000   -2976.7457    3616.8847    12814.272   -1479.6599    8073.2904    307.08784    15581 
251000000   -3002.7151    3535.1525    12970.501   -1693.8161    8231.6837     310.8318    15598 
252000000   -2918.2939    3539.0501    13008.599   -1626.8111    8084.1551    311.74479    15586 
253000000    -2974.872    3505.8801    12898.291   -1514.9612    7995.7133    309.10131    15580 
254000000   -3018.6824    3402.8988    13062.765   -1644.5735    8066.1547    313.04286    15600 
255000000   -2926.9588    3618.6118    12926.425   -1635.9374     8181.508    309.77553    15577 
256000000   -2952.2756    3426.0291    13036.133   -1720.8157    8099.1205    312.40463    15601 
257000000   -3037.3681    3489.5537    12832.175   -1632.4967    8159.4185    307.51689    15581 
258000000   -3011.1321    3793.6578    12890.127   -1452.5271     8257.317    308.90566    15554 
259000000    -2972.183    3567.2808    12930.392    -1589.466    8128.9299     309.8706    15557 
260000000   -2895.6346    3726.9407    12904.603   -1568.5598    8191.1351    309.25257    15582 
261000000   -2954.2168    3635.6847    12843.659   -1616.9673    8206.8687     307.7921    15587 
262000000   -2906.3289    3803.7527    13050.255   -1474.3715    8184.4532    312.74305    15568 
263000000   -2860.6548    3831.3896    12892.542   -1600.6789    8292.7234    308.96356    15572 
264000000   -3020.4811    3613.1292    12873.793   -1630.9639    8264.5742    308.51424    15606 
265000000   -2988.5837    3599.9542    12990.864   -1543.2636    8131.8016    311.31979    15571 
266000000   -3006.9884    3583.9073    12856.452   -1483.3634    8074.2591    308.09866    15562 
267000000   -3087.6863    3545.4308     12924.44   -1621.1375    8254.2546    309.72797    15575 
268000000   -3048.1621    3486.3204    12980.805     -1645.03    8179.5126    311.07872    15590 
269000000   -2924.3535    3678.4732    13079.708   -1581.2613     8184.088    313.44888    15576 
270000000   -3011.4777    3764.5716    12968.874   -1478.4903    8254.5396    310.79282    15567 
271000000    -3094.935    3626.3011    12986.674   -1557.4442    8278.6803    311.21937    15580 
272000000   -3021.7483    3602.4282    12979.528   -1500.1715    8124.3479    311.04813    15569 
273000000   -2973.0222    3496.6383    12715.514   -1682.8537    8152.5142    304.72115    15591 
274000000   -3033.2945    3587.4277    12886.286   -1585.5693    8206.2914    308.81363    15598 
275000000   -3043.9345    3732.0912    12989.874   -1479.9334    8255.9591    311.29605    15564 
276000000   -2990.7281    3659.8404    12908.468   -1539.4494    8190.0179     309.3452    15566 
277000000   -2913.2282    3707.3897    13076.546   -1517.8275    8138.4453    313.37312    15560 
278000000   -3073.0287    3568.6683      12872.8   -1538.7697    8180.4667    308.49044    15568 
279000000   -2932.4284    3625.6307    12777.698   -1615.5507    8173.6098    306.21136    15597 
280000000   -2934.8091     3696.911    12961.856   -1509.7335    8141.4536    310.62461    15573 
281000000   -2988.9272    3661.2148    13058.864   -1466.6637    8116.8056    312.94937    15568 
282000000   -3028.4121    3432.2794    12972.805   -1607.3563    8068.0478    310.88701    15582 
283000000    -3078.005    3567.5614     13010.91   -1524.3623    8169.9287    311.80017    15572 
284000000   -2993.0802    3825.9695    12839.802   -1525.2065    8344.2562    307.69967    15582 
285000000   -2977.5565    3618.6109    13004.801   -1545.8053    8141.9728    311.65377    15566 
286000000   -3190.3693     3582.983    12880.347   -1485.3115    8258.6637    308.67129    15560 
287000000   -2977.5559    3560.5311    12801.538   -1561.8591    8099.9462    306.78267    15558 
288000000   -3021.8358    3406.2771    12894.867   -1676.3533    8104.4663    309.01927    15581 
289000000   -2978.7686    3614.9221    12813.014   -1543.0355    8136.7263    307.05771    15568 
290000000   -3031.7723    3388.1925    12840.212   -1705.3771    8125.3419    307.70948    15596 
291000000   -3023.9508    3741.9573    12846.954   -1481.2196    8247.1277    307.87105    15560 
292000000   -2930.6918    3574.4747    12918.136   -1649.3125     8154.479    309.57689    15583 
293000000   -3070.2517    3621.2464    13020.628     -1476.79     8168.288    312.03307    15584 
294000000   -3008.8777    3603.0577    13078.706   -1559.1074    8171.0428    313.42487    15582 
295000000   -2957.6419    3451.2811    13170.966   -1628.7174    8037.6404    315.63585    15585 
296000000   -3003.8883    3474.7204    12934.592   -1646.1142    8124.7228    309.97126    15569 
297000000   -3008.5224    3576.8573    13055.975   -1567.1129    8152.4925    312.88013    15583 
298000000   -2943.5761    3595.1488    12922.368   -1564.7621     8103.487     309.6783    15577 
299000000   -2964.8812    3560.7437    12871.557   -1508.8791     8034.504    308.46065    15576 
300000000   -2940.7207     3702.588    12803.751   -1564.1386    8207.4473     306.8357    15589 
301000000   -2907.1867    3404.8059    12943.144   -1709.6479    8021.6405    310.17621    15594 
302000000   -2979.9131    3575.8474    12856.206   -1670.8603    8226.6209    308.09276    15584 
303000000    -3081.384    3779.3413    12821.717   -1468.6073    8329.3326    307.26626    15584 
304000000   -2947.4759    3627.2921    12911.272   -1547.8418    8122.6098    309.41241    15579 
305000000   -2971.4334    3693.4377    12993.658   -1581.8389    8246.7101    311.38675    15583 
306000000   -2942.3547    3566.6166    12989.272   -1649.8503    8158.8216    311.28163    15588 
307000000   -3020.1259    3853.8866    12783.014   -1431.4454    8305.4579    306.33875    15591 
308000000   -2917.0965    3666.5292    12799.211   -1595.4238    8179.0495    306.72692    15580 
309000000   -2887.1973    3710.6388     12966.54   -1507.6195    8105.4556    310.73686    15563 
310000000   -2843.0167    3878.9712    12902.277   -1477.0929    8199.0808    309.19683    15583 
311000000   -2993.5059    3632.6576     12893.49   -1553.7048    8179.8683    308.98625    15592 
312000000   -2954.0234    3556.0567    13039.137   -1616.5495    8126.6296    312.47662    15581 
313000000   -2875.8292    3841.0287    12793.501   -1495.1207    8211.9786    306.59007    15578 
314000000   -3021.7725    3585.4205    12920.942   -1640.0914    8247.2844    309.64414    15579 
315000000   -3024.6467    3494.7374    13048.235     -1623.42     8142.804    312.69466    15565 
316000000   -2962.8331    3822.8793    13064.403   -1482.0708    8267.7833     313.0821    15571 
317000000   -2920.2764    3669.8896    13028.844    -1540.334       8130.5    312.22995    15574 
318000000   -2936.7688    3748.7441    13118.244   -1533.6168    8219.1298    314.37239    15579 
319000000   -3015.6221     3607.777    12897.655   -1528.6506    8152.0498    309.08608    15599 
320000000   -2949.3756    3621.6876    12980.693   -1651.2712    8222.3343    311.07603    15563 
321000000   -2994.1586    3650.0299    12899.285   -1566.8848    8211.0733    309.12514    15565 
322000000   -3008.6304    3687.6517     12872.51    -1487.394     8183.676    308.48349    15553 
323000000   -2973.8439    3759.4209    12905.949   -1470.8874    8204.1522    309.28484    15562 
324000000   -2881.4878    3684.2017    12820.906   -1529.1148    8094.8042    307.24681    15577 
325000000   -2917.4253    3619.6931    12902.275   -1539.3153    8076.4337    309.19678    15569 
326000000   -2887.9474    3553.1921    13007.459   -1678.1699    8119.3095    311.71748    15593 
327000000   -2945.8418    3399.0351    12667.914   -1630.1249    7975.0018    303.58046    15577 
328000000   -2913.6906    3518.9461    12850.278   -1643.7396    8076.3763    307.95071    15602 
329000000     -3005.95    3543.2413    13023.418   -1582.9458     8132.137    312.09991    15592 
330000000   -2961.6454    3636.2286     12907.58   -1590.0515    8187.9255    309.32393    15563 
331000000   -3057.9343    3657.9583    12901.347    -1487.382    8203.2745    309.17454    15575 
332000000   -3078.3913    3563.4891    12977.295   -1619.7978    8261.6783    310.99461    15582 
333000000   -3001.1336    3655.9272     12972.63   -1512.2299    8169.2908    310.88281    15565 
334000000   -2948.0756    3597.0989    12921.556   -1552.6965     8097.871    309.65885    15558 
335000000   -2994.0979    3425.7025    13027.095   -1646.4641    8066.2645    312.18804    15585 
336000000   -3021.3454    3574.2368    12898.656   -1560.7113    8156.2935    309.11007    15580 
337000000   -3003.1941    3571.0054    12907.605    -1559.914    8134.1134    309.32453    15570 
338000000   -3024.3168    3539.7727    12871.787   -1624.6664    8188.7559    308.46615    15573 
339000000   -2938.8697    3649.6041    12969.786   -1568.1093     8156.583    310.81465    15575 
340000000   -3045.0211    3390.5067    13089.149   -1691.4158    8126.9437    313.67514    15576 
341000000   -2962.0554    3634.1751    12930.813   -1537.4224    8133.6529     309.8807    15568 
342000000   -3007.0326    3622.8334    12801.234   -1490.4656    8120.3317    306.77538    15558 
343000000    -3018.228    3568.9077    12930.641   -1526.8562    8113.9919    309.87657    15556 
344000000   -2947.2501    3584.9851    12986.327   -1611.6093    8143.8445    311.21105    15578 
345000000   -2895.7908    3624.6844     13081.08   -1629.4467    8149.9219    313.48176    15601 
346000000   -2951.6306     3829.903    12889.694   -1499.0687    8280.6023     308.8953    15580 
347000000   -2932.8865    3514.8877    12849.116   -1609.6106    8057.3848    307.92285    15588 
348000000   -2912.2841    3561.8558    12899.995   -1617.0306    8091.1706    309.14215    15586 
349000000   -2925.5415    3512.8219    13139.595   -1605.2107    8043.5741    314.88405    15573 
350000000   -2952.1398    3587.2026    13075.477   -1651.7805     8191.123    313.34749    15575 
351000000   -2933.1938    3606.0514    12861.519   -1710.9619    8250.2071    308.22009    15608 
352000000   -2917.2894    3649.2265    12893.578   -1622.7406    8189.2564    308.98837    15583 
353000000   -3027.0292    3627.2775    12845.447   -1471.9438    8126.2505    307.83493    15567 
354000000   -2988.8617    3692.9491     12828.91   -1565.4023    8247.2131    307.43863    15592 
355000000   -2863.6777    3531.1905    12985.311   -1647.1919    8042.0601    311.18671    15601 
356000000   -2904.1732    3684.5501    12998.114   -1648.0044    8236.7277    311.49352    15591 
357000000   -2944.4698    3798.5432    13021.301   -1481.4736    8224.4867    312.04918    15547 
358000000   -2922.7911    3702.7359    12923.654   -1519.6161    8145.1431    309.70913    15590 
359000000   -2873.6057    3668.7516    12953.758   -1571.0094    8113.3667    310.43055    15569 
360000000   -2934.0799    3621.3558    12889.905   -1558.1644       8113.6    308.90035    15570 
361000000   -2878.1292     3964.159    12958.839   -1415.7353    8258.0236    310.55232    15571 
362000000   -2957.7013    3572.6017    13011.482   -1587.2781    8117.5811     311.8139    15594 
363000000   -2942.1498    3613.8892    12932.635   -1552.1775    8108.2165    309.92435    15582 
364000000   -2987.7316    3601.9872    12998.471   -1490.1266    8079.8454    311.50207    15574 
365000000   -2951.2802     3722.149    13003.982   -1548.6646    8222.0938    311.63415    15575 
366000000   -2867.5327    3749.9183    12820.075    -1537.249       8154.7     307.2269    15585 
367000000     -2930.89     3473.709    12947.052    -1675.507     8080.106    310.26984    15601 
368000000    -2892.003    3781.1237    12958.499   -1484.0984    8157.2251    310.54418    15568 
369000000   -2953.9985    3462.6152    12817.969   -1718.9927    8135.6064    307.17644    15589 
370000000   -2932.7368    3634.1863    12935.098   -1624.3233    8191.2464    309.98337    15598 
371000000   -2976.6846    3448.9713    12900.058   -1657.2447    8082.9006    309.14366    15591 
372000000   -3062.1148    3671.7708     12883.19   -1497.6762    8231.5617    308.73944    15588 
373000000   -3061.4725    3424.0556    12918.866   -1680.7967    8166.3248    309.59439    15583 
374000000    -2957.644    3648.0932    12999.752   -1432.7963    8038.5335    311.53277    15561 
375000000    -3023.677      3611.35    12755.629   -1549.1753    8184.2023    305.68248    15561 
376000000   -2959.7951    3611.5878    12944.375    -1567.396    8138.7789    310.20571    15585 
377000000   -3000.0875    3670.0835    12921.992   -1534.6976    8204.8687     309.6693    15564 
378000000   -2970.2208     3574.714    12875.144   -1584.5417    8129.4765    308.54661    15570 
379000000   -2962.0689    3743.7204    12782.519   -1526.5376    8232.3268    306.32691    15585 
380000000   -3040.0619     3537.713    12877.142    -1599.019    8176.7939    308.59448    15585 
381000000   -3096.6168    3377.3547    12983.045   -1636.4928    8110.4643     311.1324    15576 
382000000   -2996.0599    3618.7129    12783.899   -1526.0637    8140.8365    306.35996    15570 
383000000   -2866.9731    3650.9468    12870.495   -1529.7552    8047.6752    308.43519    15587 
384000000   -2995.1288    3607.1297    12770.979   -1566.0146    8168.2731    306.05034    15578 
385000000   -2955.3784     3744.483     12924.98   -1564.6553    8264.5167     309.7409    15571 
386000000    -3007.674    3536.4198    12960.835   -1584.4586    8128.5524    310.60016    15589 
387000000   -3001.7834    3652.3856    13012.726   -1518.5192    8172.6882    311.84371    15572 
388000000   -3011.0443    3550.3225    13028.198   -1535.3603    8096.7271    312.21448    15586 
389000000   -3017.4297    3501.7807    12774.771   -1613.2388    8132.4492    306.14122    15595 
390000000   -3104.5623    3542.1689    12954.922   -1506.1286    8152.8598    310.45845    15582 
391000000   -2963.4374    3526.0304    13019.033   -1575.3436    8064.8114    311.99485    15582 
392000000   -3068.5657    3626.4642    12984.239   -1532.5178    8227.5477    311.16103    15576 
393000000    -3043.122    3707.2875    12971.467   -1435.4995     8185.909    310.85495    15545 
394000000   -2952.7977    3577.8986    12932.775   -1602.4997     8133.196    309.92772    15580 
395000000   -3033.9212    3488.7141    13193.121   -1575.5276     8098.163    316.16679    15591 
396000000   -2954.6069    3541.2861     13006.92   -1654.9494    8150.8424    311.70456    15589 
397000000   -2954.5085    3742.2988    12964.193   -1435.7643    8132.5716    310.68063    15588 
398000000   -3004.3275    3729.5523    13028.092   -1437.3712     8171.251    312.21195    15564 
399000000   -2944.5031    3437.7157    13018.328   -1730.4998    8112.7186    311.97795    15592 
400000000   -2949.1651     3529.405    12984.729   -1586.8781    8065.4482    311.17277    15589 
401000000   -2897.4547    3687.6749    12982.869   -1640.5211    8225.6506    311.12819    15592 
402000000   -2979.1281       3676.8    12972.681   -1557.9527    8213.8809    310.88403    15587 
403000000   -2986.3912    3549.3829    13138.557   -1636.6659      8172.44    314.85917    15573 
404000000   -3077.1237    3480.4503    13021.177   -1523.3416    8080.9156    312.04623    15570 
405000000    -2941.648    3512.6783    12766.793    -1613.989    8068.3153    305.95002    15567 
406000000   -2950.2751    3565.8804    12812.661   -1592.8079    8108.9634    307.04924    15578 
407000000   -2979.5722     3463.349    13189.599   -1595.7731    8038.6943    316.08238    15574 
408000000   -3006.5744    3586.9967    12898.129   -1567.7528     8161.324    309.09743    15606 
409000000   -2925.6394    3550.5287    12967.143   -1630.0676    8106.2356    310.75133    15580 
410000000    -2935.318    3648.0675    12861.081   -1562.3434    8145.7289     308.2096    15569 
411000000   -3036.4527    3555.8033    13003.544   -1586.5509    8178.8069    311.62366    15575 
412000000   -2948.9202    3728.7149    12869.512   -1462.9383    8140.5734    308.41163    15567 
413000000   -2960.1797    3599.9547    12953.956   -1547.8741    8108.0085     310.4353    15587 
414000000   -2902.1893    3633.1487    12876.225   -1594.2381    8129.5762    308.57253    15601 
415000000   -2989.8947    3569.6333    12794.031   -1501.7115    8061.2394    306.60276    15564 
416000000   -2861.0087    3656.6332     12997.29   -1565.5151     8083.157    311.47378    15573 
417000000   -2938.6835     3601.795    12982.566   -1582.0239    8122.5024    311.12092    15572 
418000000   -2955.6939    3545.7368     12888.49   -1586.1244    8087.5551    308.86645    15567 
419000000    -3027.714    3637.1907     12935.99    -1521.168    8186.0727    310.00475    15586 
420000000    -2973.881    3678.9336    13120.472   -1565.0555    8217.8701    314.42579    15560 
421000000   -3024.9561    3586.5511     12867.63   -1501.4832    8112.9904    308.36654    15578 
422000000   -2873.9796    3533.4812    12920.714   -1618.1308    8025.5915    309.63867    15582 
423000000   -3049.1126    3578.5942    12971.336   -1541.7534    8169.4602    310.85181    15573 
424000000   -3060.0411    3424.0365    12930.742   -1652.7657    8136.8432    309.87898    15565 
425000000   -3003.5656    3650.1469    12778.671     -1531.35    8185.0626    306.23469    15570 
426000000   -2980.8419    3622.0544    12943.886   -1581.3415    8184.2378    310.19399    15590 
427000000   -3019.9568    3523.9628    12953.507   -1538.3688    8082.2884    310.42454    15581 
428000000   -2956.9934    3510.4353    12812.478   -1620.0934    8087.5222    307.04484    15581 
429000000   -2804.7804    3667.5316      13037.8   -1589.4287    8061.7407    312.44458    15593 
430000000   -3003.3606    3654.4701    12971.317    -1576.387    8234.2176    310.85135    15584 
431000000   -2968.4419    3693.8487    12869.409   -1555.8565    8218.1471    308.40917    15573 
432000000    -2994.235    3351.5916    12778.833   -1645.0149    7990.8415    306.23855    15580 
433000000   -2997.6608    3666.9611    12900.982    -1520.593    8185.2148     309.1658    15571 
434000000    -2993.132    3681.3959    13011.013   -1538.2195    8212.7474    311.80265    15572 
435000000   -2954.6313    3551.5321     12999.75   -1538.4798    8044.6432    311.53274    15574 
436000000   -3013.3717    3701.4838     12889.05   -1512.9066    8227.7621    308.87987    15566 
437000000     -2953.45    3591.2017    13082.711   -1555.8037    8100.4554    313.52086    15566 
438000000     -2871.36    3499.5001    12851.138   -1695.3242    8066.1843    307.97133    15598 
439000000   -2956.6413    3482.0588     12884.25   -1630.1972    8068.8973    308.76483    15581 
440000000   -2920.2953    3651.0054    12808.927   -1466.9911    8038.2918    306.95976    15549 
441000000   -3061.4366     3610.306    13013.752    -1453.758    8125.5007    311.86827    15559 
442000000   -2973.2859    3518.5403    13043.172   -1628.1791    8120.0053    312.57333    15578 
443000000   -2906.5408    3709.4613    12758.982   -1577.1942    8193.1964    305.76283    15576 
444000000   -2970.8931    3466.9404    12931.178    -1648.044    8085.8775    309.88945    15592 
445000000   -3055.9698    3604.2235    13041.712     -1478.78    8138.9733    312.53833    15570 
446000000   -2964.9261    3437.0752    13001.349   -1621.3298    8023.3311    311.57106    15584 
447000000   -3009.7473    3594.9082    12859.684   -1508.8218    8113.4774    308.17611    15572 
448000000   -3007.5669    3733.5534    12912.259    -1590.169    8331.2894    309.43605    15565 
449000000    -2981.823    3600.6782    12924.374   -1524.7184    8107.2195    309.72638    15578 
450000000   -3047.0381    3370.9685    12756.217   -1638.4061    8056.4127    305.69658    15576 
451000000   -3057.8624    3469.5527    12932.769   -1611.1325    8138.5475    309.92756    15582 
452000000   -3014.3278    3628.1301    12977.195   -1485.6469    8128.1048    310.99221    15576 
453000000   -2913.5533    3741.7701    12980.834   -1516.8154    8172.1388    311.07943    15552 
454000000   -3008.9892    3438.9062    12960.288   -1682.1745    8130.0699    310.58704    15587 
455000000   -3002.8281    3530.7319    12757.148   -1497.3019     8030.862     305.7189    15567 
456000000   -3025.8057    3526.8384    12948.278   -1562.7564    8115.4005    310.29923    15596 
457000000   -2877.2179    3699.7661    12988.857   -1476.2358    8053.2199    311.27169    15564 
458000000   -3024.0923    3465.7615    12938.173   -1645.8402     8135.694    310.05706    15575 
459000000   -2986.3915    3639.9859    12942.451   -1569.8197    8196.1971    310.15958    15569 
460000000   -3135.3455    3532.5892    12915.149    -1508.557    8176.4918    309.50531    15575 
461000000   -2983.5141     3581.621    12925.065   -1571.0467    8136.1818    309.74293    15585 
462000000   -2981.5008    3495.5481    12780.212   -1712.7536    8189.8025    306.27162    15587 
463000000   -3028.4285     3607.455     12816.94   -1451.7142    8087.5976    307.15179    15564 
464000000   -3019.3544    3551.7329    12923.167   -1551.0678    8122.1551    309.69745    15564 
465000000   -2954.6166    3573.9967     12985.99   -1571.3847     8099.998    311.20297    15582 
466000000   -2978.7313    3744.6764    13013.467   -1545.5084    8268.9161    311.86145    15562 
467000000   -2971.8039    3746.4596    13217.879   -1514.9196    8233.1832    316.76009    15581 
468000000   -3039.0023    3672.1776    12986.407   -1545.5107    8256.6905    311.21297    15582 
469000000   -2968.2482    3572.4833     12877.54   -1505.9867    8046.7182    308.60402    15568 
470000000   -3017.0257    3469.7408    12797.168   -1570.5658    8057.3323    306.67795    15594 
471000000   -2947.2346    3554.0272    12832.537   -1551.5776    8052.8393    307.52554    15578 
472000000   -3041.8472    3601.7939    12888.055        -1591     8234.641    308.85603    15564 
473000000   -3026.3275    3618.9634    12931.599   -1633.0296    8278.3205    309.89953    15578 
474000000    -2985.077    3677.9341    12830.224   -1480.8564    8143.8675    307.47012    15580 
475000000   -2995.7307    3606.0517    12871.345   -1503.6619    8105.4443    308.45557    15585 
476000000   -2998.2253     3670.439    12971.005   -1478.0733    8146.7376    310.84388    15565 
477000000    -2917.916    3607.2199    12855.557   -1623.5973    8148.7332    308.07722    15580 
478000000   -2888.9185    3767.5219    12908.056   -1461.0369    8117.4773    309.33533    15562 
479000000   -2971.5618    3623.8203    12914.731   -1579.0209    8174.4029    309.49529    15584 
480000000   -3056.1314    3471.4906    12959.189   -1633.0491    8160.6711     310.5607    15598 
481000000   -3053.6451    3540.8631    12889.827   -1516.9743    8111.4824    308.89848    15573 
482000000   -3025.6681    3560.7418    12809.601   -1453.4229    8039.8328    306.97591    15567 
483000000   -3025.9573    3551.8784    12948.153   -1576.1833     8154.019    310.29624    15572 
484000000   -3026.6508    3813.2686    12951.225   -1401.9442    8241.8636    310.36986    15549 
485000000   -2937.0913    3613.1582    12930.669    -1576.325    8126.5745    309.87724    15583 
486000000   -2889.8738    3602.6019    12859.507   -1556.2118    8048.6875    308.17188    15590 
487000000   -3024.1753    3643.2516    13031.724   -1567.6592     8235.086    312.29899    15576 
488000000   -2992.9659    3573.9974    12987.142   -1572.1797     8139.143    311.23059    15597 
489000000   -2933.4713    3761.7341    12933.813   -1544.3603    8239.5657    309.95257    15583 
490000000   -2983.0585    3552.1272    13021.849   -1568.1227    8103.3084    312.06233    15591 
491000000   -2940.0691    3535.0301    12854.788   -1661.2656    8136.3648    308.05879    15590 
492000000   -2938.5019    3522.1033     12868.92   -1610.3006    8070.9057    308.39745    15556 
493000000   -2935.9613    3759.7444    12939.228   -1512.7306    8208.4363    310.08234    15552 
494000000   -2944.6883    3665.9081    12863.786   -1499.0693    8109.6657    308.27441    15570 
495000000   -2948.9397    3574.9909    12768.628   -1629.8225    8153.7531    305.99401    15590 
496000000   -2974.7816    3648.6023    12909.687    -1579.357    8202.7409    309.37441    15586 
497000000   -2963.6207    3607.7177     12903.79   -1534.8335     8106.172    309.23309    15582 
498000000   -2936.7242    3556.8431    12874.665   -1650.5337     8144.101    308.53514    15593 
499000000    -3023.355    3475.5932    12757.817   -1647.9599    8146.9081    305.73492    15579 
500000000    -2997.771    3747.5909    12991.526   -1485.2404    8230.6024    311.33565    15551 
Loop time of 179023 on 28 procs for 500000000 steps with 14000 atoms

Performance: 6032.752 ns/day, 0.004 hours/ns, 2792.941 timesteps/s
99.6% CPU use with 28 MPI tasks x no OpenMP threads

MPI task timing breakdown:
Section |  min time  |  avg time  |  max time  |%varavg| %total
---------------------------------------------------------------
Pair    | 19194      | 23900      | 29813      |1885.6 | 13.35
Bond    | 5814.6     | 8833.9     | 11813      |2980.3 |  4.93
Neigh   | 59320      | 59863      | 60585      | 145.9 | 33.44
Comm    | 41610      | 49983      | 58903      |2313.6 | 27.92
Output  | 0.64589    | 0.64741    | 0.64837    |   0.1 |  0.00
Modify  | 23621      | 23980      | 24155      |  82.2 | 13.39
Other   |            | 1.246e+04  |            |       |  6.96

Nlocal:    500 ave 521 max 486 min
Histogram: 2 3 5 6 3 5 0 2 0 2
Nghost:    816.321 ave 1137 max 453 min
Histogram: 1 1 2 4 6 4 4 1 4 1
Neighs:    5484.57 ave 6961 max 3636 min
Histogram: 2 0 2 3 4 3 7 3 2 2

Total # of neighbors = 153568
Ave neighs/atom = 10.9691
Ave special neighs/atom = 8.13671
Neighbor list builds = 99910165
Dangerous builds = 0
System init for write_restart ...
Total wall time: 49:43:53
