LAMMPS (5 Jun 2019)
Reading data file ...
  orthogonal box = (-420 -420 -420) to (420 420 420)
  2 by 2 by 7 MPI processor grid
  reading atoms ...
  14000 atoms
  scanning bonds ...
  51 = max bonds/atom
  scanning angles ...
  1 = max angles/atom
  reading bonds ...
  13800 bonds
  reading angles ...
  13600 angles
Finding 1-2 1-3 1-4 neighbors ...
  special bond factors lj:   0          0          0         
  special bond factors coul: 0          0          0         
  2 = max # of 1-2 neighbors
  2 = max # of 1-3 neighbors
  4 = max # of 1-4 neighbors
  56 = max # of special neighbors
  special bonds CPU = 0.443447 secs
  read_data CPU = 0.519124 secs
Finding 1-2 1-3 1-4 neighbors ...
  special bond factors lj:   1          1          1         
  special bond factors coul: 0          0          0         
  2 = max # of 1-2 neighbors
  2 = max # of 1-3 neighbors
  4 = max # of 1-4 neighbors
  56 = max # of special neighbors
  special bonds CPU = 0.000566305 secs
WARNING: Using 'neigh_modify every 1 delay 0 check yes' setting during minimization (../min.cpp:168)
Neighbor list info ...
  update every 1 steps, delay 0 steps, check yes
  max neighbors/atom: 2000, page size: 100000
  master list distance cutoff = 26.9
  ghost atom cutoff = 26.9
  binsize = 13.45, bins = 63 63 63
  1 neighbor lists, perpetual/occasional/extra = 1 0 0
  (1) pair lj/cut, perpetual
      attributes: half, newton on
      pair build: half/bin/newton
      stencil: half/bin/3d/newton
      bin: standard
Setting up cg style minimization ...
  Unit style    : real
  Current step  : 0
Per MPI rank memory allocation (min/avg/max) = 1.164 | 13.81 | 17.68 Mbytes
Step Temp E_pair E_mol TotEng Press 
       0            0 1.097855e+12      2649600 1.0978577e+12 5.0804878e+08 
    3165            0    -1749.261     5102.442     3353.181 0.0087270459 
Loop time of 0.92087 on 28 procs for 3165 steps with 14000 atoms

99.5% CPU use with 28 MPI tasks x no OpenMP threads

Minimization stats:
  Stopping criterion = energy tolerance
  Energy initial, next-to-last, final = 
     1.09785765867e+12      3353.38932291      3353.18099319
  Force two-norm initial, final = 8.92234e+10 1.58028
  Force max component initial, final = 1.04805e+09 0.193454
  Final line search alpha, max atom move = 0.612771 0.118543
  Iterations, force evaluations = 3165 3624

MPI task timing breakdown:
Section |  min time  |  avg time  |  max time  |%varavg| %total
---------------------------------------------------------------
Pair    | 0.051715   | 0.17723    | 0.31997    |  17.0 | 19.25
Bond    | 0.01561    | 0.048283   | 0.091378   |   7.8 |  5.24
Neigh   | 0.10257    | 0.10479    | 0.10743    |   0.3 | 11.38
Comm    | 0.12845    | 0.28637    | 0.46237    |  16.6 | 31.10
Output  | 0          | 0          | 0          |   0.0 |  0.00
Modify  | 0          | 0          | 0          |   0.0 |  0.00
Other   |            | 0.3042     |            |       | 33.03

Nlocal:    500 ave 826 max 174 min
Histogram: 1 3 4 4 2 2 8 1 1 2
Nghost:    338.893 ave 565 max 156 min
Histogram: 3 3 2 1 6 7 2 2 1 1
Neighs:    3508.14 ave 5788 max 1093 min
Histogram: 1 4 2 5 2 1 6 2 0 5

Total # of neighbors = 98228
Ave neighs/atom = 7.01629
Ave special neighs/atom = 5.82857
Neighbor list builds = 221
Dangerous builds = 0
Setting up Verlet run ...
  Unit style    : real
  Current step  : 3165
  Time step     : 0.1
Per MPI rank memory allocation (min/avg/max) = 1.128 | 14 | 16.55 Mbytes
Step Temp E_pair E_mol TotEng Press 
    3165            0    -1749.261     5102.442     3353.181 0.0087270459 
   13165    223.45902   -1387.8962    8925.4222    16862.104   -1.6380986 
Loop time of 1.50358 on 28 procs for 10000 steps with 14000 atoms

Performance: 57.463 ns/day, 0.418 hours/ns, 6650.778 timesteps/s
99.4% CPU use with 28 MPI tasks x no OpenMP threads

MPI task timing breakdown:
Section |  min time  |  avg time  |  max time  |%varavg| %total
---------------------------------------------------------------
Pair    | 0.055318   | 0.19402    | 0.37543    |  19.9 | 12.90
Bond    | 0.03687    | 0.11281    | 0.21142    |  12.0 |  7.50
Neigh   | 0.0023709  | 0.0024579  | 0.00252    |   0.1 |  0.16
Comm    | 0.35498    | 0.5821     | 0.80135    |  16.0 | 38.71
Output  | 7.0494e-05 | 0.00010009 | 0.00013178 |   0.0 |  0.01
Modify  | 0.088557   | 0.26       | 0.44864    |  17.7 | 17.29
Other   |            | 0.3521     |            |       | 23.42

Nlocal:    500 ave 830 max 174 min
Histogram: 1 3 4 4 2 2 8 1 1 2
Nghost:    338.75 ave 571 max 156 min
Histogram: 3 3 1 2 6 7 2 2 1 1
Neighs:    3519.46 ave 5810 max 1119 min
Histogram: 2 3 2 5 2 1 5 3 0 5

Total # of neighbors = 98545
Ave neighs/atom = 7.03893
Ave special neighs/atom = 5.82857
Neighbor list builds = 5
Dangerous builds = 0
4000 atoms in group rxnSites
Neighbor list info ...
  update every 1 steps, delay 1 steps, check yes
  max neighbors/atom: 2000, page size: 100000
  master list distance cutoff = 26.9
  ghost atom cutoff = 26.9
  binsize = 13.45, bins = 63 63 63
  2 neighbor lists, perpetual/occasional/extra = 1 1 0
  (1) pair lj/cut, perpetual
      attributes: half, newton on
      pair build: half/bin/newton
      stencil: half/bin/3d/newton
      bin: standard
  (2) fix bond/create/random, occasional, copy from (1)
      attributes: half, newton on
      pair build: copy
      stencil: none
      bin: none
Setting up Verlet run ...
  Unit style    : real
  Current step  : 0
  Time step     : 25
Per MPI rank memory allocation (min/avg/max) = 17.87 | 18.29 | 18.88 Mbytes
Step E_pair PotEng KinEng E_bond E_angle Temp Bonds 
       0   -1387.8962     7537.526    9324.5783    3047.7382     5877.684    223.45902    13800 
 1000000   -220.75304    9348.1173    12913.635     1366.387    8202.4834    309.46903    14644 
 2000000    -222.9453    9093.4486    12906.003    1155.7427    8160.6513    309.28612    14736 
 3000000   -247.76407    8759.9269    12848.296     741.6952    8265.9957    307.90321    14853 
 4000000   -249.83907    8645.2442    13005.656    660.58358    8234.4997    311.67426    14867 
 5000000   -231.76184    8542.6682    13007.905    588.02573    8186.4043    311.72816    14902 
 6000000   -233.27589      8626.49    12966.645    640.80104    8218.9649    310.73938    14890 
 7000000   -266.99556    8507.8485    12921.749    494.55869    8280.2853    309.66347    14921 
 8000000   -249.13528     8379.385    12848.804     367.4849    8261.0353    307.91538    14935 
 9000000   -242.52836    8286.8657    12882.784      378.262    8151.1321     308.7297    14951 
10000000    -257.7114     8429.727     12894.03    424.77857    8262.6598     308.9992    14953 
11000000   -236.79233    8512.0435    12985.835    601.66422    8147.1716    311.19926    14920 
12000000   -241.44812    8343.8566    13116.685     396.1818    8189.1229    314.33503    14946 
13000000    -269.6807    8376.0968    12922.054    409.45003    8236.3275    309.67079    14959 
14000000   -266.05952    8402.3555    13050.184    417.75265    8250.6624    312.74137    14947 
15000000   -256.99711    8454.3945    12887.379    519.78454    8191.6071    308.83982    14934 
16000000   -271.66955      8075.78     13065.39    148.69997    8198.7496    313.10576    15003 
17000000   -224.64289    8381.9598    12852.806    520.65027    8085.9524    308.01128    14932 
18000000   -262.37484    8217.6587    12968.691    290.74738    8189.2862    310.78843    14981 
19000000   -277.38885    8269.6633    13065.381    407.11431    8139.9378    313.10554    14977 
20000000   -306.50868    8233.2451    13003.017    312.13058    8227.6232    311.61103    14964 
21000000   -263.92866    8198.6657     12913.73    284.33625    8178.2581    309.47129    15004 
22000000   -284.37577    8164.9006    12983.268     144.3631    8304.9132    311.13776    15031 
23000000   -305.89801     8097.955    12933.221     185.0379    8218.8151    309.93839    15014 
24000000   -302.75084    8125.7978    12815.271    220.83055    8207.7181    307.11177    15005 
25000000   -314.23233    8206.0781    12845.898    270.05219    8250.2583    307.84573    15005 
26000000   -290.12469    8286.5059     12899.07    265.53278    8311.0978       309.12    14988 
27000000   -262.36128    8427.8038    12859.802    408.01292    8282.1521    308.17896    14971 
28000000   -266.80299    8254.5728    12889.888    243.06067    8278.3152    308.89993    15013 
29000000   -308.81333    8152.2045    12923.355    219.68063    8241.3372    309.70197    15002 
30000000    -318.4668    8222.7318    12794.759    270.94728    8270.2513    306.62022    15009 
31000000   -296.69842    8221.1932    12786.651    290.16766    8227.7239    306.42592    15005 
32000000    -283.0601    7970.3918    12861.792    194.44716    8059.0048    308.22663    15014 
33000000   -293.44908    8210.7968     13062.65     243.0789     8261.167     313.0401    14992 
34000000   -307.43924     8056.233    12764.107    212.34381    8151.3284    305.88567    15018 
35000000   -303.94353    7991.6058      12811.6    118.05699    8177.4923     307.0238    15049 
36000000   -290.17178     8029.909    12852.732    202.75925    8117.3215    308.00952    15015 
37000000   -300.81201    7921.3018    12898.815    78.135765    8143.9781    309.11387    15048 
38000000   -274.81779     7998.651    12801.312    22.787992    8250.6807    306.77726    15058 
39000000   -306.79207    8058.1827    13032.075    61.546915    8303.4279    312.30738    15080 
40000000   -286.66268    7918.6758     12814.74    96.424511     8108.914    307.09905    15035 
41000000   -313.82221    8009.8259    12742.431    218.71544    8104.9327     305.3662    15015 
42000000   -290.76627    7864.1711    12805.337    138.46842     8016.469    306.87372    15019 
43000000   -319.14305    7887.8367    12943.764    3.3240782    8203.6556    310.19106    15072 
44000000   -308.87403    8008.4193    12768.933    99.483179    8217.8101    306.00131    15051 
45000000    -295.6054    8091.7121    12980.118    187.59523    8199.7222    311.06227    15016 
46000000   -298.23176    8149.5055    13065.097    108.62689    8339.1104    313.09875    15034 
47000000   -301.71727    7941.8332    12977.979    92.427589    8151.1229      311.011    15044 
48000000   -285.76898    8252.5244    12926.167    265.63664    8272.6568    309.76936    14994 
49000000   -295.75426    8052.3624    12799.365    215.42173    8132.6949     306.7306    15014 
50000000   -308.93724    8101.6223    12934.287    198.24795    8212.3116    309.96395    15009 
51000000   -318.82172    8125.5664    12709.412    196.94589    8247.4422    304.57493    15035 
52000000   -323.45701    7947.7215    12869.445    118.95629    8152.2222    308.41003    15032 
53000000    -318.2594    7887.9084    12999.129    63.727629    8142.4402    311.51784    15033 
54000000   -309.31539    7951.2171    13101.761   -53.244565    8313.7771    313.97737    15073 
55000000    -314.8798    7899.5457    12992.035    33.607176    8180.8184    311.34785    15055 
56000000   -289.04784    8012.0085    12864.774    93.558265    8207.4981    308.29811    15070 
57000000   -323.62081    7768.9714    12878.243   -104.64177     8197.234    308.62088    15114 
58000000   -365.04728    7965.5415    12914.878     40.94625    8289.6425    309.49883    15065 
59000000   -336.42179    7982.9624    13025.523    122.16236    8197.2218    312.15038    15043 
60000000   -281.66385    7952.2887    12908.452    7.9229502    8226.0296    309.34482    15080 
61000000   -355.55366    7681.4246    13043.444   -91.493289    8128.4716    312.57983    15100 
62000000   -328.64381    7836.8709    12889.128   -56.926087    8222.4408    308.88174    15095 
63000000   -334.48178    7832.6707    12876.678   -10.464673    8177.6172    308.58338    15090 
64000000   -299.17274    8011.8745    12771.504    96.024966    8215.0223    306.06294    15043 
65000000   -319.21227    7866.0844     12906.95    102.49111    8082.8056    309.30883    15058 
66000000   -342.55493    7776.6532    12888.782    25.883459    8093.3246    308.87343    15074 
67000000    -314.4231    8036.7513    12876.623    159.12584    8192.0486    308.58206    15052 
68000000   -314.30479    7962.6108    12963.617    47.425283    8229.4903    310.66682    15073 
69000000   -320.83049    8079.3587    12889.264    149.98979    8250.1994    308.88499    15036 
70000000   -329.73957    8032.7213    12847.724    138.66609    8223.7948     307.8895    15056 
71000000   -300.17213    7859.8216     13057.96    28.572949    8131.4208    312.92772    15069 
72000000   -325.05457    7924.8857    12874.869    36.687657    8213.2526    308.54001    15042 
73000000   -321.03608    7970.2618    13256.974    65.610886     8225.687    317.69699    15060 
74000000   -323.36822     8111.458     12983.64    156.97363    8277.8526    311.14666    15029 
75000000   -308.93013    7997.3133    12851.119    131.79173    8174.4517    307.97086    15041 
76000000   -334.75326    7800.2857    12882.061    35.541303    8099.4977    308.71238    15053 
77000000   -349.63702    7748.3096    12899.981     3.262338    8094.6843    309.14182    15077 
78000000   -362.97829    7822.1936    13179.784   -79.243987    8264.4158    315.84717    15118 
79000000   -330.57617    7858.6152    13035.971   -98.761264    8287.9527    312.40075    15111 
80000000   -329.74117    7908.1985    12939.221   -49.990824    8287.9305     310.0822    15100 
81000000   -314.51952    7824.8434    12933.863   -6.0015263    8145.3644    309.95379    15071 
82000000   -316.61481    7802.6873    12854.163   -70.737764    8190.0399    308.04381    15103 
83000000   -339.14253    7910.9611     13069.44   -24.028338     8274.132    313.20281    15075 
84000000   -310.90998    7769.1069    12962.618   -61.748731    8141.7656    310.64288    15087 
85000000   -310.85892    7920.7931    12954.474     22.83773    8208.8143    310.44771    15071 
86000000   -310.40795    7768.2343    12985.423   -143.05641    8221.6987    311.18939    15092 
87000000   -318.77396    8041.6988    12935.208    77.217924    8283.2549    309.98601    15074 
88000000   -329.82355    8135.9039    13080.475    149.13148     8316.596    313.46727    15043 
89000000   -327.00993    7877.7506    12748.301    69.984229    8134.7763    305.50687    15065 
90000000   -341.74632    7826.3443    12696.574    35.131423    8132.9592    304.26727    15074 
91000000   -311.54796    7832.8891    12856.675    43.722775    8100.7143    308.10401    15069 
92000000   -362.71105    7958.3168    13011.197    127.33487    8193.6929    311.80705    15053 
93000000   -311.33161    7871.5916    13000.835    120.70405    8062.2191    311.55875    15053 
94000000    -342.1171    7838.7723    12867.719    90.006007    8090.8834    308.36867    15075 
95000000   -343.17271    7839.6825    12854.923     88.30118    8094.5541    308.06203    15043 
96000000   -330.35259    7747.4508     12841.99   -71.944863    8149.7483    307.75209    15092 
97000000   -302.08898    7851.3973    13120.214  -0.81217453    8154.2984     314.4196    15070 
98000000   -291.65056    7813.9889    13040.328    62.080515     8043.559    312.50515    15067 
99000000   -324.90295    7835.2129    12875.368    28.375261    8131.7406    308.55199    15073 
100000000   -311.79553    7932.8145    12899.876    28.499934    8216.1101     309.1393    15051 
101000000   -309.11367    7859.1216    12914.882   -27.263671    8195.4989    309.49892    15062 
102000000   -314.17843    7956.4076    13000.946    66.909529    8203.6765    311.56141    15050 
103000000   -311.09541    8108.8572    13042.933    126.95426    8292.9984    312.56759    15033 
104000000   -335.79923    7973.1062    12966.409    -21.74082    8330.6463    310.73373    15082 
105000000   -318.25134    7965.8104    12855.411   -6.8400421    8290.9017    308.07371    15100 
106000000   -335.91071    7749.4011    12844.492   -141.28064    8226.5924    307.81205    15088 
107000000   -310.00569    7830.9863     12971.42   -133.97951    8274.9715    310.85382    15097 
108000000   -321.17866    7924.9143    12916.203   0.67771425    8245.4152    309.53056    15059 
109000000   -315.29671    7806.3067    12894.073    7.9268529    8113.6766    309.00025    15060 
110000000   -358.85578    7761.5789    12945.514   -99.628881    8220.0635    310.23298    15082 
111000000   -323.50395    7959.5776    12973.978   -21.842669    8304.9242    310.91513    15073 
112000000   -289.81221    7880.1885    12813.287    48.476142    8121.5245    307.06423    15055 
113000000   -328.05643    7783.8732    12995.539   -72.071585    8184.0012    311.43182    15070 
114000000    -306.6203    7758.4535    12932.651   -129.54041    8194.6142    309.92474    15111 
115000000   -314.00502    7886.6809    12899.309    72.778387    8127.9076    309.12571    15055 
116000000   -320.09761    7817.5411    13042.871   -62.075943    8199.7146     312.5661    15067 
117000000   -314.94511    7716.0707    13015.938   -129.81517     8160.831    311.92067    15123 
118000000   -347.09484    7745.9873    12856.294   -104.53874    8197.6209    308.09488    15096 
119000000    -313.9202    7783.2906    13057.213   -113.85025     8211.061    312.90981    15099 
120000000   -307.86149    7899.9733    13007.393    64.956075    8142.8787     311.7159    15076 
121000000   -340.76686    7917.9788    12917.067   -29.726825    8288.4725    309.55127    15096 
122000000   -324.56018    7736.7704    13019.106   -111.36903    8172.6996    311.99659    15095 
123000000   -327.24267    7712.3679    13006.666   -37.713599    8077.3242    311.69847    15058 
124000000   -340.59431    7839.5189    12990.535    7.3378021    8172.7754     311.3119    15087 
125000000    -317.4896    7805.7994    12949.009   -82.675542    8205.9646    310.31676    15081 
126000000   -336.03712    7815.4355    12876.232   -57.521592    8208.9942    308.57267    15093 
127000000   -335.72349    7903.7776    13035.344    47.492577    8192.0086    312.38574    15067 
128000000   -319.47077    7785.2068     12794.81  -0.48821246    8105.1657    306.62145    15072 
129000000   -312.65575    7785.1239    12893.768   -5.5293924    8103.3091    308.99293    15070 
130000000   -333.18313    7809.0295    12880.989   -21.754119    8163.9667    308.68667    15066 
131000000   -341.47123    7720.7313    12942.896    -121.4959    8183.6985    310.17025    15122 
132000000   -306.77567    7838.5043    12866.072     10.55509    8134.7248    308.32919    15076 
133000000   -341.77169    7698.1607    12911.362   -82.932144    8122.8645    309.41455    15118 
134000000   -371.96103    7620.9481    12939.494   -298.82216    8291.7313    310.08872    15154 
135000000    -326.2901     7813.543    12791.016    29.111613    8110.7215    306.53052    15049 
136000000   -354.44017    7925.5693    12999.238     60.49051     8219.519    311.52047    15068 
137000000   -350.29058    7801.4342    12901.475    -5.768867    8157.4936    309.17761    15056 
138000000   -349.32478    7790.6735    12875.054    18.583146    8121.4151    308.54445    15074 
139000000    -325.6603    7951.0246    12812.247     92.46005    8184.2249    307.03931    15078 
140000000   -349.97359    7804.6121     13042.26    15.016552    8139.5692    312.55148    15065 
141000000   -355.53175    7944.9292    12864.575    97.512357    8202.9485    308.29332    15067 
142000000   -348.79923    7784.4361    12941.057   -129.16243    8262.3978    310.12619    15112 
143000000   -324.04705    7732.7769    12950.985   -166.07383    8222.8978     310.3641    15106 
144000000   -299.70687    7679.4809    13029.527   -160.05217      8139.24    312.24631    15115 
145000000   -321.09322    7767.7864    12951.704   -66.021073    8154.9007    310.38132    15080 
146000000   -361.63957    7737.6762    12827.631   -116.23031     8215.546    307.40798    15095 
147000000   -327.07478    7747.1556    12849.409   -103.52946    8177.7599    307.92988    15089 
148000000   -356.10769    7821.4962    12957.186   -10.878739    8188.4826    310.51271    15094 
149000000   -336.75183    7862.0838    12704.643   -30.512545    8229.3482    304.46063    15075 
150000000   -352.72605    7663.3695    12946.368   -168.63863    8184.7342    310.25346    15113 
151000000   -337.28006    7773.7987    13027.745   -20.626558    8131.7053    312.20361    15054 
152000000   -301.24408    7742.6264    12860.498   -154.31186    8198.1823    308.19563    15098 
153000000   -360.09411    7899.2121    13185.761   -27.566713    8286.8729     315.9904    15065 
154000000   -326.54211    7730.3235    12877.796   -124.83324    8181.6988    308.61015    15100 
155000000   -331.82018     7954.752    12851.139    45.335205    8241.2369    307.97134    15069 
156000000   -312.89863     7755.157    12922.414   -7.3166232    8075.3722    309.67941    15076 
157000000   -333.91274    7784.5985    13056.369   -4.9326739     8123.444    312.88958    15083 
158000000   -299.91882    8012.4195    12916.694    158.17205    8154.1662    309.54234    15049 
159000000   -305.03168     7755.254     12789.42   -113.60349    8173.8892    306.49227    15097 
160000000   -315.34416    7848.9533    12920.926   -139.68305    8303.9805    309.64375    15123 
161000000   -297.49766     7773.426     12809.02   -96.803634    8167.7272    306.96198    15088 
162000000   -349.24632    7831.0389    12887.972     11.29492    8168.9903    308.85402    15077 
163000000   -325.37867    7712.0046    12815.874   -74.043009    8111.4263    307.12623    15083 
164000000    -336.5151    7842.6556    12968.912    50.441589    8128.7291    310.79372    15054 
165000000   -329.26215     7941.659    12872.202    21.072869    8249.8483    308.47611    15054 
166000000   -339.71825    7911.1071    12876.481   -12.442653    8263.2681    308.57864    15093 
167000000   -310.80784    7821.8744    12967.951   -52.275037    8184.9572     310.7707    15086 
168000000   -313.73075    7863.5813    12968.123   -4.0414575    8181.3535    310.77481    15061 
169000000    -325.7793    7770.1566    13010.396   -80.489048    8176.4249    311.78786    15104 
170000000   -337.53332    7819.4915    13086.412   -24.868284    8181.8931    313.60956    15078 
171000000   -316.76755    7801.9749    12939.167   -13.969635    8132.7121    310.08089    15085 
172000000   -342.61985     7636.546    12819.408   -209.75753    8188.9234    307.21093    15124 
173000000   -341.26465     7892.742    12823.774    108.66133    8125.3453    307.31555    15071 
174000000   -312.97287    7806.7842    12917.571   -94.218534    8213.9756    309.56336    15093 
175000000   -310.72377    8097.5853     12849.07    80.578752    8327.7304    307.92176    15065 
176000000   -324.64398    7884.6398    12919.347   -39.545401    8248.8291     309.6059    15084 
177000000   -325.29311    7788.6642    12983.457   -138.30715    8252.2645    311.14228    15108 
178000000   -322.45057     7671.356    12849.605   -55.187512    8048.9941    307.93458    15095 
179000000   -319.85081    7860.9212    13024.226    54.766605    8126.0054    312.11928    15087 
180000000   -310.81546    7726.5266    12846.656   -24.147762    8061.4898    307.86391    15102 
181000000   -331.71619    7687.2286    12903.558   -63.833027    8082.7779    309.22753    15095 
182000000    -347.0353    7747.5431    12962.018   -74.132547    8168.7109    310.62851    15093 
183000000   -284.50985    7931.2574    12863.783    50.075401    8165.6918    308.27435    15063 
184000000   -319.12677    7707.9038    12902.923   -125.22286    8152.2534    309.21232    15095 
185000000   -352.96635    7616.4679    12950.449   -94.250029    8063.6843    310.35127    15094 
186000000   -330.92151    7826.4233    12898.636  -0.13697556    8157.4818    309.10959    15095 
187000000   -335.50952    7889.9588    12738.529    23.830063    8201.6383     305.2727    15083 
188000000   -338.26011    7941.6682    12976.747    83.301781    8196.6265    310.98148    15070 
189000000   -325.97865    8026.4097    12920.317    86.403113    8265.9852    309.62917    15088 
190000000   -331.24568    7841.0798    12863.336   -78.738817    8251.0643    308.26363    15072 
191000000   -311.90735     7784.809    12819.882   -95.142903    8191.8592    307.22228    15091 
192000000   -369.41678     7771.223    12793.942   -7.3411528     8147.981    306.60064    15104 
193000000     -316.896    7651.6523    12818.082   -121.44825    8089.9966    307.17915    15084 
194000000   -329.72031    7938.8558    12950.228    129.75249    8138.8236    310.34596    15038 
195000000   -331.40743    7655.6767    12811.518      -80.687    8067.7711    307.02183    15083 
196000000   -313.09715    7904.3144    12937.054    38.759317    8178.6522    310.03025    15057 
197000000   -369.19995    7896.3204    13007.604   -35.190506    8300.7109    311.72095    15077 
198000000   -310.16033    7887.9412    12932.673   -66.289338    8264.3909    309.92527    15112 
199000000   -336.13811    7870.2316    12973.744   -74.891182    8281.2609     310.9095    15084 
200000000   -336.17482    7922.0798    12971.688     91.03999    8167.2147    310.86023    15070 
201000000   -322.82575    8032.9829    12845.477    17.201325    8338.6073    307.83565    15104 
202000000   -314.58779     7948.701    12812.343    94.244141    8169.0446    307.04161    15040 
203000000   -318.49155    7973.3844    12967.184    122.67822    8169.1977    310.75231    15065 
204000000   -324.14795    7805.7119    13119.775   -54.796845    8184.6567    314.40906    15088 
205000000   -298.96531    7745.5701     13004.32   -13.334199    8057.8696    311.64226    15075 
206000000   -335.63916    7867.2111    12866.407   -106.12345    8308.9737    308.33723    15077 
207000000   -325.57629    7846.8732    12946.975   -18.876243    8191.3258      310.268    15091 
208000000   -328.04547    7990.0801    12969.566    38.097469    8280.0281    310.80938    15070 
209000000    -299.4707    7954.7791    12924.389    35.352039    8218.8978    309.72674    15071 
210000000   -305.45555    7815.9907    12850.611   -44.599192    8166.0454    307.95868    15098 
211000000   -321.89941    7711.1786    12898.405   -124.15271    8157.2307    309.10404    15120 
212000000   -325.16943    7853.7711    13058.648   -66.851579    8245.7922    312.94419    15085 
213000000   -313.62896    7784.0498    12894.939   -66.181128    8163.8599    309.02099    15088 
214000000   -359.54965    7707.5561    12952.447   -126.94515    8194.0509    310.39914    15092 
215000000   -298.19453    7850.7824    12926.621   -20.088309    8169.0653    309.78024    15082 
216000000   -316.73229    7806.7627    13002.804   -70.464733    8193.9597    311.60593    15082 
217000000   -330.43783    7704.5006    13014.111   -89.174272    8124.1127    311.87689    15111 
218000000   -329.13747    7826.1205     12967.11   -107.87879    8263.1368    310.75054    15100 
219000000   -309.92805    7816.5124    13147.768   -38.756338    8165.1968     315.0799    15093 
220000000   -333.89019    7560.4154    12876.624    -123.6116    8017.9172    308.58208    15100 
221000000   -347.58477    7807.7646     12895.76   -12.072173    8167.4215    309.04066    15079 
222000000   -353.31683    7707.8426    13096.323    8.4222571    8052.7372    313.84706    15077 
223000000   -311.90644    7665.0561    12835.477   -135.66661    8112.6291      307.596    15118 
224000000   -329.49183    7945.3718    12912.499    79.496126    8195.3675    309.44181    15079 
225000000   -326.63267    7669.7121    12906.263   -74.512898    8070.8577    309.29236    15114 
226000000   -344.17713    7793.2963    12954.751   -34.333568     8171.807    310.45435    15078 
227000000   -296.78694    7809.6521    13044.225   -60.202865    8166.6419    312.59855    15101 
228000000   -324.74181    7793.0278    12897.263   -101.17427    8218.9439    309.07669    15110 
229000000   -349.88189    7783.9726    12993.485    6.6055862    8127.2489    311.38258    15099 
230000000   -355.56846    7715.5746    12954.661    17.961484    8053.1816    310.45221    15083 
231000000   -305.88418    7738.9554    12959.167   -20.371365    8065.2109    310.56018    15057 
232000000    -321.8818    7839.8396    12929.975    14.582656    8147.1387    309.86062    15082 
233000000   -314.71756    7791.1316    13065.003   -48.396489    8154.2456    313.09649    15094 
234000000   -330.75636    7759.8249    12976.945   -20.231824    8110.8131    310.98621    15065 
235000000   -320.89454    7778.4779    13007.125    33.333922    8066.0386    311.70948    15078 
236000000   -339.96121    7765.4977    12879.026   -25.144052    8130.6029    308.63964    15082 
237000000   -333.29264     7736.468    12881.016   -4.0156068    8073.7763    308.68734    15081 
238000000    -334.7637    7716.8657    12904.284   -37.949752    8089.5792    309.24494    15071 
239000000   -316.66957    7756.7727    13031.406    -73.82996    8147.2722    312.29136    15089 
240000000   -357.28194    7801.4315    12879.684   -46.462371    8205.1758    308.65541    15098 
241000000    -348.1363    7932.6289    12779.464    62.443556    8218.3217    306.25368    15072 
242000000   -317.73773    7861.6914    12953.588   -4.0803307    8183.5095    310.42648    15065 
243000000   -303.55545    7797.6784    12935.045   -109.05421    8210.2881    309.98211    15102 
244000000    -350.8844    7861.3198    12998.182   -16.073335    8228.2775    311.49516    15078 
245000000   -342.81914    7808.7994    12876.734    9.9667006    8141.6518    308.58471    15074 
246000000   -329.44059    7765.2321    13035.672   -45.903943    8140.5767    312.39359    15114 
247000000   -342.52347    7873.5866    13074.911    4.3124526    8211.7976    313.33394    15073 
248000000   -328.51079    7707.6749    12910.884   -122.39617    8158.5819    309.40311    15128 
249000000   -350.60221    7871.6362    13016.069    35.571165    8186.6672    311.92381    15063 
250000000   -309.29281    7764.6657    12812.429    -70.86334    8144.8218    307.04369    15067 
251000000   -319.86681    7781.4561    12878.407   -72.446543    8173.7695    308.62482    15076 
252000000    -347.0683    7638.1517    12821.802   -170.73156    8155.9516    307.26829    15096 
253000000   -342.94066    7744.8283    12837.131   -56.963391    8144.7324    307.63564    15096 
254000000   -324.72124    7722.9495      12864.9   -85.829496    8133.5003    308.30111    15121 
255000000    -351.1998    7835.3136    13007.788    33.399285    8153.1141    311.72536    15085 
256000000   -353.04882    7760.7789    12968.861   -43.711365    8157.5391    310.79248    15083 
257000000   -341.18048    7806.8629    12837.039   -49.387606    8197.4309    307.63343    15084 
258000000   -335.17352    7739.9186     12920.79   -22.533584    8097.6257    309.64049    15093 
259000000   -340.10561    7776.2496    12977.583   -21.314296    8137.6695    311.00151    15085 
260000000   -307.80149    7999.7473    12900.553     42.00698    8265.5418    309.15552    15084 
261000000   -331.01349    7777.5413    13021.457   -53.128902    8161.6837    312.05294    15095 
262000000   -304.63885    7810.1817    12993.352   -65.261447     8180.082     311.3794    15122 
263000000   -323.70385    7830.0669    12924.762   -91.495883    8245.2667    309.73568    15074 
264000000   -294.12178    7832.5624      12850.9    13.671898    8113.0123    307.96562    15066 
265000000   -316.49075    7879.7005    12923.674   -40.752348    8236.9436    309.70961    15094 
266000000   -346.00711    7927.6693    12928.457   -31.102437    8304.7788    309.82424    15098 
267000000   -319.82078    7782.7248    13124.593   -52.901281    8155.4468    314.52454    15070 
268000000   -330.11314    7998.2586    12893.432    55.008983    8273.3627    308.98486    15062 
269000000   -347.29825    7710.3455     12942.25   -190.86309    8248.5069    310.15478    15121 
270000000   -351.14767    8017.5648    12811.469    89.009321    8279.7031    307.02067    15057 
271000000   -292.74502    7932.0263    12919.185   -50.150163    8274.9215    309.60204    15088 
272000000   -294.40005    7698.3816     12900.54   -119.66026    8112.4419    309.15522    15092 
273000000   -320.14952    7690.8751    12994.543   -139.12036     8150.145    311.40794    15113 
274000000   -347.94437    7627.2777    12922.098   -132.98602    8108.2081    309.67185    15114 
275000000   -311.91062     7952.321    12972.749    2.0784195    8262.1532    310.88566    15084 
276000000   -345.37324    7784.1484    12985.749   -74.876869    8204.3985    311.19721    15085 
277000000   -328.88987    7894.0296    12745.885   -27.793068    8250.7125    305.44899    15094 
278000000   -335.21693    7709.8744    12792.284   -124.42762     8169.519    306.56091    15108 
279000000    -348.1272    7654.7728    12999.684   -165.32609    8168.2261    311.53115    15115 
280000000   -315.64607    7702.6075    12910.956   -174.55727    8192.8108    309.40483    15103 
281000000    -326.2819    7871.7863    12954.794    31.641833    8166.4264    310.45538    15080 
282000000   -336.20794    7833.5126     13025.62   -30.586237    8200.3068     312.1527    15082 
283000000   -325.53183    7826.9737    13021.262   -1.8429688    8154.3485    312.04825    15103 
284000000   -323.71333    7634.8493    12875.428   -115.10004    8073.6627    308.55342    15111 
285000000   -339.79815    7695.1613     12925.55   -71.967809    8106.9273    309.75456    15081 
286000000   -342.16824    7811.1598    12805.335   -22.410067    8175.7381    306.87367    15081 
287000000   -305.34654    7718.1876    12889.788   -124.64346    8148.1776    308.89754    15112 
288000000    -312.6685    7737.7974    12845.795   -87.954325    8138.4202    307.84327    15094 
289000000   -337.80841    7809.4056    12932.366   -96.089398    8243.3034     309.9179    15096 
290000000   -314.65739    7882.9838    12872.704   -26.884235    8224.5254    308.48815    15095 
291000000   -329.25765    7919.3534    12977.872    40.803123    8207.8079    311.00844    15080 
292000000   -344.57738    7749.7337    12848.021   -48.937901     8143.249    307.89663    15116 
293000000   -303.50964     7745.917    12845.764   -55.120348     8104.547    307.84252    15102 
294000000   -298.85529    7833.0748    12980.569   -24.092928     8156.023    311.07308    15094 
295000000   -317.55741    7640.0124      12915.2   -136.38698    8093.9567    309.50654    15129 
296000000   -340.43236    7879.9091     12938.58    8.8872789    8211.4542    310.06682    15085 
297000000   -353.92984    7654.6943    12793.315   -196.64268    8205.2668    306.58561    15136 
298000000   -355.77498    7872.8032    13022.834    45.254925    8183.3233    312.08592    15060 
299000000   -344.90825    7890.9517    12743.935   -17.642346    8253.5023    305.40225    15095 
300000000   -343.32162    7801.2435    12899.219   -201.54867    8346.1138    309.12355    15135 
301000000   -350.23281    7758.0305    12973.379   -97.365022    8205.6283    310.90076    15122 
302000000    -347.2901    7857.0523    12828.886   -22.607408    8226.9498    307.43807    15086 
303000000   -361.16596    7815.8523    12777.939   -21.433742     8198.452    306.21714    15086 
304000000   -309.18798    7729.8072    13025.317   -125.86677     8164.862    312.14544    15105 
305000000   -296.66083    7808.1505    12740.485   -153.94741    8258.7588    305.31956    15122 
306000000   -327.37052    7637.9378     12896.85   -198.13749    8163.4459    309.06678    15139 
307000000   -372.43815    7716.3554     12983.41   -143.65117    8232.4447    311.14114    15115 
308000000   -334.40279    7860.2437    12914.695    57.196998    8137.4494    309.49442    15079 
309000000   -327.67899    7653.3937    12927.675   -95.530267    8076.6029     309.8055    15107 
310000000    -323.6785    7534.1885    12978.745   -246.48964    8104.3566    311.02936    15136 
311000000   -367.94656    7707.4295    12950.733   -90.067184    8165.4433    310.35807    15108 
312000000   -308.10769    7788.1658    12805.393   -33.875674    8130.1492    306.87505    15083 
313000000   -322.22088    7927.1384    13050.935   -9.6035751    8258.9628    312.75935    15069 
314000000   -322.26357    7796.0699    12908.693   -71.204245    8189.5377    309.35059    15094 
315000000   -323.98934    7717.6889    12765.026   -95.819566    8137.4978    305.90769    15080 
316000000   -335.67208    7765.6552     12897.61   -49.109975    8150.4372    309.08499    15095 
317000000   -336.23057    7657.6718    12808.419   -46.070867    8039.9732    306.94757    15076 
318000000   -362.23841    7706.0958    12739.546   -98.066135    8166.4003    305.29708    15095 
319000000   -318.40823    7756.8043    12940.033   -109.98223    8185.1947    310.10165    15095 
320000000   -336.50679    7769.7266    12950.544   -92.307468    8198.5409    310.35354    15092 
321000000   -313.30946    7843.1351    12888.058   -59.097424     8215.542    308.85608    15108 
322000000   -336.60306    7805.1488    12833.796   -129.39602    8271.1478    307.55574    15102 
323000000   -310.56221    7901.1881    12888.369    -49.98521    8261.7355    308.86355    15093 
324000000   -330.57018    7899.7374    12836.221    25.816443    8204.4911    307.61385    15080 
325000000   -327.88192    7703.0657    12948.588    -84.55774    8115.5054    310.30666    15094 
326000000   -335.98572    7760.7294    12997.668   -29.885639    8126.6007    311.48284    15080 
327000000   -347.20192    7716.1199     13003.03   -95.766495    8159.0883    311.61134    15086 
328000000   -341.14838    7885.7679    12902.813    1.3104958    8225.6058    309.20968    15112 
329000000   -334.75153    7756.8204    12987.357   -121.38257    8212.9545    311.23574    15101 
330000000   -319.24693    7769.9635    13010.912   -39.044403    8128.2548    311.80022    15088 
331000000   -348.29614    7579.7752    13030.769     -183.704    8111.7753    312.27609    15134 
332000000   -329.00547     7818.417    12984.111    19.909102    8127.5133    311.15796    15081 
333000000   -330.44684    7778.2458    12982.989   -35.682266    8144.3749    311.13107    15063 
334000000   -340.00882    7804.4151     12878.75    61.750518    8082.6734    308.63302    15064 
335000000   -366.52112    7983.6257    13031.348    89.123302    8261.0235    312.28997    15068 
336000000   -344.42091    7745.3125    12854.051    36.705078    8053.0283    308.04113    15082 
337000000   -338.39102    7749.6405    12933.424   -77.963754    8165.9952    309.94327    15103 
338000000   -308.29131    7787.3111    12983.471   -206.17712    8301.7795    311.14261    15126 
339000000   -313.38375    7650.8927    12884.964    -144.5712    8108.8476    308.78194    15118 
340000000   -320.55024    7932.5756    12972.443   -25.598873    8278.7247    310.87833    15079 
341000000   -337.07172    7673.7771    13054.775   -184.64404    8195.4928    312.85138    15095 
342000000   -317.71651    7804.0041    13005.987   -89.529313    8211.2499     311.6822    15111 
343000000   -369.61085    7696.3621    13127.436   -123.39287    8189.3658    314.59266    15084 
344000000   -329.64947    7927.4383    12791.315   -30.194006    8287.2818    306.53769    15103 
345000000   -333.18776    7834.1433     12786.56    42.415771    8124.9153    306.42373    15064 
346000000   -356.48683    7747.5175    12913.498   -41.187332    8145.1917    309.46574    15099 
347000000   -345.41939    7574.4983    13054.225   -259.14642    8179.0641     312.8382    15129 
348000000   -335.73225    7699.2525    12900.304   -61.864793    8096.8496    309.14955    15102 
349000000    -341.0864    7570.2344    12909.166   -117.26905    8028.5899    309.36193    15098 
350000000   -336.02355    7627.2481    12867.064   -247.67338     8210.945    308.35297    15134 
351000000   -334.05492    7520.2445    12889.441   -244.74264    8099.0421    308.88923    15114 
352000000   -352.96818    7763.6158    13006.315   -114.17681    8230.7608    311.69007    15111 
353000000   -381.27221    7705.8903    12934.637   -64.018848    8151.1813    309.97234    15100 
354000000   -321.05707    7671.8235    13037.466   -118.77119    8111.6517    312.43657    15123 
355000000   -340.95183    7979.2745    12797.149    35.049306     8285.177     306.6775    15067 
356000000   -342.52304    7893.6531    12905.977    30.393281    8205.7829     309.2855    15088 
357000000   -327.59001    7810.1443    12816.689    55.878913    8081.8554    307.14576    15078 
358000000   -337.70323    7653.3197    12878.047   -138.11538    8129.1383    308.61618    15104 
359000000    -341.6411    7535.9011    12888.262   -152.36378     8029.906    308.86098    15108 
360000000   -357.55802    7723.1431    12880.881   -168.80126    8249.5023    308.68409    15109 
361000000   -351.22173    7751.4325    12902.706   -11.311446    8113.9657    309.20711    15110 
362000000   -358.92503     7885.741    12921.931    28.231801    8216.4342    309.66784    15102 
363000000    -348.9357    7845.1273    12992.905    58.516988     8135.546     311.3687    15089 
364000000   -312.79316    7902.4566    12973.494    45.299308    8169.9505    310.90352    15075 
365000000    -333.5665    7591.9542    12811.585   -182.82751    8108.3482    307.02345    15102 
366000000   -340.47179    7738.4537    12930.114   -59.976724    8138.9023    309.86394    15084 
367000000   -364.60846    7680.6316    12858.153   -63.552329    8108.7924    308.13944    15090 
368000000   -360.66924    7734.2932    13014.368   -73.601181    8168.5636    311.88304    15139 
369000000   -363.89035    7642.4126     12993.51   -149.22395    8155.5269    311.38319    15111 
370000000   -340.12914    7716.3831    12918.535   -127.69366    8184.2059    309.58646    15095 
371000000   -363.99179    7713.3307    13012.575   -106.71516    8184.0377    311.84007    15123 
372000000    -342.9887    7664.3651    12893.212   -76.935662    8084.2894    308.97961    15102 
373000000   -379.39796    7673.5658    12915.297   -147.57457    8200.5384    309.50885    15120 
374000000   -346.98741    7497.6371    13181.681   -246.74488    8091.3694    315.89263    15136 
375000000   -343.47913    7541.5547     12742.29   -144.75904    8029.7929    305.36283    15126 
376000000    -344.9167    7659.4989    12870.133   -55.911311    8060.3269    308.42652    15087 
377000000   -320.76265    7793.3747    12877.062   -7.7741633    8121.9116    308.59257    15090 
378000000   -319.73939    7712.3732    12874.996   -148.27862    8180.3912    308.54306    15113 
379000000    -362.2829      7823.04    13032.677    30.446504    8154.8764    312.32181    15073 
380000000   -335.10485    7890.4879    12866.157    35.856588    8189.7362    308.33123    15077 
381000000   -342.65591    7665.5277    12865.628   -94.919431    8103.1031    308.31857    15130 
382000000   -322.92679    7724.0864     12966.18    -143.5803    8190.5935    310.72824    15089 
383000000   -338.66269    7728.9909     12949.35   -85.022273    8152.6758    310.32491    15118 
384000000   -323.40646    7625.7161    13022.503   -159.60861    8108.7312    312.07799    15097 
385000000   -336.93356    7706.1584     12930.97   -80.926493    8124.0185    309.88445    15108 
386000000    -344.8038     7769.579    12960.362   -25.690002    8140.0728    310.58881    15112 
387000000   -318.02306    7880.1666     13011.58    34.893851    8163.2958    311.81622    15066 
388000000    -332.2225    7770.6816    13071.405   -22.318978    8125.2231    313.24991    15079 
389000000    -310.6316    7639.5661    13017.213   -193.12549    8143.3232    311.95123    15108 
390000000   -336.97396    7752.6446    12731.933   -124.45535    8214.0739    305.11464    15113 
391000000   -350.72093    7689.1761    12954.686   -131.44354    8171.3406    310.45281    15106 
392000000    -332.0982    7878.1386     13071.64    51.914312    8158.3224    313.25554    15068 
393000000   -352.91134    7639.2906    12842.397    -194.9849    8187.1869    307.76185    15128 
394000000   -309.39372    7724.3318    12951.946    -174.5516    8208.2771    310.38714    15125 
395000000   -344.93335    7525.1166    12982.796    -209.2867    8079.3366    311.12643    15119 
396000000   -350.75536    7710.0254    12887.133   -85.425549    8146.2063    308.83393    15101 
397000000   -338.20793     7716.205     12737.37   -97.234537    8151.6474    305.24491    15084 
398000000   -317.10348    7631.0384    12975.337   -212.83732    8160.9792    310.94769    15114 
399000000   -347.64406    7619.6131    12957.991   -147.72538    8114.9826    310.53199    15084 
400000000   -322.11639    7826.9134    12937.631    -60.27603    8209.3058    310.04409    15087 
401000000   -336.60181    7789.7035    12824.617   -85.712086    8212.0173    307.33575    15136 
402000000   -326.45025    7767.0146    13061.934   -126.40835    8219.8732    313.02295    15102 
403000000   -324.08633    7855.1159    13012.889   -75.004483    8254.2068    311.84761    15103 
404000000    -341.6954    7629.9826    12995.462   -120.06133    8091.7394    311.42998    15108 
405000000   -313.06307    7662.2466    13019.857   -176.65681    8151.9665    312.01459    15094 
406000000   -321.02125    7846.4144    12951.616    -2.192991    8169.6287    310.37924    15097 
407000000   -332.64998    7669.0796    12811.543   -236.31028    8238.0399    307.02245    15114 
408000000   -335.16858    7574.9096    12978.338   -241.99903    8152.0772    311.01961    15139 
409000000   -339.99851     7682.089    12975.703    -176.6142    8198.7017    310.95646    15097 
410000000   -332.66731    7758.0676    12867.007   -37.462289    8128.1972    308.35162    15111 
411000000   -330.33979    7701.8356    12799.684   -124.95203    8157.1274    306.73825    15116 
412000000   -340.93911    7773.3612    12941.384   -31.998425    8146.2987    310.13402    15086 
413000000   -322.90805    7676.2769      12968.6   -148.36969    8147.5546    310.78623    15111 
414000000   -332.63962    7819.0191    12926.463   -38.604886    8190.2636    309.77645    15101 
415000000   -375.23075    7662.4538    12817.311   -140.69939    8178.3839    307.16068    15098 
416000000   -292.47211    7801.6039    12925.565   -11.545462    8105.6215    309.75494    15080 
417000000   -325.75263    7677.2816    12924.081    3.5415984    7999.4927    309.71936    15083 
418000000   -342.46014    7779.8377     12843.73  -0.30513498     8122.603    307.79378    15079 
419000000   -329.85166    7763.7299    12754.322   -54.344974    8147.9265    305.65116    15093 
420000000   -322.32016    7752.0502    13172.697    10.194071    8064.1763    315.67733    15095 
421000000   -346.75963    7598.6978    12935.804   -111.79051     8057.248     310.0003    15101 
422000000    -289.9263     7938.547    12840.312    22.344847    8206.1285    307.71189    15068 
423000000   -316.72874    7868.1605    13135.412    19.577282    8165.3119    314.78381    15086 
424000000   -349.09592    7704.6573    12873.132   -98.712071    8152.4652    308.49839    15096 
425000000   -355.53749    7647.7818    12977.227   -132.54641    8135.8657    310.99297    15116 
426000000   -338.48119    7656.0652    12913.901   -120.05226    8114.5987    309.47539    15125 
427000000   -335.34145     7696.321    12922.414   -134.71379    8166.3763    309.67941    15112 
428000000   -355.31372    7660.9166    13022.901   -146.56365     8162.794    312.08753    15102 
429000000   -345.91589    7814.4935    13037.665   -20.754103    8181.1635    312.44135    15087 
430000000   -368.80555    7635.7072    12921.422   -171.05241    8175.5651    309.65565    15117 
431000000   -358.70921    7878.4664    12902.795   -3.8385184    8241.0141    309.20926    15083 
432000000   -328.05469    7664.6419    12966.679   -169.58739     8162.284    310.74021    15120 
433000000   -330.58063    7625.5071    12960.771   -120.43916    8076.5268    310.59862    15121 
434000000    -352.3993    7793.0656    12970.704   -20.703293    8166.1682    310.83666    15102 
435000000   -303.88971    7796.5143    12825.246   -113.66834    8214.0723    307.35083    15114 
436000000   -331.37732    7706.7834    12908.067   -97.182422    8135.3431     309.3356    15119 
437000000    -328.9447    7685.0752    12989.543   -159.37865    8173.3985    311.28813    15115 
438000000   -379.80254    7709.3987    13020.578    -84.45431    8173.6556    312.03187    15098 
439000000    -331.1691     7707.757    12879.758   -171.06814    8209.9942    308.65719    15107 
440000000   -342.58044    7789.0761    13066.456   -40.314383    8171.9709    313.13131    15085 
441000000    -321.5605    7674.0121     12942.97   -58.890909    8054.4635    310.17202    15083 
442000000   -340.69537    7818.2986    12877.156   -89.146422    8248.1404    308.59482    15101 
443000000   -324.10237    7521.0548    12847.736   -247.28693    8092.4441    307.88978    15136 
444000000   -324.49566    7808.6828    12835.197   -61.015365    8194.1938    307.58929    15083 
445000000   -346.30615    7621.5265    12919.399   -91.620885    8059.4536    309.60716    15101 
446000000   -333.81357    7721.9524    12681.755   -70.473092    8126.2391    303.91213    15095 
447000000   -321.96074    7671.6842    12868.987   -264.39824    8258.0432    308.39905    15135 
448000000   -369.20842    7734.1671    12792.856   -88.090264    8191.4658    306.57462    15117 
449000000   -326.24523    7766.7463    12806.294   -63.513161    8156.5047    306.89664    15081 
450000000   -312.54937    7801.8754    12845.676   -90.533079    8204.9578    307.84043    15114 
451000000     -342.706    7765.2123    13192.244   -76.233037    8184.1513    316.14575    15091 
452000000   -336.10618     7602.519    12879.483   -217.94506    8156.5702    308.65058    15132 
453000000   -325.66052    7830.8073    12935.773   -103.92076    8260.3886    309.99955    15102 
454000000   -313.06142    7747.6101     13034.74   -48.140823    8108.8124    312.37124    15099 
455000000   -357.94855    7824.2295     12901.18    -7.869318    8190.0474    309.17054    15093 
456000000   -327.93278    7747.2928    12921.967   -81.828605    8157.0542    309.66871    15094 
457000000   -318.30302    7947.8027    12876.323    46.245009    8219.8607    308.57486    15074 
458000000   -348.47784    7715.1701    12819.761   -143.67601    8207.3239    307.21938    15137 
459000000   -325.94394    7830.8347    12822.674    11.346255    8145.4324     307.2892    15081 
460000000   -348.44489    7707.8534    12896.974    -51.65581    8107.9541    309.06975    15101 
461000000   -315.87031    7704.5325    13021.497   -107.92924    8128.3321    312.05388    15102 
462000000     -316.017     7735.984    12897.989   -170.29406    8222.2951    309.09407    15145 
463000000   -365.83645    7877.6309    12985.393    -3.751166    8247.2185    311.18867    15097 
464000000   -308.16919    7757.2689    12932.852    30.317319    8035.1208    309.92955    15082 
465000000   -328.59809    7650.7223    12981.051   -195.97242    8175.2928    311.08462    15122 
466000000   -378.62683    7818.3995    12846.892   -67.004837    8264.0312    307.86955    15097 
467000000   -353.02514    7983.5234    12976.187    61.099646    8275.4489    310.96806    15071 
468000000   -348.47325    7874.2365    12817.932    41.528085    8181.1816    307.17555    15064 
469000000   -322.47373    7567.9892    12839.103   -174.02351    8064.4865     307.6829    15118 
470000000   -308.30786    7906.8324    12876.278   -92.269891    8307.4102     308.5738    15105 
471000000   -340.81484    7769.5138    12958.174   -11.846621    8122.1753    310.53639    15108 
472000000   -324.93477    7770.0747    12980.574   -61.385087    8156.3945    311.07319    15100 
473000000   -347.68332    7792.1167    13021.413    39.234831    8100.5652    312.05187    15089 
474000000   -314.96139    7717.2431    12959.534   -2.2365272     8034.441    310.56897    15070 
475000000   -302.09002    7787.2763    13027.428   -112.52177    8201.8881    312.19602    15094 
476000000   -312.15498    7923.0228    12833.755   -64.972559    8300.1504    307.55474    15100 
477000000   -321.53632    7754.5817    12736.739    32.216913    8043.9011    305.22981    15063 
478000000   -338.86515    7957.4173    12916.157    91.571304    8204.7111    309.52947    15057 
479000000   -309.17567    7821.8089    12864.688   -39.044714    8170.0293    308.29603    15099 
480000000   -309.96923    7954.1759    12865.729    80.237495    8183.9076    308.32099    15057 
481000000    -339.5333    7741.6157    12968.119   -79.431388    8160.5804     310.7747    15119 
482000000   -361.74279    7796.6945    12847.001   -115.77123    8274.2085    307.87217    15105 
483000000    -323.8135    7753.8995     12968.68   -148.80902    8226.5221    310.78815    15093 
484000000   -335.31771    7811.6277    12953.774   -76.368153    8223.3135    310.43094    15097 
485000000   -331.86876    7846.7113    12712.972   -8.5466685    8187.1267    304.66023    15079 
486000000    -359.8354    7642.2438    12830.107   -137.79854    8139.8777    307.46733    15100 
487000000   -348.54558    7658.5503    13046.338   -131.53614     8138.632    312.64919    15106 
488000000   -328.01751    7610.6615    12901.325   -233.38137    8172.0603    309.17402    15116 
489000000   -301.60582    7636.6737    13074.163   -160.35863    8098.6382    313.31601    15117 
490000000   -354.70827    7902.3039    13126.022    6.3150796     8250.697    314.55878    15100 
491000000   -356.58507    7837.4189    12942.229   -83.584071     8277.588    310.15426    15085 
492000000   -307.86702    7686.7339    12807.599   -228.83793    8223.4388    306.92793    15131 
493000000   -336.69637     7954.932    13024.423    26.023764    8265.6046    312.12402    15087 
494000000   -344.17567    7636.6696    12877.576   -97.740949    8078.5862     308.6049    15101 
495000000   -348.16483    7638.2756    12901.945   -86.321804    8072.7622    309.18889    15106 
496000000   -345.92407    7883.9465    13066.574   -3.1994229      8233.07    313.13413    15081 
497000000   -365.53377    7782.2759    12974.833   -34.396125    8182.2058     310.9356    15088 
498000000    -339.1473    7877.6367    12947.845    26.980696    8189.8033    310.28886    15097 
499000000   -311.16115    7908.4919    12813.341    16.768067    8202.8849    307.06553    15076 
500000000   -338.33784    7788.2745    12975.543   -14.159174    8140.7715    310.95262    15090 
Loop time of 150803 on 28 procs for 500000000 steps with 14000 atoms

Performance: 7161.669 ns/day, 0.003 hours/ns, 3315.588 timesteps/s
99.4% CPU use with 28 MPI tasks x no OpenMP threads

MPI task timing breakdown:
Section |  min time  |  avg time  |  max time  |%varavg| %total
---------------------------------------------------------------
Pair    | 13859      | 16503      | 20025      | 977.1 | 10.94
Bond    | 5874.4     | 6629.3     | 11645      |2143.1 |  4.40
Neigh   | 45319      | 45615      | 46174      | 105.3 | 30.25
Comm    | 34562      | 44989      | 49788      |1533.2 | 29.83
Output  | 0.74863    | 0.74968    | 0.75146    |   0.1 |  0.00
Modify  | 23441      | 23528      | 23617      |  30.1 | 15.60
Other   |            | 1.354e+04  |            |       |  8.98

Nlocal:    500 ave 527 max 472 min
Histogram: 2 1 2 5 5 3 2 3 2 3
Nghost:    558.286 ave 866 max 288 min
Histogram: 2 1 6 3 4 3 3 3 1 2
Neighs:    4045.29 ave 4546 max 3328 min
Histogram: 3 2 0 3 1 4 4 1 4 6

Total # of neighbors = 113268
Ave neighs/atom = 8.09057
Ave special neighs/atom = 8.20543
Neighbor list builds = 99802230
Dangerous builds = 0
System init for write_restart ...
Total wall time: 41:53:26
