LAMMPS (5 Jun 2019)
Reading data file ...
  orthogonal box = (-420 -420 -420) to (420 420 420)
  2 by 2 by 7 MPI processor grid
  reading atoms ...
  14000 atoms
  scanning bonds ...
  51 = max bonds/atom
  scanning angles ...
  1 = max angles/atom
  reading bonds ...
  13800 bonds
  reading angles ...
  13600 angles
Finding 1-2 1-3 1-4 neighbors ...
  special bond factors lj:   0          0          0         
  special bond factors coul: 0          0          0         
  2 = max # of 1-2 neighbors
  2 = max # of 1-3 neighbors
  4 = max # of 1-4 neighbors
  56 = max # of special neighbors
  special bonds CPU = 0.00243722 secs
  read_data CPU = 0.151697 secs
Finding 1-2 1-3 1-4 neighbors ...
  special bond factors lj:   1          1          1         
  special bond factors coul: 0          0          0         
  2 = max # of 1-2 neighbors
  2 = max # of 1-3 neighbors
  4 = max # of 1-4 neighbors
  56 = max # of special neighbors
  special bonds CPU = 0.000713995 secs
WARNING: Using 'neigh_modify every 1 delay 0 check yes' setting during minimization (../min.cpp:168)
Neighbor list info ...
  update every 1 steps, delay 0 steps, check yes
  max neighbors/atom: 2000, page size: 100000
  master list distance cutoff = 26.9
  ghost atom cutoff = 26.9
  binsize = 13.45, bins = 63 63 63
  1 neighbor lists, perpetual/occasional/extra = 1 0 0
  (1) pair lj/cut, perpetual
      attributes: half, newton on
      pair build: half/bin/newton
      stencil: half/bin/3d/newton
      bin: standard
Setting up cg style minimization ...
  Unit style    : real
  Current step  : 0
Per MPI rank memory allocation (min/avg/max) = 1.164 | 13.81 | 17.68 Mbytes
Step Temp E_pair E_mol TotEng Press 
       0            0 1.097855e+12      2649600 1.0978577e+12 5.0804878e+08 
    3165            0    -1749.261     5102.442     3353.181 0.0087270459 
Loop time of 0.687463 on 28 procs for 3165 steps with 14000 atoms

98.7% CPU use with 28 MPI tasks x no OpenMP threads

Minimization stats:
  Stopping criterion = energy tolerance
  Energy initial, next-to-last, final = 
     1.09785765867e+12      3353.38932291      3353.18099319
  Force two-norm initial, final = 8.92234e+10 1.58028
  Force max component initial, final = 1.04805e+09 0.193454
  Final line search alpha, max atom move = 0.612771 0.118543
  Iterations, force evaluations = 3165 3624

MPI task timing breakdown:
Section |  min time  |  avg time  |  max time  |%varavg| %total
---------------------------------------------------------------
Pair    | 0.049807   | 0.16936    | 0.30304    |  17.4 | 24.64
Bond    | 0.014869   | 0.04511    | 0.0735     |   7.3 |  6.56
Neigh   | 0.092961   | 0.094291   | 0.096077   |   0.2 | 13.72
Comm    | 0.092277   | 0.22367    | 0.37966    |  17.7 | 32.54
Output  | 0          | 0          | 0          |   0.0 |  0.00
Modify  | 0          | 0          | 0          |   0.0 |  0.00
Other   |            | 0.155      |            |       | 22.55

Nlocal:    500 ave 826 max 174 min
Histogram: 1 3 4 4 2 2 8 1 1 2
Nghost:    338.893 ave 565 max 156 min
Histogram: 3 3 2 1 6 7 2 2 1 1
Neighs:    3508.14 ave 5788 max 1093 min
Histogram: 1 4 2 5 2 1 6 2 0 5

Total # of neighbors = 98228
Ave neighs/atom = 7.01629
Ave special neighs/atom = 5.82857
Neighbor list builds = 221
Dangerous builds = 0
Setting up Verlet run ...
  Unit style    : real
  Current step  : 3165
  Time step     : 0.1
Per MPI rank memory allocation (min/avg/max) = 1.128 | 14 | 16.55 Mbytes
Step Temp E_pair E_mol TotEng Press 
    3165            0    -1749.261     5102.442     3353.181 0.0087270459 
   13165    223.38789   -1371.9917    8907.0644    16856.683   -1.6950785 
Loop time of 1.20281 on 28 procs for 10000 steps with 14000 atoms

Performance: 71.832 ns/day, 0.334 hours/ns, 8313.865 timesteps/s
99.4% CPU use with 28 MPI tasks x no OpenMP threads

MPI task timing breakdown:
Section |  min time  |  avg time  |  max time  |%varavg| %total
---------------------------------------------------------------
Pair    | 0.054738   | 0.18216    | 0.33269    |  18.8 | 15.14
Bond    | 0.036265   | 0.10564    | 0.1706     |  11.1 |  8.78
Neigh   | 0.0021699  | 0.0022892  | 0.0024726  |   0.2 |  0.19
Comm    | 0.24069    | 0.43388    | 0.62089    |  16.2 | 36.07
Output  | 4.4963e-05 | 6.3846e-05 | 8.3928e-05 |   0.0 |  0.01
Modify  | 0.087086   | 0.24414    | 0.39945    |  16.5 | 20.30
Other   |            | 0.2346     |            |       | 19.51

Nlocal:    500 ave 832 max 175 min
Histogram: 2 2 4 4 2 2 8 1 1 2
Nghost:    339.571 ave 563 max 156 min
Histogram: 3 3 1 2 5 8 2 2 1 1
Neighs:    3523.68 ave 5844 max 1124 min
Histogram: 3 2 3 4 2 1 6 2 0 5

Total # of neighbors = 98663
Ave neighs/atom = 7.04736
Ave special neighs/atom = 5.82857
Neighbor list builds = 5
Dangerous builds = 0
4000 atoms in group rxnSites
Neighbor list info ...
  update every 1 steps, delay 1 steps, check yes
  max neighbors/atom: 2000, page size: 100000
  master list distance cutoff = 26.9
  ghost atom cutoff = 26.9
  binsize = 13.45, bins = 63 63 63
  2 neighbor lists, perpetual/occasional/extra = 1 1 0
  (1) pair lj/cut, perpetual
      attributes: half, newton on
      pair build: half/bin/newton
      stencil: half/bin/3d/newton
      bin: standard
  (2) fix bond/create/random, occasional, copy from (1)
      attributes: half, newton on
      pair build: copy
      stencil: none
      bin: none
Setting up Verlet run ...
  Unit style    : real
  Current step  : 0
  Time step     : 25
Per MPI rank memory allocation (min/avg/max) = 17.87 | 18.29 | 18.88 Mbytes
Step E_pair PotEng KinEng E_bond E_angle Temp Bonds 
       0   -1371.9917    7535.0727    9321.6102    3042.4729    5864.5915    223.38789    13800 
 1000000   -205.31136    9418.0736    12960.522    1383.7411    8239.6439    310.59266    14666 
 2000000   -252.24077    8961.8464    12839.161    964.06476    8250.0224     307.6843    14764 
 3000000   -236.17804    8966.6023    12885.083    896.02212    8306.7582    308.78479    14799 
 4000000   -244.97063     8743.849    12950.814    833.52883    8155.2908       310.36    14828 
 5000000   -211.24749    8685.0019    12902.675    735.46298    8160.7864    309.20639    14839 
 6000000    -236.4365    8686.4292    13044.877     671.8442    8251.0215    312.61417    14882 
 7000000   -234.99558    8545.1486    12892.604     644.7119    8135.4323    308.96504    14858 
 8000000   -221.05494    8545.8804    13144.924    639.40697    8127.5283    315.01175    14879 
 9000000   -251.29055    8526.9736     12913.62     548.3814    8229.8827    309.46866    14902 
10000000   -252.49145    8403.6585    12843.791    496.34992    8159.8001    307.79524    14895 
11000000   -235.01112     8434.924    12824.028    471.26202    8198.6731    307.32164    14939 
12000000   -224.89084    8537.6311    12793.104    477.38484    8285.1371    306.58056    14922 
13000000   -269.64716    8460.0858    12943.067    418.07752    8311.6555    310.17434    14937 
14000000   -244.12599    8419.3751    13068.294    465.80713    8197.6939    313.17536    14944 
15000000   -254.39301    8349.2327    12990.425    445.60997    8158.0157    311.30925    14954 
16000000   -264.33637    8324.9686    13068.016    408.59999    8180.7049     313.1687    14945 
17000000   -295.06683    8324.2009    13062.135    348.05854    8271.2092    313.02776    14954 
18000000   -283.34152    8327.1024    12897.701    331.40568    8279.0382    309.08718    14965 
19000000   -315.47571    8455.9777    12839.069    420.30266    8351.1508    307.68209    14957 
20000000   -268.78202    8224.0694    12781.772    243.95212    8248.8993    306.30899    15004 
21000000   -269.55199    8315.4702    12991.458    374.83198    8210.1902    311.33402    14973 
22000000   -257.94926    8367.7686    13070.909    405.88778    8219.8301    313.23803    14987 
23000000   -278.84435    8410.9435    12806.034    356.26398    8333.5239    306.89042    14971 
24000000   -299.29952     8309.013    13028.573     345.9504    8262.3621    312.22346    14989 
25000000   -317.68943    8242.3809    13001.376     294.0291    8266.0412    311.57171    14989 
26000000   -235.60684    8081.0644    12882.748    173.96029    8142.7109    308.72884    15039 
27000000   -283.11668    8301.0618    13074.061    388.63972    8195.5388    313.31356    14977 
28000000   -292.29944    8152.0382    12969.032    224.01789    8220.3198    310.79659    14983 
29000000   -288.46698     8197.137    12779.286    348.51148    8137.0925    306.24942    14996 
30000000   -290.78909    8177.4378    12838.804    306.38186    8161.8451    307.67574    14978 
31000000   -287.52442    8176.1511    13024.072    271.79905    8191.8764    312.11561    15009 
32000000   -290.57841    8132.2354    12873.041    197.41172    8225.4021    308.49621    15005 
33000000   -272.68802    8217.8988    12969.597    305.70083     8184.886    310.81012    14983 
34000000   -305.40571    8156.9994    12983.208    262.45347    8199.9516    311.13632    15009 
35000000   -305.05114    8015.9907    12905.981    85.419971    8235.6218     309.2856    15039 
36000000   -309.15212    8090.6158    13041.357     220.0089    8179.7591    312.52981    15035 
37000000   -298.92212    8256.3845    12774.164    297.36202    8257.9446    306.12667    15011 
38000000   -301.65473    8051.1257    12996.864    148.65319    8204.1272    311.46356    15030 
39000000   -303.64904    7955.0309    12788.536    120.35099    8138.3289    306.47108    15033 
40000000   -276.61734    8135.4434    12910.107    205.74439    8206.3163    309.38449    15004 
41000000   -273.29027    8040.6449    12851.021    164.20208    8149.7331     307.9685    15031 
42000000   -283.27275    8183.6283    12962.651    235.89521    8231.0058    310.64368    15003 
43000000   -301.57467    8228.4381    12811.647     215.2682    8314.7446    307.02493    15022 
44000000    -316.4127    8154.5201    12850.667    291.03924    8179.8935    307.96002    14977 
45000000   -283.21664    8262.0752    12911.335    271.47051    8273.8213     309.4139    15010 
46000000   -294.57127    7850.7984    13008.218   -78.510885    8223.8805    311.73565    15056 
47000000   -252.76546    8134.2787    12883.466    218.41845    8168.6257    308.74604    15025 
48000000   -298.02308    7902.0196    12943.005    32.425213    8167.6174    310.17286    15040 
49000000   -297.68496    8065.4145    12894.384    172.45967    8190.6397    309.00768    15040 
50000000   -311.73268    8075.3663     13022.28    167.69412    8219.4049    312.07265    15047 
51000000   -301.39664    7949.0948    12840.948    48.759478     8201.732    307.72712    15072 
52000000   -318.25482    7905.3118     13035.08   -18.528347    8242.0949     312.3794    15065 
53000000   -320.79655     8074.223    12814.585    97.118408    8297.9012    307.09535    15034 
54000000   -267.53886    8101.6297    13056.258    146.01977    8223.1488    312.88692    15021 
55000000   -296.05421    8127.2446    12832.281    160.34569    8262.9531    307.51941    15027 
56000000   -275.53984    8039.7454    12855.178    87.505973    8227.7792    308.06814    15061 
57000000   -308.57033     7983.347    12789.418    107.47343    8184.4439    306.49223    15041 
58000000   -341.31539    7975.6482    12852.142    73.182371    8243.7812    307.99538    15029 
59000000   -320.81945    8018.8018     12891.61    57.888713    8281.7326    308.94122    15056 
60000000   -311.22219    8090.1023    13025.086    188.31181    8213.0126    312.13989    15043 
61000000   -321.26093    8044.5836    12964.995     120.7089    8245.1357    310.69985    15065 
62000000   -349.06669    7990.1148    12989.792    140.82637    8198.3551    311.29408    15066 
63000000   -269.26794    8075.9939    13062.774    160.60542    8184.6564    313.04308    15045 
64000000   -299.12897    8175.1189    12909.804    238.48967    8235.7582    309.37723    15012 
65000000   -290.15426    8072.8279    12973.962    173.23886    8189.7433    310.91473    15026 
66000000   -323.86746    7815.6988    12933.806   -44.327455    8183.8937    309.95241    15083 
67000000   -291.61709    8022.4759    12956.229    72.026847    8242.0662    310.48976    15073 
68000000   -287.01698    8207.2454    12969.608    217.94539     8276.317     310.8104    15042 
69000000   -312.88805    8100.6337    12937.814    200.24367    8213.2781    310.04846    15026 
70000000   -311.23972    7820.8406     12980.53    1.3268544    8130.7535    311.07214    15061 
71000000   -317.72162    7901.3571    12843.159    30.163277    8188.9155    307.78011    15045 
72000000   -326.69251    8048.9426    12848.441    245.53724    8130.0979    307.90669    15023 
73000000   -313.08171    8079.1067    12974.449    207.98722    8184.2012     310.9264    15023 
74000000   -295.42524    7990.1206    13061.497    94.905346    8190.6405    313.01248    15050 
75000000   -303.03612     8176.121    13093.345    281.48175    8197.6754    313.77569    15026 
76000000   -286.81022    7973.5234    12845.765    83.321779    8177.0118    307.84256    15083 
77000000   -322.60344    7888.8176    12925.861    46.572572    8164.8485    309.76201    15077 
78000000   -315.69145    7885.7548    13091.382   -81.541897    8282.9881    313.72864    15097 
79000000   -325.58889    7855.5215    12901.787   -5.8830533    8186.9934    309.18509    15072 
80000000   -357.61392    7868.5793    12864.748    -20.78219    8246.9754    308.29746    15073 
81000000    -326.0361    7863.3808    12958.285   -7.4654006    8196.8823    310.53905    15092 
82000000   -345.34292    7995.9475    12980.421    47.415872    8293.8745    311.06952    15076 
83000000   -302.14126    7943.0029    12606.542    52.174664    8192.9695     302.1097    15063 
84000000   -304.81522    7871.8051    12986.153    17.278167    8159.3422     311.2069    15076 
85000000   -348.79063    8061.5738    12969.931    89.509172    8320.8552    310.81814    15079 
86000000   -345.07278    7925.0582    12908.841    79.562828    8190.5682    309.35414    15060 
87000000   -306.68453     7838.947    12913.499   -61.290406    8206.9219    309.46578    15084 
88000000   -333.46521     7868.964    12831.391   -12.252933    8214.6821    307.49809    15064 
89000000   -307.84846    8016.3523    12848.409    58.295959    8265.9048    307.90592    15066 
90000000   -325.70071    7795.6646    12901.636   -31.573172    8152.9384    309.18148    15072 
91000000   -316.29831    7907.9398    12975.321    65.465382    8158.7728    310.94729    15055 
92000000   -296.43683    8089.3563    12823.043    154.46613     8231.327    307.29802    15051 
93000000   -318.31239    8048.5474    12782.859    158.18581     8208.674    306.33506    15059 
94000000   -306.78226    8039.5948    12968.351    118.75641    8227.6207    310.78026    15039 
95000000   -301.35663    7851.0088    12810.937   -35.904587      8188.27    307.00793    15047 
96000000   -277.71053    7902.0443    12922.542   0.20661021    8179.5482    309.68249    15081 
97000000    -277.0719    8019.2852    12917.271    164.63464    8131.7224    309.55616    15005 
98000000   -333.71668    7910.9929    12963.487    4.5008128    8240.2088    310.66371    15054 
99000000   -306.43902    7960.4822     13007.21    87.073698    8179.8475    311.71151    15016 
100000000   -324.02939    7894.6648    12917.646    1.1858279    8217.5084    309.56516    15078 
101000000   -309.20765    7996.9286    12951.592    21.459029    8284.6772    310.37865    15062 
102000000   -309.85532    7918.5164    13039.103    56.852574    8171.5191    312.47581    15065 
103000000   -304.24533    7784.5725     12894.09   -63.093554    8151.9114    309.00063    15089 
104000000   -297.30204    8049.5749     13013.94    108.42943    8238.4476     311.8728    15040 
105000000   -314.26904    7913.2852    12842.333    73.372326    8154.1819     307.7603    15065 
106000000    -293.3442    7877.7553     12902.89   -12.720649    8183.8202    309.21153    15069 
107000000   -309.28349    7835.3693    12883.056  -0.86049594    8145.5133    308.73622    15102 
108000000   -335.67771     7808.645    13051.612    7.2135293    8137.1092    312.77558    15070 
109000000   -324.31273    7980.5035    12820.232    134.91096    8169.9053    307.23066    15046 
110000000   -339.64881    7924.5947    12943.718    101.15189    8163.0916    310.18996    15046 
111000000   -321.35017    7809.4225    12998.255    19.506113    8111.2666     311.4969    15083 
112000000   -308.39332     7828.787     12917.65    10.210685    8126.9697    309.56524    15072 
113000000   -317.65705    7843.4277    12891.137    65.604673    8095.4801    308.92987    15044 
114000000   -314.56123    7883.0806    12891.116    40.368649    8157.2732    308.92938    15072 
115000000   -319.26341    7866.9308    12848.761    7.0988726    8179.0953    307.91436    15047 
116000000   -330.51058    7869.9772     12799.98    69.093944    8131.3939    306.74535    15046 
117000000   -348.88406    7777.3683    12869.659    58.661831    8067.5905    308.41517    15068 
118000000   -323.41863    7860.4406    13018.698    16.665257     8167.194    311.98682    15073 
119000000   -302.34371    7804.9265    12990.243    -157.1498      8264.42    311.30491    15113 
120000000   -344.50773    7869.1256     12993.04   0.58971067    8213.0436    311.37194    15081 
121000000   -318.41089    7769.6116    13066.297   -29.356785    8117.3792     313.1275    15092 
122000000   -343.24659    7985.3986    13035.346    113.18473    8215.4605    312.38577    15063 
123000000   -314.80185    7778.0049    12992.293   -82.201556    8175.0083    311.35404    15096 
124000000    -328.4248    7969.2832    12897.944    81.121588    8216.5864      309.093    15056 
125000000   -335.39113    7921.3222    12869.846    80.403293    8176.3101    308.41964    15037 
126000000   -307.53131    8071.2797    13066.672    143.20561    8235.6054     313.1365    15063 
127000000     -311.299    7735.0266    12946.511   -124.86809    8171.1936    310.25687    15089 
128000000   -327.19087    7888.7933    12794.349    36.038665    8179.9455    306.61039    15063 
129000000   -281.08451    7910.5327    12896.837    2.5259907    8189.0912    309.06647    15088 
130000000   -309.44741    8044.7809     12936.35    65.802246    8288.4261    310.01338    15042 
131000000   -308.02298    7954.9656    12948.456    131.45519    8131.5334    310.30349    15050 
132000000   -353.73008    7843.2182    12930.915    95.667103    8101.2812    309.88315    15044 
133000000    -311.7507    7906.3855    12971.336    96.539122    8121.5971    310.85181    15061 
134000000   -342.57794    7840.9904    12961.709    60.220809    8123.3475     310.6211    15069 
135000000   -341.89078    7646.9736    12979.995   -9.1134522    7997.9778    311.05932    15083 
136000000   -337.83119    7718.1652    13006.602   -66.023756    8122.0201    311.69694    15088 
137000000   -310.39575    7747.1682    13005.051   -45.202084     8102.766    311.65976    15070 
138000000   -333.01785    7884.5845     12851.66   -28.031598    8245.6339    307.98382    15074 
139000000    -347.4147    7909.0281    12851.423    72.795136    8183.6477    307.97815    15056 
140000000   -282.43614    7770.1802    12948.474   -97.333984    8149.9503    310.30392    15095 
141000000   -339.67168    7994.0309    12823.401    114.51923    8219.1834    307.30661    15043 
142000000   -359.89291    7872.0437    12887.228    102.52833    8129.4082     308.8362    15064 
143000000   -300.95645    7759.8006    12959.905     -10.4188    8071.1759    310.57786    15075 
144000000   -303.18053    7820.7634    13043.208   -44.211645    8168.1556    312.57419    15079 
145000000   -345.32341    7905.7096    12884.478      4.85155    8246.1815     308.7703    15071 
146000000   -315.56448    7781.5288    12893.488    31.079071    8066.0142    308.98621    15090 
147000000   -333.54339    7953.5835    12933.696     42.61807    8244.5089    309.94979    15071 
148000000   -320.34738    8020.9439    13027.433    187.09481    8154.1964    312.19614    15015 
149000000   -324.81557    7911.0429    13023.645 -0.014776361    8235.8732    312.10535    15060 
150000000   -317.89705    7904.6471    12870.879    15.003837    8207.5403     308.4444    15061 
151000000   -292.93739    7825.1102    13118.005   -44.374339    8162.4219    314.36666    15094 
152000000   -331.78033    7923.4072    12892.054    23.542721    8231.6448    308.95185    15055 
153000000   -329.62353    7681.6226    12936.147     -114.379    8125.6251    310.00852    15117 
154000000   -318.44992    7712.8775    12910.911   -111.17437    8142.5018    309.40375    15085 
155000000   -345.81777    7823.4963     12843.49   -64.932933    8234.2471    307.78804    15086 
156000000   -306.22621    7908.2006    12835.654     96.93899    8117.4878    307.60025    15068 
157000000   -298.64654    7858.8343     12909.14   -96.559201      8254.04     309.3613    15097 
158000000    -335.4965    7862.0582    12973.458    45.462031    8152.0927    310.90265    15062 
159000000   -333.18989    7726.9939    12878.252    7.3692682    8052.8145     308.6211    15069 
160000000   -318.80015    8105.2104    12820.607    191.72209    8232.2884    307.23965    15043 
161000000   -363.21313    7798.0013    12826.126   -10.895525      8172.11    307.37191    15097 
162000000   -353.85592    7746.3769    12904.735   -28.525081    8128.7579    309.25573    15088 
163000000   -315.57106    7831.1151    13002.471   -31.442995    8178.1291    311.59794    15070 
164000000   -335.54215     7863.407    12976.351    15.879754    8183.0694    310.97199    15087 
165000000   -311.37726    7865.1376     12974.62   -3.7074117    8180.2223    310.93049    15084 
166000000   -352.95685    7951.4315    12997.407    76.421477    8227.9668    311.47659    15075 
167000000   -302.56832    7718.1587    12949.595   -135.81643    8156.5435     310.3308    15114 
168000000   -333.27983    7806.9543     12986.26   -49.611717    8189.8458    311.20945    15087 
169000000    -338.5538    7930.9751     12999.74    43.193766    8226.3351     311.5325    15055 
170000000   -321.68547     7839.757    12943.613   -43.438516     8204.881    310.18745    15082 
171000000   -344.01824    7753.8842    12828.625    23.559209    8074.3432     307.4318    15079 
172000000   -324.37794     7770.626    12784.424   -101.23695    8196.2408    306.37255    15096 
173000000   -327.38718    7591.9132    12998.314   -137.21264     8056.513    311.49831    15108 
174000000   -352.77099    7815.4402     12860.27    53.793026    8114.4182    308.19017    15091 
175000000    -349.2135    7771.9217    12920.305   -20.751184    8141.8864    309.62886    15077 
176000000   -303.09983    7742.7142    13057.671   -19.328215    8065.1422    312.92078    15078 
177000000   -343.83941    7753.7382    13062.577   -53.489379     8151.067    313.03835    15098 
178000000   -331.19009    7944.5242    12940.287     17.93531     8257.779    310.10772    15076 
179000000    -353.8163    7890.6036    12978.328    29.710315    8214.7096    311.01936    15068 
180000000   -338.30091     7735.373    13046.193   -73.356466    8147.0304    312.64572    15090 
181000000   -336.77171    7639.2593    12872.422   -178.44538    8154.4764    308.48138    15124 
182000000    -332.0028    7763.0912    12978.948   -73.138942    8168.2329    311.03423    15111 
183000000   -314.73303    7823.5776    12951.214   -2.0286701    8140.3393    310.36959    15073 
184000000   -340.00174    7845.7248     12844.57   -105.64837    8291.3749    307.81393    15102 
185000000   -363.38433    7729.0239    12856.852   -31.352748     8123.761    308.10825    15110 
186000000   -298.61125    7645.8877    12758.368   -180.98401    8125.4829    305.74812    15085 
187000000   -314.06158    7828.6504    12751.966   -51.461469    8194.1734    305.59471    15088 
188000000   -322.79446    7671.5062    12850.535   -121.94455    8116.2452    307.95687    15097 
189000000   -353.94056    7696.1999    12995.898   -110.12952      8160.27    311.44043    15090 
190000000   -372.93206    7769.1344     12850.54   -74.539904    8216.6064    307.95699    15108 
191000000   -365.93299    7716.3136    12706.028   -41.284251    8123.5309    304.49383    15088 
192000000   -337.25569    7793.9885    12904.662   -32.631034    8163.8753    309.25401    15080 
193000000    -337.1154    7891.2253     12989.68   -17.086111    8245.4268     311.2914    15102 
194000000    -347.7679    7642.8595    12998.864   -78.050403    8068.6778    311.51151    15078 
195000000   -294.18186    7843.4506     12783.77    -35.54542    8173.1779    306.35688    15087 
196000000   -323.08886    7878.9023    12899.788    8.0098164    8193.9814    309.13719    15068 
197000000   -357.87366    7681.4535    12930.964   -141.65601    8180.9831    309.88432    15098 
198000000   -355.61033    7695.6075    12986.404   -47.788793    8099.0066    311.21289    15102 
199000000   -326.85795    8010.6269    12929.254    123.24664    8214.2382    309.84333    15054 
200000000   -312.67658    7926.4633    12885.406    46.490583    8192.6493    308.79254    15064 
201000000   -337.39322    7885.4668    12810.965    32.617022     8190.243    307.00858    15078 
202000000    -330.5512    8065.4974    12977.784    150.67383    8245.3748    311.00633    15065 
203000000   -325.25345    7735.3799    12854.307   -134.74998    8195.3833    308.04727    15077 
204000000   -327.48706    7944.0932    12936.741    69.652024    8201.9283    310.02275    15070 
205000000   -326.99432    7821.8396    12974.879   0.80258181    8148.0314     310.9367    15082 
206000000   -350.86318    7912.6926    12979.916   -68.051694    8331.6075    311.05742    15074 
207000000   -346.83748    7799.7817    12980.472   -21.977304    8168.5965    311.07075    15083 
208000000   -348.96074    7756.0469    13048.083   -145.66888    8250.6765    312.69102    15090 
209000000   -351.08164    7888.4672    12963.978     37.34936    8202.1995    310.67548    15079 
210000000   -300.36591    7929.6655    13022.182    84.340875    8145.6906     312.0703    15072 
211000000   -317.82984    8020.3339    12809.896    178.20261    8159.9612    306.98298    15032 
212000000    -318.0489    7748.2152    12836.565   -66.107556    8132.3717    307.62208    15080 
213000000   -335.67132    7845.9206    12922.099    48.839917     8132.752    309.67187    15054 
214000000    -330.7816    7969.9082     12793.84    112.38463    8188.3052     306.5982    15043 
215000000   -325.76866    8020.5941     12987.19    60.764303    8285.5984    311.23175    15074 
216000000   -305.04279    7742.9844    12795.254    44.342445    8003.6847    306.63209    15071 
217000000   -337.73431     7934.574    12887.032    -34.93165      8307.24     308.8315    15064 
218000000   -335.25673    7850.9224    12922.902   -5.9612813    8192.1405    309.69111    15070 
219000000   -363.79282    7950.6807    13142.291     58.24657     8256.227    314.94866    15077 
220000000   -335.64102    7848.0029    12819.285   -48.647001    8232.2909    307.20798    15079 
221000000   -356.30835    7778.2686    12952.505   -82.785187    8217.3621    310.40054    15076 
222000000   -313.73028    7996.8924    12947.591   -19.547792    8330.1705    310.28277    15083 
223000000   -352.23409     7788.279    12892.172   -96.788808    8237.3019    308.95468    15090 
224000000   -325.12318    8060.5027    12993.544    75.051801    8310.5741    311.38402    15076 
225000000   -336.44565    7695.3574    12953.439    -139.2795    8171.0825    310.42292    15126 
226000000   -331.36816    7768.5995    12991.065   -44.470909    8144.4386     311.3246    15081 
227000000    -309.1508    7955.7433    12983.908    73.628412    8191.2657    311.15308    15041 
228000000   -338.10622    7806.4974    12826.077   -37.292327    8181.8959    307.37074    15094 
229000000    -330.2865    7984.6662    12917.747    47.243278    8267.7094    309.56757    15067 
230000000   -333.50343    7859.5945    13030.848   -75.723727    8268.8217    312.27798    15101 
231000000   -331.22834    7820.8205     12924.02   -31.445974    8183.4948    309.71791    15084 
232000000    -347.6317    7729.1994    12976.031    -189.2498    8266.0809    310.96432    15111 
233000000   -359.60388    7655.1116    12776.666   -123.66548     8138.381    306.18663    15096 
234000000   -339.89138    7639.3117    13047.722    -108.4842    8087.6873    312.68236    15104 
235000000   -362.10052    7815.7591    12981.409    7.6487056    8170.2109    311.09321    15069 
236000000   -355.52725    7772.3564    12853.471    11.230956    8116.6527    308.02723    15080 
237000000   -311.61192    7876.5696     12853.29   -38.550754    8226.7323    308.02288    15076 
238000000   -344.19395    7772.6347    12864.903    30.271118    8086.5576     308.3012    15074 
239000000   -351.16102    7606.0593    13071.226   -166.63649    8123.8568    313.24563    15103 
240000000   -327.65892    7862.8562    13056.854    86.132881    8104.3822    312.90121    15061 
241000000   -361.11465    7701.5661    12936.347   -27.623895    8090.3047    310.01332    15098 
242000000   -346.23639    7797.9943    12867.039   -27.902189    8172.1329    308.35237    15089 
243000000   -318.03949    7866.7762    12912.116   -34.187047    8219.0027    309.43263    15106 
244000000   -328.36482    7539.2521    13161.382   -210.76589    8078.3828    315.40616    15120 
245000000    -315.1484    7736.1153    12837.573   -84.288593    8135.5523    307.64623    15097 
246000000    -330.9689    7807.8725    12802.592    17.073827    8121.7675    306.80794    15080 
247000000   -330.08606    7703.1087    12962.202   -123.49398    8156.6887    310.63292    15102 
248000000   -358.52675    7755.4378    12972.185    32.847441    8081.1171    310.87216    15075 
249000000   -337.57074    7670.8222    12900.775   -265.80662    8274.1996    309.16083    15147 
250000000   -341.36237    7742.3928    12942.954   -154.73555    8238.4907    310.17164    15112 
251000000   -319.32127    7671.9813    13055.669   -214.14376    8205.4464     312.8728    15117 
252000000   -346.94122    7816.4573    12942.046   -18.092325    8181.4908    310.14989    15085 
253000000   -318.03277    7732.2423    13068.897   -94.380448    8144.6556    313.18981    15059 
254000000   -345.61161    7761.9966    12854.338   -70.598694    8178.2069    308.04802    15082 
255000000   -331.58625    7687.8066     12887.04   -123.82765    8143.2205     308.8317    15103 
256000000   -334.59367    7707.2349     12952.14   -214.70419    8256.5327    310.39177    15119 
257000000   -344.13005    7522.1934    13097.856   -314.45633    8180.7798     313.8838    15145 
258000000    -345.3056    7700.5799    13051.768   -163.39049     8209.276    312.77932    15126 
259000000   -313.56624    7792.8889    12909.418   -111.74487       8218.2    309.36796    15091 
260000000   -342.12051    7882.0139    12916.401   -40.613162    8264.7476    309.53532    15081 
261000000   -327.74064     7838.825    12931.215    24.001416    8142.5642    309.89032    15093 
262000000    -317.0777    7836.0813    12849.435   -56.498011     8209.657    307.93051    15085 
263000000   -312.41449     7692.875    12963.926   -87.288851    8092.5783    310.67423    15100 
264000000   -347.29835    7734.0962    12910.681   -66.697363    8148.0919    309.39823    15102 
265000000    -314.9301    8009.1558    12981.706    72.099395    8251.9865    311.10032    15074 
266000000   -331.70816    7910.7201    12893.304    9.7736717    8232.6546    308.98182    15086 
267000000   -328.70609    7857.2684    13022.517    -87.69935    8273.6738    312.07834    15109 
268000000    -336.0359    7624.9612    12759.101   -206.81578    8167.8129    305.76569    15115 
269000000   -326.09882    7708.7586    13027.603   -189.46853     8224.326    312.20022    15123 
270000000   -358.49804    7977.7227    13039.577    101.70166    8234.5191    312.48716    15071 
271000000   -324.53026    7649.5554    12957.422   -168.87861    8142.9643    310.51837    15121 
272000000   -332.98388    7800.8953    12912.932   -142.76823    8276.6474    309.45217    15096 
273000000   -326.13055    7784.3611    13045.218    20.613953    8089.8777    312.62235    15079 
274000000   -345.03596    7735.2411    12822.405   -91.194247    8171.4713    307.28275    15091 
275000000   -316.05452    7890.3569    12835.347   -31.065049    8237.4765    307.59289    15080 
276000000   -341.63672     7655.299    12882.445   -223.65357    8220.5893    308.72158    15115 
277000000   -344.12143    7873.5681    13159.099    80.632754    8137.0568    315.35146    15076 
278000000    -320.1923    7825.1924    13005.962   -99.116777    8244.5015    311.68159    15101 
279000000   -311.89973     7737.677    12907.619   -101.29049    8150.8673    309.32485    15064 
280000000   -323.93649    7939.8008    12797.547    42.153121    8221.5842    306.68703    15065 
281000000    -335.4565    7724.3976    12903.757   -187.68322    8247.5373    309.23231    15106 
282000000   -329.78314    7744.3129    12835.224    12.716158    8061.3798    307.58994    15084 
283000000    -365.5683    7785.8195    12960.662   -43.834038    8195.2219    310.59601    15095 
284000000   -308.96629    7994.5931    12965.967    19.955756    8283.6036    310.72315    15084 
285000000   -364.14823    7514.5146    12918.899   -249.71058    8128.3734    309.59518    15113 
286000000   -271.10907    7683.4839    12939.577   -138.56807    8093.1611    310.09072    15093 
287000000   -340.17443    7620.1987    12896.764   -85.375805    8045.7489    309.06472    15084 
288000000   -307.55104    7832.4159    12894.156    -46.64575    8186.6127    309.00223    15081 
289000000   -376.81553    7725.8072    12966.353   -128.43851    8231.0612    310.73238    15108 
290000000   -323.68924    7689.6117    12927.256   -61.478309    8074.7792    309.79544    15090 
291000000    -319.3982    7777.6284    12794.347   -66.634173    8163.6608    306.61035    15095 
292000000   -324.21769    7739.7393     12989.25   -83.679511    8147.6365     311.2811    15101 
293000000   -336.15508    7825.1917    12906.518   -76.754259    8238.1011    309.29847    15088 
294000000   -330.44473    7643.2555     12857.36   -197.26493    8170.9652    308.12043    15101 
295000000   -349.00592    7680.9746    12947.373   -227.97037    8257.9508    310.27755    15122 
296000000   -350.67262     7788.308    12889.714   -89.068751    8228.0494    308.89577    15123 
297000000   -372.65116    7600.6841    13006.175   -136.63479      8109.97    311.68672    15102 
298000000   -314.23029    7590.3204    12889.129   -254.94974    8159.5004    308.88175    15136 
299000000   -358.71956    7613.5406    13011.457   -257.69686     8229.957    311.81329    15143 
300000000   -308.92137    7766.0781     12930.52   -76.719949    8151.7194    309.87368    15110 
301000000   -310.96106    7969.5031    13027.064    43.669098     8236.795    312.18729    15077 
302000000   -348.26381      7666.73    12934.997   -63.704667    8078.6985    309.98096    15118 
303000000   -319.76759    7733.3413    12923.051   -45.523988    8098.6329    309.69467    15081 
304000000   -332.74796    7846.9982    12894.221    38.423658    8141.3225    309.00379    15083 
305000000   -340.68753    7838.5403     12847.76     51.47921    8127.7486    307.89038    15085 
306000000   -333.97888    7793.4099    13157.482   -169.94769    8297.3364    315.31272    15108 
307000000   -355.36066    7861.5389    12879.955   -45.694267    8262.5938    308.66189    15090 
308000000   -357.56255    7787.1627    12896.552   -54.520762     8199.246    309.05965    15101 
309000000   -355.09488    7705.8006    12887.863   -166.57142    8227.4669    308.85141    15109 
310000000   -361.32298    7787.2311     12794.77   -44.659548    8193.2136     306.6205    15089 
311000000   -325.32413    7807.8143    13094.715   -106.33064    8239.4691    313.80852    15115 
312000000   -352.66337    7677.7593    13044.481   -172.54652    8202.9692     312.6047    15097 
313000000   -397.16121    7742.4185     12952.35   -210.88555    8350.4653    310.39681    15130 
314000000   -357.46413    7733.2567    13109.227   -161.14733    8251.8682     314.1563    15127 
315000000   -368.66955    7797.3276    12989.428    1.8446172    8164.1526    311.28538    15092 
316000000   -343.15553    7833.9649    12867.647   -45.202105    8222.3225    308.36696    15079 
317000000   -331.85207    7995.0338    13033.959    18.886928     8307.999    312.35253    15100 
318000000   -321.98709    7653.1816    12979.967   -128.60813    8103.7769    311.05863    15108 
319000000   -357.81902    7584.8103    12951.777   -220.41294    8163.0423    310.38308    15105 
320000000   -332.65007    7767.0426    13004.002   -52.077692    8151.7704    311.63464    15101 
321000000   -321.09751    7851.0808    13023.192   -30.639289    8202.8176     312.0945    15094 
322000000   -328.42974    7733.8874    12936.976    -30.43118    8092.7483    310.02838    15095 
323000000   -342.39835     7803.493     12844.15   -43.563479    8189.4548    307.80385    15077 
324000000    -302.8246    7714.6435    12805.223   -143.20127    8160.6694    306.87099    15110 
325000000    -367.5586    7554.2001    12875.298    -202.6158    8124.3745     308.5503    15119 
326000000   -355.49947    7781.5959    12908.934   -19.738876    8156.8343    309.35636    15073 
327000000   -354.93896    7833.6308    13082.161    42.552474    8146.0173    313.50767    15066 
328000000   -300.81414    7656.5323     12971.09   -109.08922    8066.4356    310.84591    15116 
329000000   -305.33651     7613.066    13013.911   -248.89146     8167.294     311.8721    15138 
330000000   -325.97443    7817.7428    12944.197   -66.455165    8210.1724    310.20144    15103 
331000000   -324.50864    7598.0251    12903.092   -213.57464    8136.1084    309.21636    15129 
332000000   -324.96685    7709.3578     12974.74   -173.58488    8207.9095    310.93337    15122 
333000000   -357.43835    7549.5161    12827.055   -215.86877    8122.8232    307.39418    15101 
334000000   -355.14565    7735.5844    13125.041   -65.037868    8155.7679    314.53528    15133 
335000000   -326.17593      7551.75    12999.711   -155.09626    8033.0222    311.53179    15111 
336000000   -353.80196    7582.0181     13202.59   -192.96563    8128.7857     316.3937    15131 
337000000   -328.02385      7771.79    13003.821   -73.401606    8173.2154    311.63029    15101 
338000000   -315.05084    7815.3734    12879.153    -55.70253    8186.1268    308.64269    15078 
339000000   -327.81201    7693.9381    12836.291   -99.511549    8121.2617    307.61552    15092 
340000000   -353.15695    7856.2343    12872.557    29.155685    8180.2356    308.48461    15072 
341000000   -342.45636    7963.0269    12931.742   -80.470809    8385.9541    309.90295    15120 
342000000    -323.2171    7732.0912    12991.985   -133.19771     8188.506    311.34666    15108 
343000000   -323.94969    7787.6202    12977.532   -103.73735    8215.3072    311.00029    15120 
344000000   -339.25911    7601.4047    12852.031   -145.90526     8086.569    307.99271    15106 
345000000   -319.57745    7635.3932    12854.807   -138.66075    8093.6313    308.05925    15122 
346000000   -317.14914    7783.2345    12799.685   -122.53854    8222.9222    306.73828    15108 
347000000    -311.6463    8058.8395    12877.337    95.603649    8274.8822    308.59916    15072 
348000000   -350.70118    7827.8523    12744.559   -9.0363582    8187.5899    305.41721    15088 
349000000   -370.90941    7660.1395    12851.197   -191.11475    8222.1637    307.97274    15133 
350000000    -321.5804     7703.633     12926.16   -197.11853     8222.332    309.76918    15109 
351000000   -333.57109    7733.5108     12863.44   -90.095564    8157.1775    308.26612    15100 
352000000   -354.22509    7701.6948    13021.572   -80.406774    8136.3266    312.05568    15095 
353000000   -352.76142    7702.6768    12941.416   -126.54471    8181.9829    310.13479    15104 
354000000   -345.02583    7784.8242    12810.177   -68.824229    8198.6742    306.98972    15105 
355000000   -360.29267    7685.7529    12932.052   -133.21406    8179.2597    309.91039    15131 
356000000   -342.22139    7928.9118    12899.889    20.683363    8250.4498     309.1396    15097 
357000000   -324.88787    7826.8392    12850.941   -31.272018    8182.9991    307.96659    15109 
358000000   -331.42873    7653.6598    13019.926   -100.10185    8085.1904    312.01624    15130 
359000000   -352.28293    7664.4117    12934.531   -118.44659    8135.1412     309.9698    15107 
360000000    -339.7713    7582.1255    13085.626   -186.55615    8108.4529    313.59072    15115 
361000000   -325.41908    7722.4793      12835.3   -94.482709    8142.3811    307.59177    15110 
362000000   -378.34584    7707.6987    12997.594   -104.26068    8190.3052    311.48107    15104 
363000000   -352.08254    7704.4036    13058.376    -30.00084     8086.487    312.93768    15108 
364000000   -306.31197    7920.8896    12884.625    14.516549     8212.685    308.77383    15087 
365000000   -348.33346    7925.2325      12883.9    112.22902     8161.337    308.75643    15057 
366000000   -334.41766    7814.5755    12861.882   -51.618555    8200.6117     308.2288    15096 
367000000   -303.45245    7778.9762    13003.532   -110.45597    8192.8847    311.62336    15123 
368000000    -350.6285    7633.6029     13046.68   -154.44642    8138.6778    312.65738    15104 
369000000   -328.11876    7635.3142     12962.66   -109.41575    8072.8487    310.64389    15105 
370000000   -367.43161    7834.4553    12841.582   -25.928561    8227.8154    307.74231    15102 
371000000    -300.2958     7784.047     12909.41    31.800174    8052.5426    309.36779    15086 
372000000   -303.75502    7715.5265    12853.675   -170.87129    8190.1528    308.03212    15104 
373000000   -349.62909    7905.2094    13007.403    -20.28668    8275.1251    311.71612    15106 
374000000   -356.02527    7693.9582    12896.929   -74.288365    8124.2718    309.06869    15091 
375000000   -368.03796    7638.1327    12889.625   -164.47552    8170.6462    308.89365    15109 
376000000    -324.5992    7592.2631    12928.921    -216.4747     8133.337    309.83535    15133 
377000000   -332.43242    7698.6429    12970.417   -52.904335    8083.9797    310.82978    15128 
378000000   -337.04873    7855.2648     12887.71   -44.349112    8236.6627    308.84775    15101 
379000000   -349.76202    7765.3793    13064.854   -67.490162    8182.6315    313.09292    15098 
380000000   -341.14807    7911.0328     12931.85     35.28687     8216.894    309.90555    15089 
381000000   -315.21761    7682.7246    12939.799   -128.34036    8126.2826    310.09604    15095 
382000000   -363.84892    7591.1241    12993.585   -155.91974    8110.8928    311.38499    15122 
383000000   -350.06493    7604.7814    13025.943   -88.946556    8043.7929    312.16044    15083 
384000000   -325.20277    7613.8853    13056.874    -140.1642    8079.2522    312.90168    15100 
385000000   -335.57132    7675.4527    12863.382   -209.85821    8220.8822    308.26475    15103 
386000000   -344.19151    7633.0776    13061.375   -106.68043    8083.9495    313.00955    15110 
387000000   -354.19232    7788.7099    12956.069    27.836864    8115.0653    310.48595    15086 
388000000   -366.87617    7817.2225    12942.993   -29.627626    8213.7262    310.17259    15124 
389000000   -344.70923    7695.9683    12844.434   -172.67467    8213.3522    307.81067    15110 
390000000   -302.46595    7755.9409    12980.335   -113.59944    8172.0063    311.06746    15102 
391000000   -312.78302    7785.5298    13060.528   -148.63275    8246.9456    312.98926    15090 
392000000   -322.69204    7859.0411    13006.048    26.972649    8154.7605    311.68366    15085 
393000000   -321.33742    7828.2808    12935.941    -34.58574     8184.204    310.00358    15104 
394000000   -346.92886    7687.3959    12825.349   -60.269666    8094.5944    307.35329    15081 
395000000   -339.90308    7731.0402    12961.922   -111.07036    8182.0137    310.62621    15109 
396000000   -340.99519    7772.8021    12830.169    5.2138059    8108.5835     307.4688    15092 
397000000   -333.43205    7766.1413    12965.999   -59.383304    8158.9566    310.72391    15097 
398000000   -332.40395    7786.1625    12657.227   -107.88667    8226.4531    303.32434    15110 
399000000   -335.18433    7630.6815    12926.442   -194.30152    8160.1673    309.77595    15122 
400000000   -342.42483    7602.1765    13009.218   -200.03205    8144.6333    311.75964    15138 
401000000   -327.90136    7853.7553    13001.447    -38.94069    8220.5973    311.57339    15104 
402000000   -332.23986    7645.5955    13048.252   -152.40669    8130.2421    312.69506    15119 
403000000   -337.49442    7905.8879    12923.585    14.941302     8228.441    309.70747    15084 
404000000   -329.30603    7765.4659    12949.992    4.3080859    8090.4639     310.3403    15080 
405000000   -335.96368    7911.4795    12904.371    100.58636    8146.8569    309.24701    15076 
406000000   -360.96373    7755.0372    13117.917   -82.129207    8198.1302    314.36455    15095 
407000000   -336.05622    7643.8041    13047.164    -84.13743    8063.9978    312.66898    15104 
408000000   -314.08697    7688.7446    12877.864   -206.61535    8209.4469    308.61178    15140 
409000000   -319.64289    7809.2563    13184.346   -82.679713    8211.5789    315.95648    15094 
410000000   -326.56524    7993.6464    13055.672      72.4294    8247.7822    312.87288    15078 
411000000   -334.63733    7787.0244    13004.631   -32.238101    8153.8998     311.6497    15084 
412000000   -304.26445    7853.9423    13117.265   0.69492363    8157.5118    314.34892    15071 
413000000   -341.76029    7776.9602    12816.946   -117.39611    8236.1166    307.15194    15082 
414000000   -344.79435    7860.1395    13026.624   -25.478273    8230.4122    312.17676    15090 
415000000   -319.43605    7823.7743    12941.517   -129.79233    8273.0027    310.13722    15094 
416000000   -329.57848    7656.3349     12798.08   -201.42172    8187.3351    306.69981    15122 
417000000   -332.58627    7801.6694    12903.971     -122.631    8256.8866    309.23744    15124 
418000000   -337.38774    7763.0882     12974.25   -27.448346    8127.9243    310.92163    15082 
419000000   -317.44147    7870.7651     13020.58   -45.393148    8233.5997    312.03191    15093 
420000000   -303.50577    7735.7411    12878.007   -70.052853    8109.2997    308.61522    15113 
421000000   -351.19535    7678.6099    12780.502   -52.555608    8082.3609    306.27855    15107 
422000000   -295.03915    7686.8451     12993.52   -155.28627    8137.1705    311.38342    15111 
423000000    -339.6896    7804.6994    12699.316   -48.543158    8192.9322    304.33299    15103 
424000000   -338.57278    7810.1594    12979.281   -66.770004    8215.5022    311.04219    15106 
425000000   -325.46731    7883.8752    12919.001   -22.769828    8232.1124    309.59763    15077 
426000000   -344.98074    7778.0126    12843.905     -58.4128    8181.4061    307.79799    15087 
427000000   -301.44655    7830.4658    12879.266    41.318907    8090.5935    308.64539    15077 
428000000   -297.58617    7771.8749    13030.225   -145.17837    8214.6395    312.26306    15105 
429000000   -315.84155    7815.7718    12889.832   -48.826883    8180.4403     308.8986    15118 
430000000    -294.5942    7756.2429    13088.083   -100.88818    8151.7252     313.6496    15114 
431000000   -311.54333     7720.736    12899.709   -170.65485    8202.9342    309.13529    15113 
432000000   -324.59176    7713.3392    12785.869    -118.0742    8156.0052    306.40718    15134 
433000000   -328.28947    7665.2566    12886.148   -192.69102    8186.2371    308.81031    15114 
434000000   -321.21141    7866.6069    12885.568    52.731633    8135.0867    308.79641    15077 
435000000   -336.74893    7732.5855    13082.782    -58.73952     8128.074    313.52256    15073 
436000000    -345.0736    7695.8728    12863.994   -202.40436    8243.3507     308.2794    15113 
437000000   -326.68868    7692.1323    13030.532   -141.87174    8160.6927    312.27041    15115 
438000000   -369.11356    7657.7164    13008.199   -203.86246    8230.6924    311.73522    15127 
439000000   -357.41636    7668.4309    12782.462   -173.09591    8198.9432    306.32552    15105 
440000000   -310.57422    7633.2752    12869.919   -104.74373    8048.5931     308.4214    15105 
441000000    -347.5486     7698.623    12937.814   -29.720743    8075.8923    310.04848    15082 
442000000   -324.27394    7476.3112     12991.92   -222.48749    8023.0726    311.34509    15139 
443000000   -361.69484    7691.5352    12760.356   -121.13733    8174.3674    305.79577    15101 
444000000   -354.46388    7600.1821    12882.632   -241.53182    8196.1778    308.72605    15124 
445000000   -341.72456    7725.9883     12803.17   -79.206125    8146.9189    306.82179    15096 
446000000   -361.37089     7565.586    12828.637    -132.6043    8059.5612    307.43208    15116 
447000000   -377.70637    7530.0593     12934.72   -187.61396    8095.3796    309.97432    15128 
448000000   -385.25908    7757.0109    13067.993    -77.36111    8219.6311    313.16814    15102 
449000000   -396.54536    7676.3623    13001.139   -65.426026    8138.3337    311.56603    15101 
450000000   -346.27981     7824.342    12922.985   -9.6221355    8180.2439    309.69309    15080 
451000000    -339.8391    7545.5957    12859.697   -178.33175    8063.7665    308.17644    15115 
452000000   -348.35365    7740.3869    12883.504   -124.96588    8213.7064    308.74696    15125 
453000000     -331.019    7867.7795    12897.639   -11.725901    8210.5244     309.0857    15087 
454000000   -323.86002    7802.8182    12993.226   -78.746421    8205.4247    311.37639    15101 
455000000   -323.83175    7855.9339     12875.24   -115.24956    8295.0152    308.54891    15094 
456000000   -391.56423    7925.9709    12857.793    136.73608     8180.799    308.13081    15050 
457000000    -339.6865    7886.7813    12883.878   -48.069784    8274.5376    308.75593    15095 
458000000   -328.94382    7643.0027    12807.693   -73.254729    8045.2012    306.93018    15102 
459000000   -364.98829    7811.2271    12764.053   -8.7803094    8184.9957    305.88437    15081 
460000000   -350.13722    7809.4929    12852.175   -89.703818    8249.3339    307.99617    15119 
461000000   -357.21416    7726.3857    12946.023    -84.09403    8167.6939    310.24519    15104 
462000000   -318.79833    7705.2983     12848.38    -127.4252    8151.5218    307.90523    15107 
463000000   -340.91848    7804.3929    12966.486   -112.92729    8258.2387    310.73558    15103 
464000000   -368.15572    7897.6145    12856.791    14.684544    8251.0857    308.10679    15100 
465000000   -323.92751    7823.8923    12934.117   -55.827205     8203.647    309.95988    15090 
466000000   -351.57336    7683.8622    12975.362   -207.08514    8242.5207    310.94828    15112 
467000000   -333.40859    7834.3533    13117.906   -40.596363    8208.3582    314.36428    15101 
468000000   -333.62663    7691.7098    12795.797   -149.21233    8174.5487    306.64509    15108 
469000000   -364.59565     7876.947    13024.006   -47.901919    8289.4445    312.11401    15105 
470000000   -341.59939    7712.9229    12908.847   -62.392755    8116.9151     309.3543    15107 
471000000   -350.27272    7499.1935    13021.938   -282.94307    8132.4093    312.06445    15141 
472000000   -319.72333    7870.6743    12889.581   -114.14624    8304.5439    308.89257    15091 
473000000   -331.35241     7844.241    12861.286    10.177897    8165.4155    308.21451    15076 
474000000   -334.25653    7913.1984    12924.319    50.302076    8197.1529    309.72508    15054 
475000000   -348.79367    7851.7995    12940.905     43.93958    8156.6536    310.12254    15080 
476000000   -357.75366    7782.6825    12812.717    -15.73237    8156.1685    307.05058    15078 
477000000   -344.52318    7899.4215     13089.09    44.035537    8199.9091    313.67371    15064 
478000000   -350.70163     7797.557    12968.991     1.447414    8146.8112     310.7956    15065 
479000000   -347.46056    7878.8761    12918.962   -48.989913    8275.3266    309.59669    15099 
480000000   -308.28426    7633.9075    12871.775   -190.86465    8133.0564    308.46588    15112 
481000000   -332.21854    7647.3275    12863.101   -140.80177    8120.3478      308.258    15116 
482000000   -349.73452    7588.9724    13039.022   -193.46978    8132.1767    312.47386    15138 
483000000   -334.80136    7711.5095    12909.297   -226.24515     8272.556    309.36507    15137 
484000000   -331.99559       7668.4    13047.109   -77.679296    8078.0749    312.66768    15098 
485000000   -347.70103    7715.0337     13090.15   -144.27541    8207.0102    313.69911    15111 
486000000   -352.01898    7519.9447    13107.548   -334.79278    8206.7565    314.11605    15163 
487000000   -335.98026    7646.5923    12971.438   -174.97299    8157.5455    310.85425    15106 
488000000   -320.64351    7804.8465    13007.551   -2.3396428    8127.8297    311.71968    15071 
489000000   -327.21314    7760.5231    12814.673   -92.472677    8180.2089    307.09746    15107 
490000000   -335.91805    7936.9415    12786.465    69.757561     8203.102    306.42147    15074 
491000000   -315.10194    7780.7912    12882.393   -45.796511    8141.6896    308.72032    15098 
492000000   -338.64487    7797.5575    12972.172   -76.742654     8212.945    310.87183    15093 
493000000   -325.73244    7657.0296    12834.225   -50.866424    8033.6285    307.56601    15094 
494000000   -345.45908    7850.6415    12756.957    44.707654    8151.3929    305.71433    15082 
495000000   -317.64265    7619.2351    12854.417   -142.20291    8079.0807    308.04989    15116 
496000000   -366.72905    7717.1523    13018.873   -2.8478476    8086.7292    311.99101    15066 
497000000   -338.16838    8010.8331    12896.875    46.997462     8302.004    309.06739    15085 
498000000   -334.78126    7989.7174    13021.733    14.515236    8309.9835    312.05955    15076 
499000000   -312.08085    7857.6536    12963.808    25.711022    8144.0234    310.67141    15069 
500000000   -321.02537     7758.892    12848.556   -65.930675    8145.8481    307.90945    15105 
Loop time of 138828 on 28 procs for 500000000 steps with 14000 atoms

Performance: 7779.397 ns/day, 0.003 hours/ns, 3601.573 timesteps/s
99.3% CPU use with 28 MPI tasks x no OpenMP threads

MPI task timing breakdown:
Section |  min time  |  avg time  |  max time  |%varavg| %total
---------------------------------------------------------------
Pair    | 13470      | 15732      | 17329      | 709.5 | 11.33
Bond    | 5762.7     | 5896       | 7785       | 479.3 |  4.25
Neigh   | 43979      | 44477      | 44963      | 116.9 | 32.04
Comm    | 40442      | 42341      | 46320      | 632.9 | 30.50
Output  | 0.60568    | 0.60635    | 0.60679    |   0.0 |  0.00
Modify  | 22664      | 22762      | 23079      |  55.9 | 16.40
Other   |            | 7620       |            |       |  5.49

Nlocal:    500 ave 520 max 471 min
Histogram: 3 2 2 2 1 3 1 6 3 5
Nghost:    603.214 ave 881 max 399 min
Histogram: 3 5 4 1 5 3 2 2 2 1
Neighs:    4193.64 ave 5133 max 3192 min
Histogram: 1 0 3 7 2 5 4 2 2 2

Total # of neighbors = 117422
Ave neighs/atom = 8.38729
Ave special neighs/atom = 8.23471
Neighbor list builds = 99798755
Dangerous builds = 0
System init for write_restart ...
Total wall time: 38:33:50
