LAMMPS (5 Jun 2019)
Reading data file ...
  orthogonal box = (-420 -420 -420) to (420 420 420)
  2 by 2 by 7 MPI processor grid
  reading atoms ...
  14000 atoms
  scanning bonds ...
  51 = max bonds/atom
  scanning angles ...
  1 = max angles/atom
  reading bonds ...
  13800 bonds
  reading angles ...
  13600 angles
Finding 1-2 1-3 1-4 neighbors ...
  special bond factors lj:   0          0          0         
  special bond factors coul: 0          0          0         
  2 = max # of 1-2 neighbors
  2 = max # of 1-3 neighbors
  4 = max # of 1-4 neighbors
  56 = max # of special neighbors
  special bonds CPU = 0.00240764 secs
  read_data CPU = 0.145056 secs
Finding 1-2 1-3 1-4 neighbors ...
  special bond factors lj:   1          1          1         
  special bond factors coul: 0          0          0         
  2 = max # of 1-2 neighbors
  2 = max # of 1-3 neighbors
  4 = max # of 1-4 neighbors
  56 = max # of special neighbors
  special bonds CPU = 0.000720685 secs
WARNING: Using 'neigh_modify every 1 delay 0 check yes' setting during minimization (../min.cpp:168)
Neighbor list info ...
  update every 1 steps, delay 0 steps, check yes
  max neighbors/atom: 2000, page size: 100000
  master list distance cutoff = 26.9
  ghost atom cutoff = 26.9
  binsize = 13.45, bins = 63 63 63
  1 neighbor lists, perpetual/occasional/extra = 1 0 0
  (1) pair lj/cut, perpetual
      attributes: half, newton on
      pair build: half/bin/newton
      stencil: half/bin/3d/newton
      bin: standard
Setting up cg style minimization ...
  Unit style    : real
  Current step  : 0
Per MPI rank memory allocation (min/avg/max) = 1.164 | 13.81 | 17.68 Mbytes
Step Temp E_pair E_mol TotEng Press 
       0            0 1.097855e+12      2649600 1.0978577e+12 5.0804878e+08 
    3165            0    -1749.261     5102.442     3353.181 0.0087270459 
Loop time of 0.68825 on 28 procs for 3165 steps with 14000 atoms

99.0% CPU use with 28 MPI tasks x no OpenMP threads

Minimization stats:
  Stopping criterion = energy tolerance
  Energy initial, next-to-last, final = 
     1.09785765867e+12      3353.38932291      3353.18099319
  Force two-norm initial, final = 8.92234e+10 1.58028
  Force max component initial, final = 1.04805e+09 0.193454
  Final line search alpha, max atom move = 0.612771 0.118543
  Iterations, force evaluations = 3165 3624

MPI task timing breakdown:
Section |  min time  |  avg time  |  max time  |%varavg| %total
---------------------------------------------------------------
Pair    | 0.051038   | 0.16524    | 0.28828    |  16.5 | 24.01
Bond    | 0.014814   | 0.044502   | 0.074159   |   7.1 |  6.47
Neigh   | 0.093821   | 0.095251   | 0.09708    |   0.2 | 13.84
Comm    | 0.091677   | 0.22396    | 0.37743    |  16.8 | 32.54
Output  | 0          | 0          | 0          |   0.0 |  0.00
Modify  | 0          | 0          | 0          |   0.0 |  0.00
Other   |            | 0.1593     |            |       | 23.14

Nlocal:    500 ave 826 max 174 min
Histogram: 1 3 4 4 2 2 8 1 1 2
Nghost:    338.893 ave 565 max 156 min
Histogram: 3 3 2 1 6 7 2 2 1 1
Neighs:    3508.14 ave 5788 max 1093 min
Histogram: 1 4 2 5 2 1 6 2 0 5

Total # of neighbors = 98228
Ave neighs/atom = 7.01629
Ave special neighs/atom = 5.82857
Neighbor list builds = 221
Dangerous builds = 0
Setting up Verlet run ...
  Unit style    : real
  Current step  : 3165
  Time step     : 0.1
Per MPI rank memory allocation (min/avg/max) = 1.128 | 14 | 16.55 Mbytes
Step Temp E_pair E_mol TotEng Press 
    3165            0    -1749.261     5102.442     3353.181 0.0087270459 
   13165     223.8147    -1402.349    8886.2174    16823.289   -1.7973587 
Loop time of 1.2078 on 28 procs for 10000 steps with 14000 atoms

Performance: 71.535 ns/day, 0.335 hours/ns, 8279.524 timesteps/s
99.4% CPU use with 28 MPI tasks x no OpenMP threads

MPI task timing breakdown:
Section |  min time  |  avg time  |  max time  |%varavg| %total
---------------------------------------------------------------
Pair    | 0.054216   | 0.18295    | 0.33351    |  18.7 | 15.15
Bond    | 0.036168   | 0.10443    | 0.17041    |  10.9 |  8.65
Neigh   | 0.0016879  | 0.001752   | 0.0018579  |   0.2 |  0.15
Comm    | 0.23826    | 0.4357     | 0.62141    |  15.9 | 36.07
Output  | 4.4899e-05 | 6.456e-05  | 8.5669e-05 |   0.0 |  0.01
Modify  | 0.086618   | 0.24453    | 0.39921    |  16.5 | 20.25
Other   |            | 0.2384     |            |       | 19.74

Nlocal:    500 ave 831 max 173 min
Histogram: 1 3 4 4 2 2 8 1 1 2
Nghost:    338.679 ave 568 max 157 min
Histogram: 3 3 2 1 6 7 2 2 1 1
Neighs:    3518.46 ave 5807 max 1096 min
Histogram: 2 2 3 5 2 1 6 2 0 5

Total # of neighbors = 98517
Ave neighs/atom = 7.03693
Ave special neighs/atom = 5.82857
Neighbor list builds = 4
Dangerous builds = 0
4000 atoms in group rxnSites
Neighbor list info ...
  update every 1 steps, delay 1 steps, check yes
  max neighbors/atom: 2000, page size: 100000
  master list distance cutoff = 26.9
  ghost atom cutoff = 26.9
  binsize = 13.45, bins = 63 63 63
  2 neighbor lists, perpetual/occasional/extra = 1 1 0
  (1) pair lj/cut, perpetual
      attributes: half, newton on
      pair build: half/bin/newton
      stencil: half/bin/3d/newton
      bin: standard
  (2) fix bond/create/random, occasional, copy from (1)
      attributes: half, newton on
      pair build: copy
      stencil: none
      bin: none
Setting up Verlet run ...
  Unit style    : real
  Current step  : 0
  Time step     : 25
Per MPI rank memory allocation (min/avg/max) = 17.87 | 18.29 | 18.88 Mbytes
Step E_pair PotEng KinEng E_bond E_angle Temp Bonds 
       0    -1402.349    7483.8684    9339.4205    2995.9274    5890.2901     223.8147    13800 
 1000000   -240.90825    9403.9347      12867.7    1408.0058    8236.8371    308.36821    14634 
 2000000   -243.73152    8996.2044    12839.363    977.40178    8262.5341    307.68913    14796 
 3000000    -246.3875    8849.4766    12873.979      836.873    8258.9911    308.51869    14798 
 4000000   -231.00235    8890.4427    12759.357    824.38956    8297.0555    305.77183    14826 
 5000000   -246.71876    8458.7555    12974.782    606.98857    8098.4856    310.93439    14874 
 6000000   -263.77377    8539.3867    12953.196    681.91146     8121.249    310.41709    14883 
 7000000   -249.93527    8580.4257     12904.42    542.12421    8288.2367     309.2482    14903 
 8000000    -245.5008     8397.844    12791.411    355.31353    8288.0312    306.53999    14973 
 9000000   -265.49453     8372.487    13008.557    394.40717    8243.5743     311.7438    14937 
10000000   -264.84141    8462.3006    12998.348    524.59916    8202.5428    311.49913    14911 
11000000   -247.03416    8507.1733    12897.696    482.53398    8271.6734    309.08706    14934 
12000000   -263.89258    8253.0368    13048.647    378.74978    8138.1796    312.70452    14951 
13000000   -281.22912    8286.9491    12846.791    407.45437    8160.7239    307.86715    14940 
14000000   -263.65014    8481.3197    13018.007    439.09572    8305.8741    311.97025    14929 
15000000   -289.47743    8365.1925    12923.631    328.83028    8325.8396    309.70858    14984 
16000000   -277.52196    8211.7117    12996.131    343.30017    8145.9335    311.44601    14985 
17000000   -288.59668    8220.1132    12929.148    341.80304    8166.9068    309.84079    14970 
18000000   -261.22918    8317.8584    13016.465    454.33953     8124.748    311.93329    14953 
19000000   -265.35447    8103.0548    12872.035    184.90439    8183.5048     308.4721    15006 
20000000   -286.38845    8082.8541    12992.088    196.22567    8173.0169    311.34913    15001 
21000000   -278.24146    7998.5485    13044.752    114.16856    8162.6214    312.61119    15018 
22000000   -315.36593    8142.6116    12918.229    243.60034    8214.3771    309.57913    15020 
23000000   -312.42659    7884.2229    13044.475    142.03393    8054.6156    312.60454    15020 
24000000   -280.61883    8242.5433    12858.444    221.79181    8301.3703    308.14641    15007 
25000000     -284.064    7923.8712    13016.445    111.89747    8096.0378    311.93282    15034 
26000000   -309.32832    8023.8969    12840.998    183.72951    8149.4957    307.72831    15020 
27000000   -295.38305    8231.0741    12950.954    278.90275    8247.5544    310.36335    15006 
28000000   -267.16827     8003.985    12941.827    191.89756    8079.2557    310.14463    15013 
29000000   -296.89103    8075.3081    12818.624     171.6381    8200.5611    307.19215    15026 
30000000   -284.51657    7943.8773    12941.164    41.054902    8187.3389    310.12875    15048 
31000000   -302.24886    8131.1089    12965.678    313.82666    8119.5311    310.71621    15000 
32000000   -307.43127    8024.1231    12845.072    114.01577    8217.5386    307.82595    15027 
33000000   -293.11254    8229.3424    12972.321    268.95087    8253.5041    310.87541    15021 
34000000   -282.82209    8173.6236    12938.139    374.23616    8082.2096    310.05627    14985 
35000000   -322.89877    8075.2565    13075.833    214.59827     8183.557    313.35602    15005 
36000000   -305.32428    8008.5673    12923.573    128.67401    8185.2176    309.70718    15023 
37000000   -266.42921    8032.0029    12899.633      248.651    8049.7811    309.13347    15013 
38000000   -281.78776    8152.7315    12965.119    197.66405    8236.8552    310.70281    15009 
39000000   -309.66293    7973.1335    12985.886     97.98213    8184.8143    311.20049    15029 
40000000   -297.41746    7879.7667    12995.865    36.287288    8140.8968    311.43963    15045 
41000000   -295.56036    7948.9249    12920.579    42.853234     8201.632    309.63544    15021 
42000000     -283.191       8045.5    13113.627    184.13186    8144.5591    314.26173    15015 
43000000    -290.9358    7932.8123    13087.218    126.10269    8097.6454    313.62886    15030 
44000000   -292.63378    8255.3081    12889.906    201.03249    8346.9094    308.90039    15023 
45000000   -277.28891    8128.1247    12822.225    269.54218    8135.8714    307.27844    15029 
46000000   -295.88439    8173.9179    13161.701    156.49459    8313.3077    315.41381    15025 
47000000   -278.47789    8145.3523    12938.909    227.69182    8196.1384    310.07471    15009 
48000000   -292.83061     8118.888     12990.95     157.6208    8254.0978    311.32185    15001 
49000000    -309.8218    8090.5766     12960.55    228.49363    8171.9048    310.59332    14999 
50000000   -298.13493    8184.8575    12770.358    261.97233      8221.02    306.03546    15026 
51000000   -305.86063    8171.1487    12967.763    198.16805    8278.8413    310.76619    15021 
52000000   -305.00769    8129.4518    12964.286    294.01168    8140.4478    310.68285    15010 
53000000   -289.65177    8097.4406    12934.272     248.0852    8139.0071    309.96358    15016 
54000000   -294.39184    8026.5499    13000.671    192.13666    8128.8051    311.55481    15027 
55000000   -304.38912    8145.6601     12891.83    194.51177    8255.5375    308.94649    15018 
56000000   -310.54845    8074.3503    12990.673    189.25892    8195.6398    311.31522    15003 
57000000   -276.68072    7966.8565    12940.126    83.135583    8160.4016    310.10387    15022 
58000000   -279.59621     8022.276     12929.91    103.10336    8198.7688    309.85905    15032 
59000000   -308.39131    7942.7094    12943.099    34.730667      8216.37    310.17511    15052 
60000000   -288.47558     8218.003    12800.816    249.22107    8257.2575    306.76538    15024 
61000000   -307.11834    8028.5617    12867.232    158.82908    8176.8509    308.35701    15044 
62000000   -320.08367    7858.6068    12918.954    64.319141    8114.3713    309.59649    15052 
63000000   -305.45771    7966.0295    12961.929    25.786755    8245.7004    310.62637    15087 
64000000   -317.26177    8106.3059    12800.091    227.22174    8196.3459    306.74799    15027 
65000000   -313.74858    8062.1085    12922.574    185.30671    8190.5503    309.68324    15042 
66000000   -298.58457    7859.6664    13025.608    143.10697     8015.144    312.15241    15046 
67000000   -321.42083     8039.931    12890.945     142.3103    8219.0415    308.92528    15047 
68000000   -300.53245    8048.5405    12889.365     72.39737    8276.6756    308.88741    15046 
69000000   -322.33362    8058.6303    13028.445    135.84092     8245.123     312.2204    15059 
70000000   -310.77851    7992.3547    12898.495     198.5055    8104.6278    309.10621    15031 
71000000   -311.43641    7946.2945    12744.577    108.49746    8149.2334    305.41764    15064 
72000000   -278.35996    7775.5795    12929.043   -97.191825    8151.1313    309.83828    15100 
73000000    -331.7298    7876.5352    12940.505    82.222686    8126.0423    310.11294    15052 
74000000   -297.72854    7962.9159    12914.061    156.19049     8104.454    309.47924    15047 
75000000   -327.30529    7673.7794    12949.393   -140.31334     8141.398    310.32595    15100 
76000000   -291.35307    8089.2672    12928.342    88.966496    8291.6538    309.82146    15055 
77000000   -295.34912    7991.6612    12984.781    61.152681    8225.8577    311.17401    15065 
78000000   -303.21237    7898.3551    12882.076    49.026177    8152.5413    308.71273    15058 
79000000   -310.56055    7769.9216    12781.293   -76.253777    8156.7359    306.29753    15080 
80000000   -302.70598    7932.2021    12997.865     75.79342    8159.1147    311.48756    15048 
81000000   -305.33881    8133.6743    12937.472    117.39278    8321.6204    310.04026    15038 
82000000   -308.48026    7958.2131    12951.036    59.088034    8207.6053    310.36533    15048 
83000000   -302.78224    8008.3322    13013.751    135.45157    8175.6629    311.86825    15039 
84000000   -290.12948    8099.8613    12979.061    178.76921    8211.2215    311.03694    15040 
85000000   -318.79205    7962.5588    12869.767    94.568506    8186.7824    308.41776    15040 
86000000   -319.62302    8031.9288    12758.347    85.036837     8266.515    305.74762    15055 
87000000   -337.31725    7930.5928    12927.885    137.58774    8130.3223    309.81051    15053 
88000000   -307.24202    7987.0911     12948.73   -1.8939675    8296.2271    310.31007    15094 
89000000   -320.85585    7822.9962    12978.841   -42.180743    8186.0328    311.03166    15100 
90000000   -317.93808    7673.1505    12735.646   -115.25563    8106.3442    305.20361    15071 
91000000   -314.47974    7686.2647    13011.238   -3.0923545    8003.8367    311.80804    15076 
92000000   -327.36851    7917.8366    12958.078    108.93002    8136.2751    310.53408    15050 
93000000   -314.71316    7804.2271    13005.328   -50.268983    8169.2092     311.6664    15083 
94000000   -320.03382    7819.4106    12890.083   -38.560885    8178.0053    308.90462    15097 
95000000   -328.22279    7811.5657    12900.138   -50.102163    8189.8906    309.14558    15097 
96000000    -290.7183    7703.7543    13072.952   -139.39642     8133.869    313.28698    15097 
97000000   -316.37744    7773.4699    13033.152   -49.483125    8139.3305     312.3332    15095 
98000000   -314.16269    7860.4313    12740.597   -64.546883    8239.1409    305.32225    15074 
99000000   -300.54695    7845.4454    12873.721   -1.5434593    8147.5358    308.51252    15074 
100000000   -299.57467    7971.0785    12851.749    82.693812    8187.9594    307.98596    15044 
101000000   -296.84824    7893.7513    13020.195    57.196926    8133.4026    312.02269    15042 
102000000   -308.50521    7855.4047    12869.864   -28.231603    8192.1415    308.42007    15057 
103000000   -329.29109    8028.2285    12971.165    100.10636    8257.4132     310.8477    15081 
104000000   -307.75493    8078.9363    12843.836    55.883369    8330.8079    307.79634    15064 
105000000   -305.76714    7705.1037    12959.015   -222.01309    8232.8839    310.55654    15115 
106000000   -310.56805    7963.4338    12905.531    101.32546    8172.6764    309.27482    15042 
107000000   -297.20317    7720.6298    12824.936    -101.8458    8119.6788    307.34341    15111 
108000000   -332.89935    7992.1833    13122.371    138.35759     8186.725    314.47129    15041 
109000000   -320.62789    7625.6235    13009.391   -116.35826    8062.6096    311.76378    15100 
110000000   -304.08456    7953.0039    12716.994     69.48017    8187.6083    304.75662    15072 
111000000   -294.92207    7921.4937    12930.953      64.9651    8151.4507    309.88405    15050 
112000000   -333.50513    7874.7387    12984.071   -42.890534    8251.1344      311.157    15086 
113000000   -319.61055    7822.0605    12969.437   -23.088787    8164.7599     310.8063    15081 
114000000   -338.41514    7918.4351    12955.665      56.6216    8200.2286    310.47627    15060 
115000000   -264.60633    7826.3175    12945.037   -36.992461    8127.9163    310.22155    15089 
116000000   -312.28875    7854.8517    12968.583    69.803958    8097.3364    310.78584    15074 
117000000   -343.63856    8012.1337    12870.304   -1.3731246    8357.1454    308.43062    15092 
118000000   -322.82382     7907.573    12864.085    57.488192    8172.9086     308.2816    15085 
119000000   -341.05833    7769.8802    12983.435   -43.743555    8154.6821    311.14175    15083 
120000000   -330.47982    7775.2491    13132.277    -71.70492    8177.4339    314.70868    15092 
121000000   -306.53068    7877.0875    13026.268   -40.520399    8224.1385    312.16822    15091 
122000000   -323.88548    7918.9282    12919.347    115.10436    8127.7093    309.60592    15065 
123000000   -279.57113    7904.1733    12921.584    80.868222    8102.8762    309.65952    15067 
124000000   -296.30648    8023.1543    12753.188    89.637976    8229.8228    305.62398    15065 
125000000   -305.32397    7775.0589    13130.413   0.37113154    8080.0117    314.66401    15061 
126000000   -345.26437    7728.2072    12778.156   -76.309523    8149.7811    306.22233    15118 
127000000   -318.45426    7658.8545     12810.96   -48.937719    8026.2465    307.00847    15084 
128000000   -356.10307    7611.7379    12848.757   -45.840905    8013.6818    307.91426    15090 
129000000   -335.62738    7884.5563    12962.111    19.587307    8200.5964    310.63073    15085 
130000000   -339.24228    7665.4146    12872.502    -121.5138    8126.1707    308.48329    15099 
131000000   -316.39298    7911.6447    12968.733    48.256859    8179.7808    310.78943    15086 
132000000   -313.04165    7912.7147    12894.002   -88.086341    8313.8427    308.99853    15118 
133000000   -349.13539    7876.6475    13068.095    7.9054906    8217.8775     313.1706    15070 
134000000   -328.44419     7766.053    12949.933   -167.72776    8262.2249     310.3389    15107 
135000000    -305.3833    7734.0406    12962.922   -152.68716    8192.1111    310.65017    15107 
136000000   -321.05912    7926.2345    12831.035    68.104222    8179.1894    307.48957    15073 
137000000   -333.68673    7894.8394    12891.713    6.0555738    8222.4706    308.94367    15076 
138000000   -341.62898     7719.631     12990.84   -117.96836    8179.2284    311.31922    15116 
139000000   -345.81313    7764.4477    12954.249   -49.033436    8159.2942    310.44231    15072 
140000000   -307.00128    7734.3325     12955.77   -103.19228    8144.5261    310.47878    15112 
141000000   -326.08377    7977.1028    13029.867    27.440132    8275.7464    312.25448    15069 
142000000   -344.32505    7673.8133    13002.914   -145.49928    8163.6376    311.60856    15098 
143000000   -318.34597    7873.5238    12834.507   -58.696557    8250.5663    307.57276    15095 
144000000   -332.38733    7798.8103    12859.478   -60.817291    8192.0149    308.17118    15093 
145000000    -356.0509    7812.8588    12975.083   -38.059216    8206.9689     310.9416    15094 
146000000   -307.52307    7669.7472    12891.693    -180.5698      8157.84    308.94319    15114 
147000000   -318.56149    8084.2393    13039.142    119.15983    8283.6409    312.47675    15048 
148000000    -312.8797    7954.1322    13005.842    89.112414    8177.8995    311.67872    15077 
149000000   -328.85217    7847.4039    12878.262    23.573628    8152.6825    308.62133    15079 
150000000   -330.46296    7817.6602    13174.803   -101.86508    8249.9882    315.72779    15103 
151000000   -340.06345    7847.3278    12901.773    23.592089    8163.7992    309.18477    15091 
152000000    -324.9821    7772.0497    12892.272   -128.34752    8225.3793    308.95708    15113 
153000000    -361.9578     7697.022    12989.921   -86.338407    8145.3182    311.29719    15102 
154000000   -383.63505    7520.5797    12926.403   -140.69086    8044.9056    309.77501    15116 
155000000   -337.90352    7846.1435    12931.986   -36.513641    8220.5606    309.90881    15095 
156000000    -349.4079    7617.2521    12538.019   -171.64367    8138.3037    300.46758    15115 
157000000   -369.32771     7854.864    12881.125    25.817725     8198.374    308.68993    15089 
158000000   -326.00999    7634.4925    13109.204   -152.80777    8113.3102    314.15574    15110 
159000000   -313.22862    7643.3864    12997.171    -185.4507    8142.0658    311.47093    15106 
160000000   -315.07725    7767.0598    12931.299    -18.99978    8101.1368    309.89233    15086 
161000000   -323.74471    7695.6264    13000.406   -91.233865     8110.605    311.54846    15104 
162000000   -327.85106     7982.809      12872.9    55.876212    8254.7838    308.49283    15064 
163000000   -353.48337    7815.8136     13050.07   -19.593757    8188.8908    312.73863    15072 
164000000   -318.23645    7661.8224    12813.449   -72.745045    8052.8039    307.06813    15090 
165000000   -334.86163     7766.115    12987.766   -82.760269    8183.7369    311.24553    15096 
166000000   -307.62673    7991.5622    12967.373    194.99051    8104.1984    310.75683    15021 
167000000   -320.48502     8029.375    12900.932    111.85471    8238.0053     309.1646    15076 
168000000   -344.55166      7967.14    12942.035    40.334512    8271.3572    310.14962    15072 
169000000    -314.2458    7726.2713    12855.923   -109.89035    8150.4075      308.086    15131 
170000000   -339.51983    7767.7272    13078.096   -130.99031    8238.2374    313.41027    15125 
171000000   -318.85146    7763.7954    12987.187   -26.462351    8109.1092    311.23167    15098 
172000000   -314.57293    7820.2477    12844.443   -80.013661    8214.8343    307.81086    15085 
173000000   -317.51213    7797.6677    13058.093   -35.582158     8150.762     312.9309    15101 
174000000   -310.67523    7777.3387    12963.359   -15.690957    8103.7049    310.66064    15083 
175000000    -304.8351     7831.934     12990.08   -7.5951715    8144.3643    311.30099    15077 
176000000   -320.30534    7981.2589    12905.138    98.570247     8202.994    309.26541    15060 
177000000   -322.24146    8051.2856    12999.871    49.489854    8324.0372    311.53563    15058 
178000000   -312.52157    8017.1857    13062.079    101.86341    8227.8438    313.02642    15055 
179000000   -308.94598    8057.2629    12832.037    43.071503    8323.1374    307.51357    15070 
180000000   -298.19984    7988.3326    12904.208    -36.66558     8323.198    309.24313    15077 
181000000   -332.92558    7836.5874    13033.795   -141.32273    8310.8357     312.3486    15088 
182000000   -331.22213     8016.288    12908.034    113.90505    8233.6051    309.33481    15044 
183000000   -303.66367     7917.666    12931.499    11.949588    8209.3801    309.89713    15092 
184000000   -328.17872    7669.3795    12900.596   -71.249208    8068.8074    309.15655    15096 
185000000   -346.35732    7732.0038    12981.183    -58.53016    8136.8913    311.08777    15115 
186000000   -310.44901     7734.794    12813.253   -62.541841    8107.7849    307.06343    15106 
187000000   -342.32733    7910.8342    13079.004    40.114126    8213.0474    313.43201    15091 
188000000   -341.08033    7620.1747    12934.655   -148.68799     8109.943    309.97277    15098 
189000000   -332.08767     7640.713    12820.315   -91.060428    8063.8611    307.23266    15086 
190000000   -347.51116    7718.1414    13019.368   -112.27927    8177.9319    312.00287    15096 
191000000   -322.78139    7825.2775    13132.511    2.2251851    8145.8337    314.71428    15083 
192000000   -356.70283     7715.254    12945.704    -90.80503    8162.7619    310.23754    15087 
193000000    -322.0884    7695.7951    13134.445   -104.07154     8121.955    314.76064    15105 
194000000   -336.68987     7845.413    12873.225   -95.551256    8277.6541    308.50062    15112 
195000000   -343.65871    7917.2211     12809.61    -16.97102    8277.8508    306.97612    15099 
196000000   -337.41388    7873.3189    13081.289    105.32711    8105.4057    313.48679    15069 
197000000   -331.05925    7893.9313    12927.067    78.268792    8146.7217    309.79091    15061 
198000000   -307.03191      7858.75    12896.928    -107.8246    8273.6065    309.06865    15097 
199000000   -305.17047    7658.9882    12848.062   -235.57301    8199.7317    307.89761    15116 
200000000   -312.70472    7804.4674    13026.315   -39.354399    8156.5266    312.16934    15072 
201000000   -340.58767    7890.0197    12883.476    82.040456    8148.5669    308.74629    15066 
202000000   -291.70733    7861.3357     13016.29   -50.550278    8203.5933     311.9291    15070 
203000000   -352.40688     7732.545    13025.372   -69.167065    8154.1189    312.14675    15082 
204000000   -324.14116    7774.5116    12850.804   -67.789336    8166.4421    307.96331    15091 
205000000   -301.13845    7661.3353    12939.341   -155.19948    8117.6732    310.08506    15119 
206000000   -362.96701    7822.4735    13040.711   -30.850158    8216.2906    312.51434    15109 
207000000   -352.50351    7569.1992    12897.629   -192.90365    8114.6064    309.08546    15097 
208000000   -333.04446    7795.6778    12965.143    -157.1091    8285.8314     310.7034    15088 
209000000   -338.53988    7808.7876    12861.155   -102.07864    8249.4062    308.21137    15096 
210000000   -354.16209    7765.9527    12885.273   -30.407296     8150.522    308.78935    15112 
211000000   -332.79473    7663.4616    12823.486   -58.818268    8055.0746    307.30864    15079 
212000000    -341.6898    7715.7918     12785.11   -125.46898    8182.9506    306.38898    15105 
213000000   -334.58184     7877.836    12923.331    34.280639    8178.1373    309.70139    15088 
214000000    -338.8512    7682.9915    13028.381   -142.54152    8164.3842    312.21887    15100 
215000000   -333.53615    7885.0136    13108.246   -2.1498404    8220.6996     314.1328    15091 
216000000   -328.55879    7822.5006    12920.822   -108.02448    8259.0838    309.64127    15112 
217000000   -333.58142    7870.7963    13050.582    -65.97714    8270.3548     312.7509    15081 
218000000   -300.87477    7811.7854    12848.595   -64.859814      8177.52    307.91037    15096 
219000000    -367.6171    7765.6788    12891.736   -83.879555    8217.1755    308.94423    15099 
220000000   -321.56393    7788.5113     12929.59   -25.228274    8135.3035    309.85137    15079 
221000000   -334.27072    7721.8473    12943.374   -69.500845    8125.6188    310.18171    15101 
222000000     -301.827    7853.5239    12935.048   -77.386109     8232.737    309.98217    15111 
223000000   -324.48218    7815.8757    12921.737   -54.165957    8194.5238    309.66319    15107 
224000000   -326.84614    7922.7436    12990.812   -9.2325872    8258.8223    311.31854    15097 
225000000   -336.06685    7702.8523    12989.587   -123.50291     8162.422    311.28919    15110 
226000000   -319.19861    7679.7748    13055.099   -122.88387    8121.8573    312.85915    15109 
227000000   -370.70113    7850.5796    12716.097    11.421202    8209.8596    304.73512    15100 
228000000   -327.07511    7755.5003    12814.063   -27.212461    8109.7879    307.08282    15075 
229000000   -331.78041    7785.3901    12925.658    -86.32454    8203.4951    309.75716    15092 
230000000   -304.01888    7764.6507    12812.065   -104.80972    8173.4793    307.03495    15101 
231000000   -361.82326    7678.6276    12998.547   -78.037248    8118.4881     311.5039    15097 
232000000    -322.6879    7926.9787    12911.888   0.72271087    8248.9439    309.42717    15106 
233000000   -344.07506     7537.547    12718.547   -138.63227    8020.2544    304.79383    15119 
234000000   -335.05016    7820.8516    13018.983   -30.591681    8186.4934    311.99365    15088 
235000000   -320.45046    7885.3843    12823.549   -2.2968609    8208.1316    307.31015    15088 
236000000   -354.53634     7750.436    12790.994    27.536585    8077.4357       306.53    15095 
237000000    -342.0292    7633.4308     13020.79   -287.25157    8262.7116    312.03695    15153 
238000000   -313.89485    7860.2592     12869.18   -33.099087    8207.2532    308.40368    15114 
239000000   -345.23772    7670.2207    12894.284   -176.41381    8191.8722    309.00529    15112 
240000000   -333.01113    7603.8538    12870.176   -204.62684    8141.4918    308.42756    15144 
241000000   -326.15992    7571.1332    12935.425   -239.34437    8136.6375    309.99122    15144 
242000000   -339.68439     7578.547    13034.385   -76.082735    7994.3141    312.36275    15106 
243000000   -343.30828     7686.599        12808   -235.89671     8265.804    306.93753    15111 
244000000   -340.66667    7921.4586    13050.757    49.478732    8212.6466    312.75509    15066 
245000000   -309.96199    7574.9718    12955.124   -199.80142    8084.7352     310.4633    15135 
246000000   -359.44803     7740.871     12939.81    -74.00292     8174.322     310.0963    15103 
247000000   -324.24888     7636.193    12865.172   -196.95833    8157.4002    308.30765    15126 
248000000   -344.24849    7843.5645    12869.388    3.4680485     8184.345    308.40867    15086 
249000000   -371.58125    7634.0773    13055.764   -175.17994    8180.8385    312.87508    15114 
250000000   -325.06284    7629.4081    12944.081   -88.728051     8043.199    310.19865    15094 
251000000   -340.76759    7636.9812    12942.615   -179.58435    8157.3331    310.16353    15114 
252000000    -345.2735     7791.419    12976.964    1.0062981    8135.6862    310.98667    15089 
253000000   -328.91787    7819.8747    12976.849   -124.24904    8273.0416    310.98391    15107 
254000000   -351.28825    7685.9553    12889.677   -113.50092    8150.7445    308.89488    15110 
255000000   -342.81317    7816.9534    12843.857   -15.128442     8174.895    307.79683    15096 
256000000   -315.51263    7785.0346    12962.364   -36.742497    8137.2897     310.6368    15088 
257000000   -340.75897    7682.1516    12936.069   -112.84018    8135.7508    310.00665    15071 
258000000   -327.88243    7895.2061    12871.727   -32.112624    8255.2012    308.46473    15079 
259000000   -341.01228    7912.2799    12997.818    96.975463    8156.3167    311.48642    15062 
260000000   -342.22232    7723.5643    12979.519   -55.703269    8121.4898     311.0479    15099 
261000000   -342.73976    7778.9056    13049.831   -30.967022    8152.6123     312.7329    15101 
262000000   -321.05369    7645.6107    12946.617   -150.97749    8117.6418    310.25941    15117 
263000000   -324.59532     7588.741    12779.709   -182.18974    8095.5261    306.25956    15109 
264000000   -327.87891    7796.9238    12838.523     4.375546    8120.4272    307.66901    15107 
265000000   -306.50346    7685.1945    12981.294   -152.40057    8144.0986    311.09045    15115 
266000000   -330.10958    7852.9203    12756.324   -49.861167    8232.8911    305.69915    15097 
267000000   -337.91245    7678.4336    12788.036   -64.327114    8080.6732     306.4591    15095 
268000000   -329.17057    7710.7022     12831.26    4.6631111    8035.2096    307.49495    15079 
269000000   -346.13194    7667.7733    13030.377   -136.03301    8149.9382     312.2667    15117 
270000000   -317.04449    7943.0108    12848.861    3.1647723    8256.8906    307.91674    15075 
271000000    -335.8165    7652.4322    12950.898   -162.92053    8151.1692    310.36202    15114 
272000000   -342.22976      7586.86    12982.504   -170.08575    8099.1755    311.11944    15106 
273000000     -334.029    7835.1185    12922.246     -44.3073    8213.4548    309.67538    15085 
274000000   -314.84389    7891.7609    12948.197    50.736109    8155.8687    310.29728    15087 
275000000   -280.89341    8032.2948    12793.375    62.270359    8250.9179    306.58705    15053 
276000000   -301.24323     7931.443     12918.36    29.811288    8202.8749    309.58227    15079 
277000000   -317.56765     7918.025    12938.827    47.511472    8188.0812    310.07275    15072 
278000000   -297.93706    7942.8537    13001.983     64.14288    8176.6479    311.58625    15097 
279000000   -310.37267    7845.9907    12759.111    42.840936    8113.5224    305.76593    15075 
280000000   -336.53274     7898.369    12837.083   -28.813891    8263.7156    307.63449    15084 
281000000   -344.75746    7831.2413    12922.158   -85.915548    8261.9143    309.67329    15106 
282000000   -355.55164    7719.5073    12988.439   -112.59108    8187.6501    311.26167    15112 
283000000   -357.22122    7840.3885    13037.359   -66.990009    8264.5997    312.43401    15076 
284000000   -330.33133    7785.2163     12815.29   -74.195418     8189.743    307.11224    15097 
285000000    -356.9587    7754.5843    12966.608    23.091177    8088.4519     310.7385    15072 
286000000   -310.43857    7902.0461    12829.213    73.735058    8138.7496     307.4459    15071 
287000000   -329.29307     7816.389    13026.557   -60.856693    8206.5388    312.17515    15066 
288000000   -305.19348    7841.8651     12943.96    11.966652    8135.0919    310.19574    15076 
289000000   -315.68671    7932.2935    12978.868    126.90302    8121.0772    311.03231    15067 
290000000    -334.7215    7669.2874    12828.528   -127.68276    8131.6916    307.42949    15127 
291000000   -297.57967    7785.9404    12778.244    -31.01533    8114.5354    306.22445    15083 
292000000   -324.53382    7834.1639    12956.425   -67.830732    8226.5285    310.49447    15083 
293000000   -347.43701    7825.7655    13133.956    -52.26017    8225.4626    314.74892    15097 
294000000   -306.84056    7833.0417     12872.18   -4.1038266    8143.9861    308.47559    15100 
295000000   -306.59178    7723.9447    12844.272   -34.122821    8064.6593    307.80679    15077 
296000000   -324.88109    7700.0657    12935.439   -162.45072    8187.3975    309.99155    15119 
297000000   -358.53523    7711.5012    13025.548   -69.147733    8139.1841    312.15098    15131 
298000000   -337.51668    7763.5547    13039.575   -128.70321    8229.7746    312.48711    15109 
299000000   -333.56363    7825.3461    12965.448   -128.68405    8287.5938    310.71069    15103 
300000000   -302.01056    7750.3361    12932.882   -105.05319    8157.3999    309.93028    15107 
301000000   -336.60836    7676.4402    12885.797    -221.4799    8234.5285    308.80189    15139 
302000000   -334.73469    7642.9079    12868.066   -120.20044     8097.843    308.37699    15101 
303000000   -325.46906    7856.3018    13016.296   -77.979394    8259.7503    311.92926    15117 
304000000   -325.71698     7768.466     13014.48   -80.163211    8174.3462    311.88573    15106 
305000000    -337.9507    7863.6475     12848.04    -38.57593    8240.1742    307.89708    15081 
306000000   -356.15688    7736.3735    12983.017  -0.30521219    8092.8356    311.13172    15078 
307000000   -341.07664    7699.2494    13026.925    -123.5744    8163.9005    312.18397    15105 
308000000     -343.846    7889.6586    12973.395    11.706084    8221.7985    310.90115    15086 
309000000   -306.10797    7613.2422    12904.813   -85.202441    8004.5526    309.25761    15106 
310000000   -318.38383     7784.407     13055.11     68.78089      8034.01    312.85941    15067 
311000000   -330.47938    7934.6566    12927.171     -65.5758    8330.7118     309.7934    15091 
312000000   -317.49332    7835.3745    13030.874   -23.497359    8176.3652    312.27861    15065 
313000000   -344.87849    7946.1202    12943.978    58.696261    8232.3024    310.19619    15081 
314000000   -343.46399    7657.1812    12943.989   -93.213792     8093.859    310.19645    15094 
315000000   -360.19773    7776.0947     12971.03   -99.611639    8235.9041    310.84447    15112 
316000000   -333.24998    7874.1526    12939.017    48.924105    8158.4785    310.07729    15087 
317000000   -340.20332    7780.1655    12882.769    -79.32036    8199.6892    308.72934    15120 
318000000   -364.92021    7828.8854    12920.986   -49.552764    8243.3584    309.64518    15076 
319000000   -364.91676    7865.8587    12946.867    -16.05486    8246.8303    310.26541    15074 
320000000   -338.22056    7720.4025    12903.707   -152.60789     8211.231    309.23111    15097 
321000000   -337.07422    7547.7619    12801.076   -158.35129    8043.1874    306.77162    15130 
322000000    -305.1513     7856.348    13148.381    -45.51472     8207.014    315.09461    15088 
323000000   -321.94783    7720.2821    12845.749   -52.091359    8094.3213    307.84218    15100 
324000000   -341.47896    7818.4107    12914.591   -31.741111    8191.6308    309.49194    15088 
325000000   -312.14776    7811.8528    12936.485   -85.844616    8209.8452    310.01661    15106 
326000000   -292.94863    7699.9632    12742.826   -34.078763    8026.9906    305.37568    15090 
327000000   -328.06641    7960.2235     13047.06      8.80177    8279.4881     312.6665    15068 
328000000   -329.73873    8026.9119    12949.675    81.554344    8275.0963    310.33271    15054 
329000000   -315.21652    7815.3289    12944.251   -136.58957     8267.135    310.20274    15113 
330000000   -334.54045    7758.3867    12854.208   -53.738552    8146.6657    308.04488    15105 
331000000   -297.31992    7804.8309    13016.014   -110.94675    8213.0976    311.92249    15104 
332000000   -321.30513    7717.1493    12701.881    -147.9399    8186.3944    304.39445    15137 
333000000    -372.3253    7725.3764    12813.951   -113.24464    8210.9464    307.08015    15094 
334000000   -352.20407     7941.487    12894.476    36.181334    8257.5097    309.00988    15074 
335000000   -323.48716    7811.6932    12839.388   -49.962089    8185.1425    307.68974    15080 
336000000    -338.2062     7615.921    12936.704    -178.8204    8132.9476    310.02187    15115 
337000000   -339.20408    7641.9551    12866.684    -151.6803    8132.8395    308.34386    15119 
338000000   -353.11566    7760.8426    12947.454   -46.219122    8160.1774    310.27948    15077 
339000000   -325.98497    7810.9665    12923.963   -123.87623    8260.8277    309.71653    15109 
340000000    -321.7019    7667.5353    12970.362   -145.07968    8134.3169    310.82846    15114 
341000000   -297.94605     7935.071    12964.071   -55.922005     8288.939     310.6777    15093 
342000000   -340.20938     7663.815    12855.638   -73.143306    8077.1676    308.07917    15088 
343000000   -333.97131    7775.3638    12831.532   -82.416419    8191.7516    307.50147    15105 
344000000   -337.37091      7753.59    12990.189   -198.60929    8289.5702     311.3036    15116 
345000000   -350.46606    7821.4339    12818.849   -76.115695    8248.0157    307.19753    15101 
346000000   -344.44599    7930.3837    13064.367    52.045483    8222.7842    313.08125    15063 
347000000   -343.64687    7685.1343    12859.569   -108.84219    8137.6233    308.17337    15111 
348000000   -325.53482    7641.3366    12957.571   -193.53508    8160.4065    310.52194    15123 
349000000   -329.81757    7974.2041    13054.966    60.437907    8243.5837    312.85595    15076 
350000000   -296.56578    7866.6046    13064.257   -89.249067    8252.4194    313.07861    15095 
351000000   -331.05442    7834.8117     13004.24   -28.615466    8194.4816    311.64035    15103 
352000000   -328.83215     7797.731    12982.955    38.999928    8087.5632    311.13024    15102 
353000000   -334.89075    8065.6766    12996.605     34.38045    8366.1869    311.45737    15071 
354000000     -365.987    7622.4964    12857.913   -126.22116    8114.7046    308.13368    15106 
355000000   -338.86673     7746.397    12944.346   -63.386239      8148.65    310.20501    15089 
356000000   -318.78727    7678.6833    12914.638   -140.31274    8137.7833    309.49307    15093 
357000000   -323.06119    7711.3051    12899.472   -30.580582    8064.9469    309.12962    15070 
358000000   -322.53007    7863.5429    12969.544    30.927934     8155.145    310.80887    15105 
359000000   -344.72313    7810.3541    12914.091   -35.169339    8190.2466    309.47996    15093 
360000000   -343.25749    7610.3188    12878.052    -112.5698    8066.1461    308.61629    15125 
361000000   -309.08319    7466.4154    12943.934    -269.9918    8045.4904    310.19512    15151 
362000000   -330.59062    7639.2817    13040.589   -72.631686     8042.504    312.51142    15089 
363000000   -323.06229    7624.2725    13004.722   -124.76424     8072.099    311.65188    15110 
364000000   -298.18322    7727.2031    12992.554   -7.6112763    8032.9976    311.36028    15081 
365000000   -306.70139    8006.7196     12898.82    1.2563746    8312.1647      309.114    15090 
366000000   -343.12259    7730.1064    12847.591    -153.3599    8226.5889    307.88631    15090 
367000000   -344.07021    7930.7327    13165.704    99.938787    8174.8641    315.50974    15072 
368000000   -317.19915     7926.066    12974.206    30.650512    8212.6147    310.92058    15080 
369000000    -353.2799    7820.2531    12865.833   -42.858538    8216.3916    308.32349    15085 
370000000   -313.65196    7826.5153    12995.725   -106.66218    8246.8294    311.43628    15092 
371000000   -315.97894    8000.5883    13048.955    108.70537    8207.8619     312.7119    15059 
372000000   -307.74662    7797.8268    12877.639    28.598808    8076.9746    308.60641    15059 
373000000   -318.66588    7808.2053    12956.677   -53.434459    8180.3056    310.50051    15095 
374000000   -347.30681    7825.0612    12981.534    54.635329    8117.7327     311.0962    15057 
375000000     -322.726    7993.5217    12968.149    79.592789    8236.6549    310.77543    15082 
376000000   -292.53131    7899.5679    13024.916    39.329759    8152.7695    312.13582    15057 
377000000   -325.68154    7790.7676        13011   -107.09651    8223.5457    311.80234    15100 
378000000   -344.70551    7935.4088     12852.12    76.824728    8203.2896    307.99485    15088 
379000000   -318.27619    7857.5685    12982.763   -4.8600562    8180.7047    311.12565    15084 
380000000   -311.23556    7577.3302    12976.063   -227.55002    8116.1157    310.96509    15119 
381000000   -333.77636    7695.4776    12905.359   -108.94818    8138.2021    309.27069    15107 
382000000   -340.72857    7844.3865    13008.982    19.367929    8165.7472    311.75397    15087 
383000000   -370.85965     7874.429    12855.532    51.538025    8193.7506    308.07662    15048 
384000000   -317.47077    7715.3056    12955.978   -62.224237    8095.0006    310.48376    15095 
385000000   -337.58588    7693.8223    13051.408   -183.51407    8214.9222     312.7707    15129 
386000000   -364.79836    7823.6024    12813.436    23.896161    8164.5046    307.06782    15076 
387000000   -325.09294    7661.8788    12964.935   -111.96793    8098.9397    310.69841    15101 
388000000   -354.78391    7802.4172    12824.614   -69.211718    8226.4128    307.33567    15099 
389000000   -345.23705    7804.4327     12887.17   -13.908808    8163.5786    308.83482    15110 
390000000   -319.44581    7768.8904     12803.57   -72.528989    8160.8652    306.83137    15091 
391000000   -341.01464    7772.2501     12870.25    13.235995    8100.0287    308.42932    15067 
392000000   -346.35577     7887.044     13038.31   -30.665345    8264.0651    312.45681    15077 
393000000   -310.80056    7792.3906    12846.222   -41.079858    8144.2711     307.8535    15086 
394000000   -337.31443    7748.5573    12835.482   -33.166351    8119.0381    307.59613    15073 
395000000    -337.7896    7724.6355    12928.431   -10.578361    8073.0035    309.82361    15084 
396000000    -332.2774    7709.3809    12891.473   -29.634186    8071.2925    308.93792    15100 
397000000   -357.36354    7921.1492    12869.269   -19.727798    8298.2405    308.40581    15090 
398000000   -337.94423     7744.578    13002.615    9.9536625    8072.5685    311.60139    15068 
399000000   -303.22228     7834.094    12896.381   -60.358926    8197.6752    309.05555    15123 
400000000   -330.67202     7958.211    12951.938    79.377263    8209.5057    310.38695    15069 
401000000   -325.44258    7862.0462    13086.341     33.03658    8154.4522    313.60783    15060 
402000000   -319.37757    7835.7224    12959.364   -16.201526    8171.3015    310.56489    15082 
403000000   -344.61156    8078.0788    13010.466    131.70546    8290.9849    311.78954    15073 
404000000    -334.5935    7885.8366     12942.41    15.900555    8204.5295    310.15862    15080 
405000000   -313.72709    7905.8426     12979.72    12.346072    8207.2236    311.05272    15094 
406000000   -315.77514     7907.686    12961.398    28.652998    8194.8081    310.61365    15073 
407000000   -337.57229     7752.107    12834.169   -176.05301    8265.7323    307.56465    15117 
408000000   -379.90839    7688.3189    12962.043   -187.18913    8255.4164    310.62911    15121 
409000000    -299.1572    7781.6479    12973.008   -82.362138    8163.1673    310.89188    15080 
410000000   -320.44618    7777.4224    12896.584   -22.418289    8120.2869     309.0604    15096 
411000000   -321.45268    8014.6514    12905.559    20.570617    8315.5335     309.2755    15087 
412000000   -340.34104    7825.4425     12954.29   -59.271286    8225.0548    310.44331    15091 
413000000   -311.40012     7788.907    13020.192   -73.992055    8174.2992    312.02261    15118 
414000000   -342.23686    7748.9262    12838.591   -69.769703    8160.9328    307.67063    15124 
415000000   -353.24709    7578.3574    12874.891   -201.37368    8132.9782    308.54054    15116 
416000000   -349.77002     7893.663    13044.805     0.187643    8243.2454    312.61246    15098 
417000000    -342.9337    7663.7636    12923.709   -216.86994    8223.5672    309.71044    15144 
418000000   -335.31696    7830.5294    12877.413   -79.425746    8245.2721    308.60097    15087 
419000000   -309.75919    7764.3036    12939.589   -112.35084    8186.4136    310.09099    15113 
420000000    -312.1007    7654.0927    12899.501   -130.03438    8096.2278    309.13032    15114 
421000000   -299.25944    7775.8042     12952.22   -68.291329     8143.355     310.3937    15083 
422000000   -310.04508    7880.9667    13052.486     19.10915    8171.9026    312.79653    15082 
423000000   -364.63586    7778.7132    12914.309   -29.474702    8172.8237    309.48518    15080 
424000000   -320.28242    7913.7727    12917.117   -1.1192224    8235.1744    309.55248    15091 
425000000   -338.82048    7794.5301    12952.977   -72.790815    8206.1414    310.41184    15088 
426000000   -324.85787    7791.6159    12843.738    -72.45026     8188.924    307.79397    15080 
427000000   -322.68311    7707.5155    12928.153   -93.181131    8123.3797    309.81695    15091 
428000000   -333.67902    7851.6611    13063.059   -41.814577    8227.1547     313.0499    15080 
429000000   -326.43465    7724.4503    13100.153   -157.57278    8208.4577    313.93885    15112 
430000000   -293.50629    7762.2462    12920.092   -94.103295    8149.8557    309.62377    15092 
431000000   -336.34085    7685.1743     12888.23   -78.001756    8099.5169    308.86021    15127 
432000000   -339.38735    7718.5452    13061.976   -121.77894    8179.7115    313.02396    15109 
433000000    -335.8605    7708.3725    12898.233   -66.252728    8110.4857    309.09994    15101 
434000000   -335.57766    7784.1781    12906.791   -41.958432    8161.7142    309.30501    15091 
435000000     -335.198    7876.3272    12691.531   -53.196546    8264.7217     304.1464    15092 
436000000     -327.944    7840.7827    12872.695   -83.256075    8251.9827    308.48792    15107 
437000000   -354.36308    7730.1628    12834.489   -75.067215    8159.5931    307.57234    15118 
438000000   -304.22391    7514.9073    12795.336   -184.83197    8003.9631    306.63404    15119 
439000000   -322.34746    7724.3548    12894.989   -69.350759     8116.053    309.02219    15120 
440000000   -288.57125    7860.3131    12938.885   -65.571301    8214.4556    310.07414    15079 
441000000   -355.18698    7632.5385    13020.045   -148.13349    8135.8589    312.01909    15118 
442000000    -318.0974    7848.4594    13027.116   -3.2728286    8169.8297    312.18855    15067 
443000000   -339.88772    8000.7064    12910.909    137.53154    8203.0625    309.40371    15054 
444000000   -318.85133    7716.7579    13028.407   -84.341493    8119.9507    312.21949    15105 
445000000   -353.20314    7718.9454    12916.382   -92.475774    8164.6243    309.53487    15111 
446000000   -339.95343    7647.7427    13124.959    -81.74572    8069.4418    314.53332    15102 
447000000   -340.98907    7690.9457    13005.495   -191.28395    8223.2187    311.67041    15113 
448000000   -309.81381    7780.4956     12797.35   -166.60447    8256.9139    306.68232    15141 
449000000   -333.40214     7900.002     12946.67    130.74276    8102.6613    310.26069    15072 
450000000   -307.48361    7618.6257    12823.563   -148.20792    8074.3173    307.31049    15106 
451000000    -316.1233    7811.5876    12818.105   -35.244435    8162.9554    307.17971    15087 
452000000    -349.9894    7859.0879    12975.098    25.898833    8183.1784    310.94196    15071 
453000000   -305.03946    7831.0269    12994.972   -4.8950145    8140.9614    311.41824    15085 
454000000   -317.05906    7783.2676    13071.754   -65.741462    8166.0681    313.25828    15075 
455000000   -344.15955    7749.4171    12834.169   -88.269148    8181.8458    307.56467    15113 
456000000   -333.07154    7718.2597    12872.232   -135.76589    8187.0971    308.47683    15111 
457000000    -348.4763      7956.42    12937.604    93.773382    8211.1229    310.04343    15073 
458000000   -311.39999    7848.9282     13152.17   -29.311181    8189.6393    315.18541    15065 
459000000   -329.16868    7615.5704    13045.505   -131.37089    8076.1099    312.62922    15100 
460000000   -327.88828    7745.3308    12881.919   -39.417067    8112.6361    308.70896    15089 
461000000    -334.2556    7940.8102     13066.97    77.199867    8197.8659    313.14364    15073 
462000000    -342.7025    7431.6406    12975.584   -285.34284    8059.6859    310.95361    15143 
463000000   -323.73765    7693.5147    12824.607   -85.922054    8103.1744    307.33551    15096 
464000000   -336.75923     7719.548    12884.498   -69.383834    8125.6911    308.77077    15124 
465000000   -308.42165    7913.9351    12938.345    11.868811    8210.4879    310.06118    15084 
466000000   -324.24203     7749.426    12864.793   -44.771963      8118.44    308.29856    15117 
467000000   -335.91099    7763.2749    12871.305   -33.712741    8132.8986    308.45461    15088 
468000000   -362.93158    7712.1746    12991.333   -94.321225    8169.4274    311.33103    15091 
469000000    -342.9617    7756.5215    13031.794   -156.25716    8255.7404    312.30065    15121 
470000000   -361.73101    7718.1179    13006.199   -79.498788    8159.3477    311.68727    15124 
471000000   -359.27176    7597.8167    12937.024   -143.30748    8100.3959    310.02953    15144 
472000000   -338.66579    7780.8199    12846.172    2.3113261    8117.1744    307.85232    15080 
473000000   -320.56437    7695.2561    12989.094   -150.62082    8166.4413    311.27737    15118 
474000000   -328.87217    7865.4516    12957.871    51.203032    8143.1207    310.52912    15083 
475000000   -330.88349     7797.541     12743.94    16.526487     8111.898    305.40236    15108 
476000000   -319.33424    7765.7569    12893.945   -15.861166    8100.9523    308.99718    15095 
477000000   -337.38491    7875.0021    13128.114   -49.926348    8262.3134     314.6089    15101 
478000000   -321.01452    7831.6753    12974.462   -79.327813    8232.0176    310.92672    15097 
479000000   -300.84527    7718.9485    12786.015   -117.98547    8137.7792    306.41068    15104 
480000000   -334.53668    7849.1011    12936.713    18.076506    8165.5613    310.02207    15077 
481000000   -319.45155    7945.4452    13010.446     13.74578     8251.151    311.78906    15076 
482000000   -325.82211    7692.1428    12731.549   -100.90721    8118.8721    305.10544    15082 
483000000   -344.35016    7992.9581    12893.568   0.91467366    8336.3936    308.98812    15082 
484000000   -326.69271    7698.7111    13082.927    -126.1995    8151.6033    313.52603    15120 
485000000   -357.34702    7650.7108     12870.93   -170.70479    8178.7626    308.44562    15125 
486000000   -312.89439    7837.2656    13014.262   -67.503159    8217.6631    311.88052    15084 
487000000    -301.0773    7858.4283    12781.716   0.84716276    8158.6584    306.30766    15070 
488000000   -332.27703    7698.6831     12932.23    -174.7775    8205.7376    309.91465    15127 
489000000   -331.55373    7768.7892    12848.239   -76.301097     8176.644    307.90183    15096 
490000000   -342.36217    7514.5354    12950.191   -204.93407    8061.8316    310.34508    15113 
491000000   -341.47718    7890.8887    13048.554    25.464122    8206.9017     312.7023    15091 
492000000   -333.35263    7685.9464    12846.696   -114.73098      8134.03    307.86486    15103 
493000000   -362.03529    7637.0985    12945.205   -173.87092    8173.0047    310.22559    15105 
494000000   -308.04888    7773.9721    12911.177   -25.708255    8107.7292    309.41013    15108 
495000000   -355.91473    7837.9726    13024.822    21.601361     8172.286    312.13357    15088 
496000000     -333.626    7810.8128    12851.964   -85.900106    8230.3389    307.99112    15078 
497000000   -325.31402    7767.2401    13032.142   -61.429148    8153.9833    312.30899    15073 
498000000   -329.62064     7998.543    12980.257    12.503142    8315.6605     311.0656    15079 
499000000   -355.58054    7635.5583    12940.266   -135.93659    8127.0755    310.10723    15125 
500000000   -322.97172    7606.1801    12913.862   -94.942766    8024.0946    309.47446    15108 
Loop time of 138121 on 28 procs for 500000000 steps with 14000 atoms

Performance: 7819.244 ns/day, 0.003 hours/ns, 3620.021 timesteps/s
99.3% CPU use with 28 MPI tasks x no OpenMP threads

MPI task timing breakdown:
Section |  min time  |  avg time  |  max time  |%varavg| %total
---------------------------------------------------------------
Pair    | 13964      | 15669      | 17064      | 548.8 | 11.34
Bond    | 5725.9     | 5874.8     | 7151.4     | 328.9 |  4.25
Neigh   | 43341      | 43989      | 44696      | 166.6 | 31.85
Comm    | 40039      | 42064      | 45576      | 668.1 | 30.45
Output  | 1.1558     | 1.1563     | 1.1572     |   0.0 |  0.00
Modify  | 22552      | 22687      | 23226      |  96.0 | 16.43
Other   |            | 7836       |            |       |  5.67

Nlocal:    500 ave 533 max 474 min
Histogram: 1 3 3 4 8 3 3 0 1 2
Nghost:    609.571 ave 861 max 434 min
Histogram: 2 3 5 4 7 1 1 4 0 1
Neighs:    4129.43 ave 4871 max 3180 min
Histogram: 2 2 1 3 3 4 5 2 1 5

Total # of neighbors = 115624
Ave neighs/atom = 8.25886
Ave special neighs/atom = 8.24029
Neighbor list builds = 99801001
Dangerous builds = 0
System init for write_restart ...
Total wall time: 38:22:02
