LAMMPS (5 Jun 2019)
Reading data file ...
  orthogonal box = (-420 -420 -420) to (420 420 420)
  2 by 2 by 7 MPI processor grid
  reading atoms ...
  14000 atoms
  scanning bonds ...
  51 = max bonds/atom
  scanning angles ...
  1 = max angles/atom
  reading bonds ...
  13800 bonds
  reading angles ...
  13600 angles
Finding 1-2 1-3 1-4 neighbors ...
  special bond factors lj:   0          0          0         
  special bond factors coul: 0          0          0         
  2 = max # of 1-2 neighbors
  2 = max # of 1-3 neighbors
  4 = max # of 1-4 neighbors
  56 = max # of special neighbors
  special bonds CPU = 0.503183 secs
  read_data CPU = 0.564546 secs
Finding 1-2 1-3 1-4 neighbors ...
  special bond factors lj:   1          1          1         
  special bond factors coul: 0          0          0         
  2 = max # of 1-2 neighbors
  2 = max # of 1-3 neighbors
  4 = max # of 1-4 neighbors
  56 = max # of special neighbors
  special bonds CPU = 0.000542169 secs
WARNING: Using 'neigh_modify every 1 delay 0 check yes' setting during minimization (../min.cpp:168)
Neighbor list info ...
  update every 1 steps, delay 0 steps, check yes
  max neighbors/atom: 2000, page size: 100000
  master list distance cutoff = 26.9
  ghost atom cutoff = 26.9
  binsize = 13.45, bins = 63 63 63
  1 neighbor lists, perpetual/occasional/extra = 1 0 0
  (1) pair lj/cut, perpetual
      attributes: half, newton on
      pair build: half/bin/newton
      stencil: half/bin/3d/newton
      bin: standard
Setting up cg style minimization ...
  Unit style    : real
  Current step  : 0
Per MPI rank memory allocation (min/avg/max) = 1.164 | 13.81 | 17.68 Mbytes
Step Temp E_pair E_mol TotEng Press 
       0            0 1.097855e+12      2649600 1.0978577e+12 5.0804878e+08 
    3165            0    -1749.261     5102.442     3353.181 0.0087270459 
Loop time of 0.895267 on 28 procs for 3165 steps with 14000 atoms

99.4% CPU use with 28 MPI tasks x no OpenMP threads

Minimization stats:
  Stopping criterion = energy tolerance
  Energy initial, next-to-last, final = 
     1.09785765867e+12      3353.38932291      3353.18099319
  Force two-norm initial, final = 8.92234e+10 1.58028
  Force max component initial, final = 1.04805e+09 0.193454
  Final line search alpha, max atom move = 0.612771 0.118543
  Iterations, force evaluations = 3165 3624

MPI task timing breakdown:
Section |  min time  |  avg time  |  max time  |%varavg| %total
---------------------------------------------------------------
Pair    | 0.052428   | 0.17392    | 0.30808    |  16.9 | 19.43
Bond    | 0.015634   | 0.046879   | 0.078246   |   7.3 |  5.24
Neigh   | 0.099821   | 0.102      | 0.10432    |   0.3 | 11.39
Comm    | 0.12784    | 0.27338    | 0.43348    |  16.1 | 30.54
Output  | 0          | 0          | 0          |   0.0 |  0.00
Modify  | 0          | 0          | 0          |   0.0 |  0.00
Other   |            | 0.2991     |            |       | 33.41

Nlocal:    500 ave 826 max 174 min
Histogram: 1 3 4 4 2 2 8 1 1 2
Nghost:    338.893 ave 565 max 156 min
Histogram: 3 3 2 1 6 7 2 2 1 1
Neighs:    3508.14 ave 5788 max 1093 min
Histogram: 1 4 2 5 2 1 6 2 0 5

Total # of neighbors = 98228
Ave neighs/atom = 7.01629
Ave special neighs/atom = 5.82857
Neighbor list builds = 221
Dangerous builds = 0
Setting up Verlet run ...
  Unit style    : real
  Current step  : 3165
  Time step     : 0.1
Per MPI rank memory allocation (min/avg/max) = 1.128 | 14 | 16.55 Mbytes
Step Temp E_pair E_mol TotEng Press 
    3165            0    -1749.261     5102.442     3353.181 0.0087270459 
   13165    223.07786   -1397.3899    8953.5952    16864.879   -1.6617374 
Loop time of 1.44331 on 28 procs for 10000 steps with 14000 atoms

Performance: 59.862 ns/day, 0.401 hours/ns, 6928.518 timesteps/s
99.3% CPU use with 28 MPI tasks x no OpenMP threads

MPI task timing breakdown:
Section |  min time  |  avg time  |  max time  |%varavg| %total
---------------------------------------------------------------
Pair    | 0.055783   | 0.19014    | 0.35124    |  19.1 | 13.17
Bond    | 0.037236   | 0.10919    | 0.18159    |  11.1 |  7.57
Neigh   | 0.002215   | 0.0022936  | 0.0023677  |   0.1 |  0.16
Comm    | 0.35274    | 0.57635    | 0.76459    |  15.4 | 39.93
Output  | 6.5832e-05 | 8.7186e-05 | 0.00011359 |   0.0 |  0.01
Modify  | 0.088039   | 0.25604    | 0.4232     |  16.8 | 17.74
Other   |            | 0.3092     |            |       | 21.42

Nlocal:    500 ave 829 max 173 min
Histogram: 1 3 4 4 2 2 8 1 1 2
Nghost:    339.214 ave 559 max 156 min
Histogram: 3 3 1 2 5 8 2 2 0 2
Neighs:    3520.89 ave 5787 max 1114 min
Histogram: 2 3 2 5 2 1 6 2 0 5

Total # of neighbors = 98585
Ave neighs/atom = 7.04179
Ave special neighs/atom = 5.82857
Neighbor list builds = 5
Dangerous builds = 0
4000 atoms in group rxnSites
Neighbor list info ...
  update every 1 steps, delay 1 steps, check yes
  max neighbors/atom: 2000, page size: 100000
  master list distance cutoff = 26.9
  ghost atom cutoff = 26.9
  binsize = 13.45, bins = 63 63 63
  2 neighbor lists, perpetual/occasional/extra = 1 1 0
  (1) pair lj/cut, perpetual
      attributes: half, newton on
      pair build: half/bin/newton
      stencil: half/bin/3d/newton
      bin: standard
  (2) fix bond/create/random, occasional, copy from (1)
      attributes: half, newton on
      pair build: copy
      stencil: none
      bin: none
Setting up Verlet run ...
  Unit style    : real
  Current step  : 0
  Time step     : 25
Per MPI rank memory allocation (min/avg/max) = 17.87 | 18.28 | 18.83 Mbytes
Step E_pair PotEng KinEng E_bond E_angle Temp Bonds 
       0   -1397.3899    7556.2053    9308.6734    3077.2877    5876.3076    223.07786    13800 
 1000000   -207.53029    9263.2892    12786.188    1305.8711    8164.9483    306.41483    14662 
 2000000    -218.9673    9011.1991    13037.991    1069.9385    8160.2279    312.44917    14756 
 3000000   -228.70423    8717.1241    13011.976    820.31743    8125.5109    311.82572    14837 
 4000000   -247.80675     8489.443    12965.203     596.6632    8140.5866    310.70483    14857 
 5000000   -227.28025    8740.0845    13082.784    782.21343    8185.1513    313.52259    14858 
 6000000   -230.18504    8681.8039    12645.487    729.01687    8182.9721    303.04298    14870 
 7000000   -236.78214    8600.4099    12988.281    575.31224    8261.8798    311.25789    14907 
 8000000   -259.05734    8474.6111    12977.279    503.32634    8230.3421    310.99423    14927 
 9000000   -259.27627    8399.9103    12925.491    449.76201    8209.4245    309.75314    14926 
10000000   -273.76343     8258.451     12967.45    406.98001    8125.2344    310.75868    14947 
11000000   -266.69429    8431.9956    12897.554    547.19354    8151.4964    309.08366    14921 
12000000   -266.98895    8144.5523    12924.571    197.52663    8214.0146     309.7311    14992 
13000000   -289.57914     8282.505    12892.238    339.05957    8233.0245    308.95627    14985 
14000000   -252.80168    8303.6457    12844.166    293.29228    8263.1551    307.80424    14996 
15000000   -278.82184    8251.4721    12694.634     288.2975    8241.9964    304.22077    14984 
16000000   -281.74816    8346.2004    12966.088    423.67385    8204.2747    310.72603    14957 
17000000     -276.611    8358.1084    12814.321    389.83541     8244.884    307.08901    14988 
18000000   -277.15428    8213.6478    13030.475    310.15737    8180.6447    312.26904    14958 
19000000    -299.6925    8246.9847    12820.857    230.11522     8316.562    307.24565    14970 
20000000   -285.12971    8304.9609    13009.476    269.17009    8320.9205    311.76582    15002 
21000000   -272.14767    8095.8236    12881.994    229.08367    8138.8876    308.71076    15024 
22000000   -276.17825    8140.1785    12979.305    210.15786    8206.1989    311.04277    15007 
23000000   -291.52087    8129.2294    12986.933    228.80305    8191.9472    311.22559    15016 
24000000   -293.81054    8211.9437    13038.056    302.56921     8203.185    312.45071    14992 
25000000   -248.25759     8114.839    12863.778    233.95735    8129.1392    308.27424    15017 
26000000   -286.01731    8342.1038    12910.641    358.36313     8269.758    309.39727    14964 
27000000   -289.96595    8006.3748    12881.647     124.9673    8171.3734    308.70244    15014 
28000000   -276.44912    8183.6376    13034.227    301.83926    8158.2475    312.35896    14980 
29000000   -283.29405    8214.8437    12987.127    271.17693    8226.9609    311.23024    14987 
30000000   -293.90433    8130.6871    12826.429    143.50529    8281.0862    307.37918    15027 
31000000   -306.34418    7982.5734     12947.05     158.7397    8130.1779    310.26981    15024 
32000000   -282.32812     8049.312    12938.675    121.15168    8210.4885    310.06909    15037 
33000000   -307.73942    8048.9706    12784.139     175.2254    8181.4846    306.36573    15023 
34000000   -294.42027    8153.3731    13026.292     170.6622    8277.1312    312.16881    14996 
35000000   -259.41701    8236.1646    13010.115    222.56134    8273.0202    311.78112    15023 
36000000   -308.60702    8087.7867    13051.284    177.86079     8218.533    312.76772    15057 
37000000   -280.96144    8006.2362    12981.916    63.025379    8224.1723    311.10535    15035 
38000000   -303.20932    8232.5234    12904.326    273.57957    8262.1532    309.24595    15001 
39000000   -290.23885    8156.3169    12956.518    222.56503    8223.9907    310.49671    15016 
40000000   -318.86833    8187.5532    12918.363    218.85318    8287.5684    309.58232    15010 
41000000   -336.50263     8049.219    12967.513    88.764596    8296.9571     310.7602    15053 
42000000   -294.68926    8000.2308    12912.896    74.107574    8220.8124    309.45132    15045 
43000000   -312.82525     8207.123    12910.245    251.88144    8268.0668    309.38779    15036 
44000000   -285.46872    8047.8697    13102.888    208.00747     8125.331    314.00438    15010 
45000000    -308.4324    8043.4491    12970.495     138.3356    8213.5459    310.83164    15028 
46000000   -328.51078    8184.8083    12966.781    259.78998    8253.5291    310.74265    15018 
47000000   -298.78019    7965.6571    12917.297    117.20677    8147.2306    309.55679    15047 
48000000   -322.87405    7996.6008    12949.595    156.36382     8163.111    310.33078    15047 
49000000   -305.42502    7933.6556    13090.458    46.450618      8192.63    313.70651    15044 
50000000   -292.96003    7973.1837    12846.937    123.99071    8142.1531    307.87065    15023 
51000000   -311.99237    8041.1387    12976.304    152.11213     8201.019    310.97087    15051 
52000000   -302.96901    8080.6249    12976.626    80.201165    8303.3928    310.97858    15066 
53000000   -321.34352     8203.936    12867.589      213.034    8312.2455    308.36555    15011 
54000000   -334.75794    7915.3414    12908.749    108.30432     8141.795    309.35194    15053 
55000000   -308.78146    8139.7874    12924.345    124.63636    8323.9325    309.72568    15033 
56000000   -297.28976    7903.2326    12893.872    20.732966    8179.7894    308.99541    15055 
57000000   -293.78724    8006.2108    12857.646    55.313167    8244.6849    308.12728    15045 
58000000   -287.28329    8165.9603    12730.768    185.97113    8267.2724    305.08671    15031 
59000000   -328.91439    8037.8528    12786.295    85.657799    8281.1094     306.4174    15033 
60000000   -274.95872    7934.7724    12959.427    17.794645    8191.9364    310.56641    15065 
61000000   -307.22186    7954.8546    12974.955    63.326447      8198.75    310.93853    15054 
62000000   -312.70744     8050.603    13004.496    200.34126    8162.9691    311.64647    15026 
63000000   -313.80335    7847.5991    12917.574   -17.472405    8178.8749    309.56343    15054 
64000000   -327.53105    8014.4143    12800.543    132.32396    8209.6213    306.75884    15046 
65000000   -330.65114    7949.0347     13020.65    138.68233    8141.0035    312.03359    15047 
66000000    -296.8451    7801.1544    12966.196   -73.173684    8171.1732    310.72863    15114 
67000000   -328.52982    7924.3621    12846.356    5.9369247     8246.955    307.85671    15059 
68000000   -303.88303    7997.0673    12941.454    56.771348     8244.179    310.13569    15075 
69000000   -301.04732    7907.0641    13003.396   -21.307407    8229.4188    311.62011    15058 
70000000   -299.44753    7922.4418    12967.027    15.942345    8205.9469    310.74853    15042 
71000000   -327.59808    7942.1332    12840.166    7.7237363    8262.0075    307.70838    15070 
72000000   -322.66036    7886.8665    12917.497    72.683139    8136.8437    309.56158    15073 
73000000   -328.72987    7925.4629    12927.726    65.928338    8188.2644    309.80672    15054 
74000000   -332.23225    7804.5531    12940.525   -124.59372     8261.379    310.11343    15071 
75000000   -330.81624     8001.958    13000.897    135.85558    8196.9187    311.56022    15036 
76000000   -347.18013    8039.6904    12955.877    95.194755    8291.6758    310.48134    15068 
77000000   -314.12614    7778.0283    12914.429   -90.581652    8182.7361    309.48806    15079 
78000000   -308.88129    7901.0986    12978.467    148.54172    8061.4381    311.02269    15031 
79000000   -311.55085    7946.0252    12854.315    95.680272    8161.8958    308.04746    15073 
80000000   -281.26414    7912.9643    12947.257   -1.9498535    8196.1783    310.27476    15063 
81000000   -288.41627    7871.8304    12905.886    58.033006    8102.2136    309.28332    15080 
82000000   -308.46452     7930.642    12858.687    51.409277    8187.6973    308.15224    15071 
83000000   -308.10869    7864.3998    12940.054    50.222913    8122.2856    310.10215    15094 
84000000   -310.54026     7826.832    12878.975   -61.255004    8198.6272    308.63841    15088 
85000000   -303.26931    7921.3672    12879.602    35.584941    8189.0515    308.65345    15055 
86000000   -329.49494    7900.1651     12843.05    56.613806    8173.0463    307.77749    15065 
87000000    -326.1361    8075.0855     12903.06    106.91681    8294.3048     309.2156    15073 
88000000   -327.22699    8008.7834    12889.245    162.37206    8173.6384    308.88454    15038 
89000000    -308.0443    7845.8237    12893.263   -125.83806    8279.7061    308.98082    15092 
90000000   -315.75129    7891.1218    12745.415    101.97878    8104.8943    305.43773    15068 
91000000   -306.82817    7876.2246    12953.204    102.99196    8080.0608    310.41729    15074 
92000000   -347.98403    7932.2601    12967.681    71.213356    8209.0307    310.76421    15068 
93000000   -312.90698    7754.6098    12970.534   -110.44494    8177.9617     310.8326    15083 
94000000   -306.45043    7658.8928    12845.431   -87.273641    8052.6169    307.83456    15077 
95000000   -316.86359    7742.2905    12749.635    32.422386    8026.7317    305.53884    15092 
96000000   -309.13072    7762.7265    13002.171    -85.97334    8157.8306    311.59076    15101 
97000000   -309.81077    7988.3292    12845.593    104.25412    8193.8859    307.83843    15066 
98000000   -274.90073    7897.3038    12838.759    48.875706    8123.3288    307.67466    15066 
99000000   -317.35687    7750.0349    12928.836   -66.179013    8133.5708    309.83331    15082 
100000000   -353.62711    7759.5653    12764.999   -55.348411    8168.5408    305.90704    15099 
101000000   -328.98399    7688.4696    12914.859   -163.10467    8180.5583    309.49836    15123 
102000000   -302.40642    7863.9564    12972.522   -4.4933199    8170.8561    310.88024    15072 
103000000   -345.62227    7693.4473    13075.364   -75.578742    8114.6483    313.34478    15082 
104000000    -342.7755    7870.2153     13140.83   -26.158609    8239.1494    314.91364    15077 
105000000   -314.68219    7827.7734    12982.657   -16.064261    8158.5199    311.12312    15089 
106000000   -299.67925    7833.7963    12965.518   -8.5697449    8142.0452    310.71237    15085 
107000000   -320.98913    7853.3176    12830.273   -22.577041    8196.8838    307.47129    15088 
108000000   -338.01275    7787.3893    12974.984   -28.439195    8153.8413    310.93923    15091 
109000000    -337.9409     7845.389    12959.742   -95.986389    8279.3163    310.57396    15102 
110000000   -291.22058    7853.2163    12954.042    56.632083    8087.8048    310.43737    15058 
111000000   -327.71017    7881.9024    13040.134   -4.3489173    8213.9615    312.50051    15110 
112000000   -330.63897    7727.0524    12673.716   -130.55476    8188.2461     303.7195    15123 
113000000   -317.68437    7591.6136    12984.375   -97.973748    8007.2717    311.16428    15092 
114000000    -307.5601    7800.6513    12986.492   -8.7799922    8116.9914    311.21501    15061 
115000000   -312.69829    8023.5812    13005.132     33.44684    8302.8326    311.66171    15083 
116000000   -330.64551    7881.1412    12966.583   -16.795967    8228.5827     310.7379    15095 
117000000   -321.98974     7823.574    13074.194   -128.24881    8273.8126    313.31675    15090 
118000000    -300.5323    7700.8606    12907.032   -144.53193    8145.9249    309.31078    15115 
119000000   -311.03894    7983.6611    12919.533    60.658367    8234.0417    309.61038    15086 
120000000   -308.89826    7822.6903    12971.198    2.6585661      8128.93    310.84849    15066 
121000000   -312.36922    7854.6718    12956.351    60.563841    8106.4772    310.49269    15067 
122000000   -312.76994    7856.5329    12879.185   -60.899828    8230.2027    308.64345    15079 
123000000   -323.08129    7946.4059    12852.013     114.0881    8155.3991    307.99229    15075 
124000000   -329.32573    7824.8542    12963.884   -23.900448    8178.0804    310.67322    15060 
125000000   -323.00151    7882.9281    12968.953     28.36956      8177.56     310.7947    15096 
126000000   -355.17695    7842.0337     13013.66   -76.303991    8273.5146    311.86608    15092 
127000000   -337.35314    7672.9296     13051.57   -130.56099    8140.8438    312.77456    15102 
128000000   -327.60407    7894.5994     13003.78   -81.777753    8303.9813    311.62932    15098 
129000000   -317.84635    7925.5685    12953.625   -29.978188     8273.393    310.42737    15097 
130000000   -320.56816    7960.7543    12921.865    15.978883    8265.3436    309.66625    15100 
131000000   -317.89633    7631.6874     13059.69   -129.63047    8079.2142    312.96916    15092 
132000000   -295.71922    7786.0675    12859.529   -98.239352    8180.0261     308.1724    15111 
133000000   -323.94791    7956.7201    12974.099    67.950539    8212.7175    310.91801    15051 
134000000   -318.05551    7898.0592    13016.772    12.452072    8203.6626    311.94066    15079 
135000000    -302.3338    7800.2655    12893.007   -146.94922    8249.5485    308.97468    15124 
136000000   -348.85038    7784.0769    13178.874   -114.84489    8247.7721    315.82536    15102 
137000000   -323.38681    7724.1949    12959.963   -37.399393    8084.9811    310.57926    15095 
138000000   -356.36471    7746.0988    12833.468   -52.108762    8154.5723    307.54786    15090 
139000000   -319.72011    7631.0548    12943.921   -171.37076    8122.1457    310.19482    15106 
140000000   -332.46086    7748.3315    12911.652   -42.047212    8122.8396    309.42151    15087 
141000000   -337.75028    7729.5503    12991.678    -65.58019    8132.8808     311.3393    15091 
142000000   -323.26098      7758.32    13052.704    -76.49515    8158.0761    312.80174    15085 
143000000   -326.06509    7793.1958    12801.072    -11.48254    8130.7435     306.7715    15090 
144000000   -326.23339    7658.5243    12856.839   -151.00178    8135.7595    308.10794    15104 
145000000   -316.65763    7797.3324    12864.852   -63.444378    8177.4344    308.29998    15109 
146000000   -331.57527    7749.6176    12967.612   -120.93291    8202.1258    310.76256    15096 
147000000   -318.48828    7549.2421    13008.477   -211.06285    8078.7932    311.74186    15127 
148000000   -320.42216    7635.1928     12822.96   -89.082493    8044.6974    307.29606    15099 
149000000   -325.06028    7885.2084     12806.75   -39.631553    8249.9002    306.90759    15092 
150000000   -328.53574    7630.8511    13071.796   -174.34946    8133.7363    313.25928    15143 
151000000   -288.77021    7864.4894    12836.561   -12.188239    8165.4478      307.622    15111 
152000000   -347.69469     7664.554    12952.322   -125.75928    8138.0079    310.39614    15101 
153000000   -343.72963    7848.4446    12831.254    4.4321591    8187.7421    307.49481    15074 
154000000   -363.02024    7746.0146    12933.236    20.190022    8088.8449    309.93875    15074 
155000000   -301.36861    7777.5788    12941.822   -157.91111    8236.8585    310.14452    15105 
156000000   -367.09545     7595.384    12911.742   -105.02442    8067.5038    309.42367    15101 
157000000   -340.39477    7676.6318    12856.862   -86.264333    8103.2909    308.10849    15075 
158000000   -292.04962    7932.4795    13077.977    87.394046    8137.1351     313.4074    15081 
159000000   -319.30892    7848.7089    12827.341    26.278303    8141.7396    307.40104    15054 
160000000    -382.2722    7630.6091    12875.951    -128.2801    8141.1614    308.56594    15089 
161000000   -345.58028    7778.7877    12893.089   -36.812219    8161.1802    308.97666    15065 
162000000     -355.243      7904.86    13032.881    41.362737    8218.7403     312.3267    15064 
163000000   -342.75234     7626.538     12787.26   -210.42997    8179.7203    306.44051    15131 
164000000   -323.89022    7734.5195    12977.222    -177.5197    8235.9294    310.99287    15161 
165000000   -332.57743    7808.5947    12987.319    7.2030316    8133.9691    311.23482    15098 
166000000   -336.07822    7839.6904    12895.923   -74.682697    8250.4513    309.04456    15105 
167000000   -336.35702    7754.9296    12963.078   -69.964463     8161.251     310.6539    15110 
168000000   -324.47374    7691.6276    13058.715   -185.33035    8201.4317    312.94581    15119 
169000000   -345.85071    7626.0771    12909.567   -146.62326    8118.5511    309.37154    15096 
170000000   -340.16015    7720.7574    13019.939   -92.480954    8153.3985    312.01655    15108 
171000000   -347.21985    7812.0777    12917.377   -18.464574    8177.7621     309.5587    15100 
172000000   -316.31578    7640.3788    12835.224   -213.29764    8169.9922    307.58995    15108 
173000000   -345.77914     7747.444    12846.536   -59.245162    8152.4683    307.86103    15108 
174000000   -339.81966    7736.6859     12811.71    -84.09428    8160.5998    307.02644    15102 
175000000   -338.67445    7800.6686    13021.813   -97.133125    8236.4761    312.06145    15104 
176000000   -339.23977    7738.6782    12871.515   -83.055739    8160.9737    308.45964    15099 
177000000   -309.01018    7687.1492    12837.678   -92.888858    8089.0482    307.64875    15122 
178000000   -312.60137    8028.9377    12940.682    133.96269    8207.5764     310.1172    15044 
179000000   -339.99754     7802.425    13049.906   -41.343913    8183.7665     312.7347    15096 
180000000   -327.39822    7653.1934    12851.429   -80.089611    8060.6813    307.97829    15079 
181000000   -350.79791    7653.7402    12890.137   -80.517886     8085.056     308.9059    15101 
182000000   -362.58971    7795.8063    12851.646   -58.831608    8217.2276     307.9835    15099 
183000000   -355.20678    7693.5702    12901.672   -94.876696    8143.6536    309.18234    15098 
184000000   -315.84035    7611.8108    12979.301   -121.43689     8049.088    311.04268    15107 
185000000   -305.02642    7728.5061    13015.564   -141.94016    8175.4727     311.9117    15097 
186000000   -343.10443    7431.0458    12944.983   -212.59913    7986.7494    310.22027    15129 
187000000   -362.12663    7639.7467    12933.785   -57.836089    8059.7094    309.95192    15086 
188000000   -315.94803    7655.2256    13026.547   -18.466409    7989.6401     312.1749    15109 
189000000   -340.70188    7695.2713    12999.062   -95.414804     8131.388    311.51624    15127 
190000000   -349.91348    7655.0663    12923.171   -105.61501    8110.5948    309.69756    15110 
191000000   -361.13344    7680.5691    12946.646   -184.53826    8226.2408    310.26012    15115 
192000000   -336.51197     7825.376    13013.695   -2.9341959    8164.8222    311.86692    15106 
193000000   -339.82386    7583.8829    13008.639   -193.81059    8117.5174    311.74575    15113 
194000000    -326.6534    7514.0826    12836.803   -312.03368    8152.7696     307.6278    15143 
195000000   -345.10555     7621.284    12899.699   -258.02016    8224.4097    309.13507    15141 
196000000   -319.08186    7710.7481    12901.152   -101.69932    8131.5293    309.16987    15097 
197000000   -333.32881    7622.9963    12994.345   -174.94954    8131.2747    311.40321    15104 
198000000   -341.98728    7749.2906    12752.691   -125.10823    8216.3861    305.61209    15095 
199000000   -343.68818    7563.0364    12913.751   -140.87548       8047.6    309.47182    15110 
200000000   -347.54863    7606.7122    12998.527    -112.1668    8066.4276    311.50343    15110 
201000000    -364.1545    7616.3402    12987.171   -119.01694    8099.5117    311.23127    15103 
202000000   -349.16634    7590.0043    13121.782   -161.20786    8100.3785    314.45717    15115 
203000000   -337.45374    7701.6142    12844.344   -116.86914    8155.9371     307.8085    15126 
204000000   -374.61176    7601.9303     12909.05   -236.50999     8213.052    309.35915    15137 
205000000   -317.28271    7579.0616    12896.079    -107.7277     8004.072    309.04831    15106 
206000000   -315.58264    7704.0902    12840.313   -181.15963    8200.8325    307.71191    15119 
207000000   -337.75923    7773.3987     12965.87   -50.364019    8161.5219    310.72081    15076 
208000000   -304.72188    7862.5128    12923.151    70.406261    8096.8285    309.69708    15073 
209000000   -336.51507     7885.968    12930.883  -0.68451414    8223.1676    309.88237    15101 
210000000   -355.08889    7767.9748    12890.302   -104.17777    8227.2415    308.90986    15113 
211000000   -340.41954    7710.1427    13038.577   -104.56339    8155.1256    312.46321    15096 
212000000   -333.88332    7987.5417    12871.536   -15.307982     8336.733    308.46014    15078 
213000000   -339.33684    7715.6509    12801.754   -153.58094    8208.5687    306.78785    15090 
214000000   -304.86356    7850.2902    12867.253   -36.500084    8191.6539    308.35752    15092 
215000000   -300.07804    7692.8756    13006.164   -106.80778    8099.7615    311.68644    15091 
216000000   -302.29693    7812.3355    13030.192   -141.11536    8255.7478    312.26225    15111 
217000000   -320.64689    7792.7534    12889.797   -157.01923    8270.4196    308.89776    15111 
218000000    -337.0999    7814.4126    13042.996   -16.628556     8168.141    312.56911    15071 
219000000   -323.34659     7732.225    12861.662   -40.922141    8096.4937    308.22352    15099 
220000000   -317.97733     7612.603    12905.744   -147.17263    8077.7529    309.27993    15091 
221000000   -336.05077    7950.9251    12968.358    24.282742    8262.6932    310.78043    15074 
222000000   -354.86116    7927.8506    12808.001    27.001772      8255.71    306.93757    15085 
223000000    -335.5355     7691.784    12897.421   -149.73044    8177.0499    309.08047    15124 
224000000   -338.09628    7684.5741    12985.322   -213.95433    8236.6247    311.18698    15111 
225000000   -313.48495    7977.1059    12954.007    49.753786     8240.837    310.43653    15092 
226000000   -344.83477     7894.591    12897.841    124.71121    8114.7145    309.09052    15062 
227000000   -340.54086    7621.1913    12971.274   -157.73078     8119.463    310.85031    15111 
228000000    -348.7045    7738.6432    13041.565   -36.839063    8124.1868    312.53481    15070 
229000000   -323.75343    7568.2428    12868.769   -165.86067    8057.8569    308.39384    15107 
230000000   -310.58691    7767.1709    12909.576   -82.503222    8160.2611    309.37175    15101 
231000000   -337.47681    7610.5357    12884.174   -135.34038    8083.3529    308.76302    15108 
232000000   -317.66606    7716.2032    12859.222   -21.828723     8055.698    308.16505    15074 
233000000   -347.09105    7937.1171     12751.67    29.954421    8254.2537    305.58761    15065 
234000000   -312.69218    7961.6652    12931.685    85.100846    8189.2566    309.90159    15057 
235000000   -342.29846    7724.8709    12789.729   -11.971246    8079.1406    306.49967    15076 
236000000   -304.22469    7773.2421    13078.335   -96.941323    8174.4081    313.41599    15110 
237000000   -296.05958    7674.3739    13041.456   -168.65935    8139.0929    312.53219    15104 
238000000     -345.679    7721.9169    13027.213    19.754095    8047.8418    312.19087    15069 
239000000   -357.49827    7753.5034    12928.972   -145.23749    8256.2392    309.83658    15103 
240000000   -320.78835    7701.0546    12937.717   -45.685291    8067.5282    310.04615    15114 
241000000   -298.58904     7758.426    13040.839    -103.2066    8160.2217    312.51741    15103 
242000000   -331.79952     7743.738     12784.84   -175.74268    8251.2802    306.38251    15121 
243000000   -337.50527    7642.7815    12977.252   -98.751465    8079.0383    310.99359    15091 
244000000   -322.38775    7598.7217     12765.59   -201.33485    8122.4443     305.9212    15137 
245000000   -326.43443    7586.9207    12925.991   -184.64155    8097.9966    309.76514    15132 
246000000   -345.97902    7864.0669    13093.187   -41.643501    8251.6894     313.7719    15098 
247000000    -332.5003    7944.0086    12847.669    35.854948     8240.654    307.88819    15077 
248000000   -330.20108    7769.4917    12995.584   -173.82971    8273.5225     311.4329    15133 
249000000   -370.53285    7575.3283    13055.752   -182.30238    8128.1635     312.8748    15113 
250000000   -330.41934    7679.6677    13003.122   -129.33061    8139.4176    311.61353    15090 
251000000   -354.71078    7828.5659     12845.47   -10.308626    8193.5853    307.83549    15083 
252000000     -327.806    7556.6351     12933.38   -151.18124    8035.6223    309.94221    15148 
253000000   -345.60164    7830.0057    12840.796   -66.284991    8241.8923    307.72347    15098 
254000000   -346.96736    7811.0715    12947.252   -17.008014    8175.0469    310.27465    15091 
255000000   -345.37674    7869.2062    12831.732   -6.6844916    8221.2674    307.50625    15101 
256000000   -364.78137    7837.9848     12847.36   -28.809768    8231.5759    307.88077    15086 
257000000   -358.63982    7833.6682    12920.736   -25.955262    8218.2633     309.6392    15093 
258000000   -340.22904    7756.8706    13050.998   -58.003808    8155.1035    312.76086    15096 
259000000   -326.74084     7921.166    12853.468    79.708575    8168.1983    308.02716    15071 
260000000   -338.76221    7835.9621    12965.553    23.366183    8151.3581    310.71321    15092 
261000000   -304.14681    7835.7844    12768.605    -95.61381     8235.545    305.99345    15099 
262000000   -335.24897    7782.2222    12851.742   -46.761641    8164.2328    307.98578    15094 
263000000    -300.7202    7884.8444    12900.088    48.624253    8136.9404    309.14439    15082 
264000000   -318.58916    7789.3244    13046.341   -77.973307    8185.8869    312.64926    15104 
265000000   -334.18038    7809.6099    12899.403   -23.220838    8167.0111    309.12797    15088 
266000000   -340.97061    7768.2481    12943.784   -30.245646    8139.4644    310.19154    15098 
267000000   -320.71401    7879.6713    12907.309   -39.056332    8239.4416    309.31744    15112 
268000000   -317.88864    7839.2461    12922.961    17.338879    8139.7959    309.69251    15091 
269000000   -308.29365    7751.6869    12953.153   -73.719461       8133.7    310.41606    15100 
270000000   -324.80512    7713.8671    12762.764   -152.26365    8190.9358    305.85349    15102 
271000000   -318.71788    7942.7119    13001.419    33.360324    8228.0694    311.57274    15069 
272000000   -307.38814    7840.8408    12821.952   -35.168716    8183.3977     307.2719    15087 
273000000    -294.8026    7634.9237     12985.18   -190.93898    8120.6652    311.18357    15140 
274000000   -339.88307    7754.3657    12991.345    27.385302    8066.8635    311.33131    15066 
275000000    -325.1408    7632.2878    12990.985   -148.90095    8106.3295    311.32269    15106 
276000000   -314.51495    7540.4603    12905.626    -298.9208    8153.8961     309.2771    15141 
277000000   -337.25797    7855.7372    12923.372    40.898008    8152.0972    309.70236    15068 
278000000    -331.0304    7739.4505    12971.286    19.344734    8051.1361     310.8506    15078 
279000000   -347.32998    7918.7197    12937.632   -25.639719    8291.6894     310.0441    15067 
280000000   -343.95374    7866.7169    12801.834   -29.942918    8240.6136    306.78976    15104 
281000000    -328.8835    7783.8249    12901.189    15.678382    8097.0301    309.17077    15095 
282000000   -310.43429    7650.6181    12786.524   -176.71841    8137.7708    306.42288    15102 
283000000   -342.72261    7334.8165    12916.261     -333.717    8011.2561    309.53196    15123 
284000000     -316.261    7447.8456    13007.044   -347.99872    8112.1053    311.70754    15149 
285000000    -321.7644    7724.5738    12987.346   -115.72015    8162.0584    311.23547    15099 
286000000   -348.34024    7715.9693    12936.442   -178.45818    8242.7678    310.01559    15090 
287000000   -352.96217    7830.8636    12898.317   -50.748297    8234.5741    309.10195    15083 
288000000   -364.66184    7742.6662    13008.126   -89.503742    8196.8318    311.73347    15088 
289000000   -311.13135    7832.8255    12915.665   -98.820593    8242.7774    309.51768    15090 
290000000   -328.71325    7687.2756    12791.069   -146.70478    8162.6936     306.5318    15091 
291000000   -323.94013    7706.3856    12807.273   -100.93653    8131.2623    306.92012    15107 
292000000   -319.77096    7771.6267    12935.298   -61.473397     8152.871    309.98817    15086 
293000000   -342.23689    7671.3509    12800.178   -103.66464    8117.2524    306.75009    15106 
294000000   -340.22907    7619.4811    12989.158   -185.90645    8145.6166     311.2789    15116 
295000000   -336.48488    7867.2637    13135.684    7.8477857    8195.9008    314.79032    15077 
296000000   -310.22619    7644.4438    12963.087    -203.7267    8158.3967    310.65412    15113 
297000000   -314.46629    7917.1092    12880.264    -37.56501    8269.1406    308.66932    15095 
298000000   -316.55841     7742.764    13005.225   -50.201162    8109.5236    311.66393    15096 
299000000    -328.6167    7653.8974    12710.319   -123.19167    8105.7058    304.59666    15087 
300000000   -331.78495    7649.6309    12894.528   -57.010086    8038.4259    309.01114    15085 
301000000   -336.67875    7758.6147    12847.586   -117.24809    8212.5415    307.88619    15102 
302000000   -307.60103    7714.0971    12892.301    30.460561    7991.2375    308.95778    15063 
303000000   -323.45766    7846.1535    12870.064    13.022071    8156.5891    308.42487    15069 
304000000   -345.94067    7914.3562    12937.872     47.57097    8212.7259    310.04985    15078 
305000000   -332.49412    7704.1436    12955.155   -24.797329    8061.4351    310.46404    15089 
306000000   -364.41493    7861.8837    12886.826   -12.479877    8238.7785    308.82657    15082 
307000000   -333.01254    7832.0611      12892.8   -38.387056    8203.4607    308.96972    15087 
308000000    -311.7168    7921.0704    12807.766    21.633948    8211.1532    306.93193    15073 
309000000   -354.98583    7734.5616    12942.417   -47.987584     8137.535    310.15877    15078 
310000000   -300.99444    7709.9241    12899.814    -44.19465    8055.1131    309.13781    15084 
311000000   -332.93617    7807.3108    12903.738  -0.17134436    8140.4184    309.23185    15102 
312000000    -323.5026    7904.8694    12944.736   -26.313653    8254.6857    310.21435    15071 
313000000   -336.83383    7808.2807    12935.879    53.184951    8091.9296    310.00209    15074 
314000000   -348.34091    7640.0019    12962.585   -186.00725      8174.35    310.64209    15119 
315000000   -352.45102    7790.5905    13064.032   -46.359836    8189.4013    313.07323    15119 
316000000   -330.18608    7843.4628    12914.255   -7.0960517     8180.745    309.48388    15084 
317000000   -351.48501    8012.5673    12941.664     69.98383    8294.0685    310.14073    15101 
318000000   -335.77535     7815.703    12951.109   -59.325146    8210.8035    310.36706    15097 
319000000   -353.24061    7652.3629    12945.317   -175.75647      8181.36    310.22827    15150 
320000000    -321.6766     7656.779    12946.001   -145.60806    8124.0636    310.24467    15122 
321000000   -320.08137    7934.9788    12857.673    65.122434    8189.9378    308.12792    15101 
322000000   -317.23755    7792.3466     12872.32   -83.156882     8192.741    308.47894    15083 
323000000   -328.16115    7716.4702    13057.911    -75.43892    8120.0703    312.92654    15088 
324000000   -308.79231    7660.3706    12896.498   -153.40548    8122.5684    309.05835    15114 
325000000   -329.83402     7759.591    12941.441   -35.320253    8124.7453    310.13538    15106 
326000000   -344.37247    7856.7865    12974.037    1.5805524    8199.5785    310.91653    15081 
327000000   -323.89109    7732.3341    12966.105   -41.502981    8097.7281    310.72644    15099 
328000000   -300.23238    7796.3328    12918.676   -117.40393    8213.9691    309.58983    15092 
329000000   -314.88189    7955.7229    13032.272    129.18642    8141.4184     312.3121    15075 
330000000   -303.66656    7767.7953    12954.414   -71.066632    8142.5285    310.44628    15097 
331000000    -327.9524    7765.0597    13005.185    -142.4874    8235.4995    311.66299    15126 
332000000   -348.48056     7759.448    12968.338   -33.533636    8141.4622    310.77997    15104 
333000000   -314.67729    7863.0361    12821.497   -68.296848    8246.0102    307.26098    15108 
334000000   -326.66219    7818.9998    12885.928    2.7520992    8142.9099    308.80505    15078 
335000000   -335.42747    7672.4475    12921.081   -105.96212    8113.8371    309.64748    15079 
336000000   -345.79638    7744.1497    12980.198   -23.852241    8113.7983    311.06417    15064 
337000000   -300.99096    7780.2607    13086.424   -158.43712    8239.6888    313.60983    15126 
338000000   -362.04108    7648.1445     12961.85   -89.013709    8099.1993    310.62448    15082 
339000000   -315.27441    7763.2993    12842.058   -124.56503    8203.1387    307.75373    15118 
340000000   -331.96327    7760.9461    12951.959   -135.68258     8228.592    310.38745    15094 
341000000   -334.45234    7633.8677    12998.129     -185.726     8154.046    311.49389    15137 
342000000   -307.76772    7814.3962    12935.436   -53.011364    8175.1753    309.99148    15081 
343000000   -317.37707    7764.9525    12870.736    16.025401    8066.3042    308.44098    15076 
344000000   -356.16917    7875.3665    12903.601    92.780468    8138.7552    309.22856    15067 
345000000   -343.58253    7502.6473    12863.259   -348.38241    8194.6123    308.26178    15145 
346000000   -350.18305    7637.5131      13100.1   -207.45375    8195.1499    313.93758    15121 
347000000   -360.06917    7534.6391    12796.794   -282.20401    8176.9122      306.669    15159 
348000000   -365.54029    7689.6679    12987.096   -84.873181    8140.0814    311.22949    15130 
349000000   -347.62976    7585.5146    12921.787   -195.81181    8128.9561    309.66438    15120 
350000000   -314.41644    7855.7486    12977.383   -21.034749    8191.1998    310.99673    15104 
351000000   -348.62915     7770.903    12890.092   -48.813713    8168.3458    308.90484    15106 
352000000   -364.31229    7642.4181    13015.669   -173.39107    8180.1215    311.91423    15139 
353000000   -359.33634    7792.8969    12819.208   -101.12338    8253.3566    307.20614    15123 
354000000   -326.60131    7685.4798     13002.05   -72.002555    8084.0836    311.58786    15101 
355000000   -328.48652    7579.7029    12917.355    -226.5085    8134.6979    309.55818    15115 
356000000   -351.49952    7865.0436     12941.62    45.481357    8171.0618    310.13969    15078 
357000000    -334.6565     7745.609    12961.687   -179.35827    8259.6237    310.62056    15102 
358000000   -352.29591     7654.115    12899.849    -234.5605    8240.9714    309.13866    15128 
359000000   -305.15516    7869.3035    12926.322   -21.082741    8195.5414    309.77308    15060 
360000000   -352.59054    7722.0816     12987.19   -57.078269    8131.7504    311.23175    15082 
361000000   -335.73289    7768.8377    12929.489   -94.195667    8198.7662    309.84896    15112 
362000000   -335.57836    7879.2995    12892.868   -81.817112     8296.695    308.97136    15101 
363000000   -354.70525    7584.0605     12812.61     -159.175    8097.9408    307.04802    15106 
364000000   -337.90633    7799.7915    12927.766   -53.112521    8190.8103    309.80768    15123 
365000000   -321.29312    7668.8682    13032.841    -198.9985    8189.1598    312.32575    15124 
366000000   -289.63016    7957.3274     12874.29    45.740064    8201.2175    308.52614    15089 
367000000   -364.58568    7699.8872    12929.431   -111.33352    8175.8064    309.84757    15073 
368000000   -330.18503    7690.1204    12962.131   -130.42069    8150.7261     310.6312    15101 
369000000   -347.67884    7692.8467    12823.669   -70.382825    8110.9084    307.31303    15085 
370000000   -314.72676    7911.0708    12937.171    96.425292    8129.3723    310.03305    15046 
371000000   -337.86453    7830.3422    13040.221    -5.626273     8173.833     312.5026    15077 
372000000   -328.14369    7750.1276    12882.314     29.40148    8048.8698    308.71843    15087 
373000000   -332.33199    7695.6869    12942.449   -83.693929    8111.7128    310.15954    15086 
374000000   -318.37896    7734.0059     12998.44   -119.70471    8172.0896    311.50133    15094 
375000000   -337.94591    7821.2325    13026.359   -127.16662    8286.3451    312.17041    15119 
376000000   -301.68495    7812.9504    13006.142   -76.381035    8191.0164    311.68591    15114 
377000000   -327.14725    7720.2081    12977.612   -58.042895    8105.3983    311.00221    15076 
378000000   -372.15954    7842.0252    12949.369     -48.3138    8262.4985    310.32538    15105 
379000000   -318.71472    7608.4296    13031.002   -107.76228    8034.9066    312.28166    15095 
380000000   -349.18742    8017.6477     12895.09     134.7257    8232.1094    309.02461    15079 
381000000   -348.90163    7852.9692    12640.453   -19.370313    8221.2412    302.92235    15095 
382000000   -317.10608    7770.9685    12976.675   -46.799508    8134.8741    310.97975    15083 
383000000    -322.1041    7852.3828    12995.214    60.184798    8114.3021    311.42403    15074 
384000000   -344.26482     7666.324    12953.675   -117.49233    8128.0811    310.42857    15093 
385000000     -308.724    7770.1581    12971.285    -128.3622    8207.2443    310.85058    15107 
386000000   -329.66592    7736.9793    12832.948   -171.59955    8238.2448     307.5354    15122 
387000000   -318.92838    7751.4589    12872.969   -67.290941    8137.6782    308.49449    15100 
388000000   -321.07771    7745.9753    13124.956   -168.27288    8235.3259    314.53324    15109 
389000000   -326.00554    7848.9403    13108.106    8.7291427    8166.2167    314.12944    15097 
390000000   -355.83976    7610.0158    12869.952   -110.65713    8076.5127    308.42219    15088 
391000000   -342.19184    7789.7138    12975.188   -11.954241    8143.8599    310.94413    15093 
392000000   -321.95685    7688.2292    13058.599   -212.10675    8222.2928    312.94303    15109 
393000000   -302.51072    7830.4355    12911.904   -28.780357    8161.7266    309.42754    15095 
394000000   -320.06347    7917.6778     13156.54    46.141816    8191.5995    315.29012    15070 
395000000   -332.46571    7747.7695    12950.692   -12.563522    8092.7988    310.35708    15094 
396000000   -319.21661    7577.5368    12822.311   -227.97633    8124.7297    307.28049    15109 
397000000   -343.24893    7743.3592     12985.45   -61.572878     8148.181    311.19005    15079 
398000000   -315.81276    7622.7052    13050.461   -142.35938    8080.8773    312.74799    15101 
399000000   -334.19292    7909.2924    12972.662   -18.778217    8262.2636    310.88359    15096 
400000000   -329.60175    7861.8875    12966.528    -3.558161    8195.0474    310.73659    15084 
401000000   -309.23701    7785.4149    13060.881   -51.109307    8145.7613    312.99771    15081 
402000000    -322.2105    7818.6558    12988.708   -37.673671      8178.54    311.26812    15109 
403000000   -330.60392    7883.8621    12994.407   -8.2080173    8222.6741    311.40469    15083 
404000000   -313.07231    7837.1111     12942.61    -72.01319    8222.1966    310.16339    15084 
405000000   -304.50849    7609.4077    13030.849   -181.65182     8095.568    312.27801    15129 
406000000   -346.49421    7743.0261    12892.089   -48.217324    8137.7376     308.9527    15091 
407000000   -322.52048    7813.2997    13074.796   -17.728878    8153.5491    313.33116    15081 
408000000   -340.12951    7639.8123    13033.232   -151.37349    8131.3153    312.33512    15122 
409000000   -314.52643    7704.9956    12998.995    -127.5068    8147.0288    311.51463    15103 
410000000   -299.50398    7786.6813    12985.727   -34.729724     8120.915    311.19667    15081 
411000000   -328.20091    7754.0798    12888.617   -174.59925    8256.8799    308.86949    15118 
412000000   -310.39622    7905.7865     12929.12    5.5690025    8210.6137    309.84011    15087 
413000000   -319.91389    7694.2608    13030.035   -140.40025    8154.5749    312.25851    15107 
414000000   -317.71755    7897.2495    12826.403    14.382286    8200.5847    307.37855    15067 
415000000    -315.6152    7754.6966     12903.96   -69.565508    8139.8773    309.23718    15111 
416000000   -332.17219    7691.7275    12933.634   -78.579388    8102.4791    309.94829    15079 
417000000   -327.58036    7779.1656    12933.143   -72.871607    8179.6175    309.93652    15092 
418000000   -339.18595    7824.9086     13003.41    18.029479    8146.0651    311.62043    15075 
419000000   -327.41608    7931.6593    12813.132    74.888569    8184.1868    307.06052    15070 
420000000   -327.39301    7798.0743    12854.412   -43.665964    8169.1332    308.04979    15080 
421000000   -350.50447    7946.5503    12994.259    124.10107    8172.9537    311.40114    15095 
422000000   -315.64073    7526.8632    12854.492   -206.78427    8049.2882    308.05169    15116 
423000000   -318.28647    7805.5487    12940.279   -11.223797     8135.059    310.10754    15099 
424000000   -374.08493    7691.5248    12839.988   -159.03499    8224.6447    307.70411    15114 
425000000   -321.28333    7776.1395    12902.175   -61.857055    8159.2799     309.1944    15091 
426000000   -337.83426    7628.8532    12834.461   -154.50097    8121.1884    307.57167    15118 
427000000   -371.38971    7692.4132    12987.696    3.3066372    8060.4962    311.24387    15074 
428000000   -337.97576    7512.0018    12953.272   -268.59156    8118.5692    310.41891    15146 
429000000   -360.45262     7682.583     12915.53   -193.29682    8236.3324    309.51443    15123 
430000000   -338.53856    7735.6078    12890.868   -112.68544    8186.8318    308.92342    15084 
431000000   -355.41539    7676.0525    12726.855   -54.438547    8085.9065    304.99295    15090 
432000000   -342.81198    7736.2326     12992.73   -97.114742    8176.1593     311.3645    15104 
433000000   -347.33454    7714.5816    12964.274   -90.864625    8152.7807    310.68257    15101 
434000000   -345.08777    7679.0551    12910.426   -191.11048    8215.2533    309.39213    15123 
435000000   -350.72831    7645.1226    13154.702   -24.477398    8020.3283    315.24609    15099 
436000000   -369.86503    7586.3417    12987.086   -160.66904    8116.8758    311.22924    15114 
437000000   -339.58215    7735.5395     12906.08   -32.227778    8107.3495    309.28799    15071 
438000000    -284.9436    7814.7776    12993.993   -39.917715    8139.6389    311.39478    15099 
439000000   -330.13212      7835.08    12987.348   -58.281629    8223.4938    311.23553    15090 
440000000   -335.07674    7818.8087    13151.029   -60.683647     8214.569    315.15807    15101 
441000000   -293.98258    7740.7031    12999.313    12.090643    8022.5951    311.52226    15081 
442000000    -306.9052    8086.3268     12810.75    128.54094    8264.6911    307.00343    15063 
443000000   -322.38398    7726.1424    12887.064   -86.341001    8134.8673    308.83227    15115 
444000000   -341.41596    7674.7441    12814.687   -153.80985    8169.9699    307.09779    15110 
445000000   -290.75369    7845.1851    12927.298   -32.347675    8168.2864    309.79646    15093 
446000000   -343.45186    7816.0736    13001.468   -86.051964    8245.5774    311.57391    15077 
447000000   -293.44595    7838.4247    13059.372   -59.430358     8191.301    312.96155    15095 
448000000   -317.32996    7641.5826    13000.169   -183.66926    8142.5818    311.54278    15115 
449000000   -342.29326    7760.4714     13083.58   -83.182069    8185.9467    313.54167    15094 
450000000   -340.46839     7928.437    13001.557    89.968528    8178.9369    311.57603    15050 
451000000   -311.07457    7884.7644     12929.86    26.915025    8168.9239    309.85786    15085 
452000000   -328.51541     7900.225    13026.824    21.509899    8207.2305    312.18156    15094 
453000000   -377.98414    7615.8413    12831.901   -170.77972    8164.6052    307.51031    15121 
454000000   -329.70363    7777.0066    12995.633   -84.063521    8190.7737    311.43407    15118 
455000000   -335.49396    7744.5694    12851.771   -74.073695    8154.1371    307.98648    15102 
456000000   -353.06775    7644.3538    12994.862     -107.979    8105.4006    311.41559    15107 
457000000   -322.78853    7605.4506     13011.66   -77.744245    8005.9834    311.81816    15124 
458000000   -348.02378    7779.8122    13008.708   -125.98261    8253.8186    311.74741    15105 
459000000   -303.59797    7760.3891    13043.409       -114.3    8178.2871      312.579    15076 
460000000   -319.49566    7800.4276    12871.073     46.94688    8072.9764    308.44904    15073 
461000000   -331.23146    7649.0235    13005.933   -132.78304     8113.038     311.6809    15092 
462000000   -341.82696    7878.5906    12854.214   -53.182674    8273.6002    308.04502    15090 
463000000   -355.82496    7713.6458    12920.949    21.055966    8048.4148    309.64431    15074 
464000000   -337.68262     7831.113    12933.108    75.495125    8093.3005    309.93568    15103 
465000000   -355.71438    7736.3403    12909.284   -77.834045    8169.8887    309.36477    15094 
466000000   -338.78171    7700.4251    12932.879   -136.56824     8175.775    309.93019    15116 
467000000   -334.71292    7774.5121    12864.225   -127.08835    8236.3134    308.28495    15108 
468000000   -347.13518    7789.5606    12890.973   -71.211861    8207.9077    308.92595    15072 
469000000   -346.78321    7834.9366    12849.445   -32.960252      8214.68    307.93074    15102 
470000000   -346.89421    7702.9659    12880.637   -105.84607    8155.7062    308.67824    15113 
471000000   -343.56771    7721.4351    12934.087    -64.44633    8129.4491    309.95916    15107 
472000000   -319.05323    7811.0594    12873.469   -118.31301    8248.4257    308.50648    15115 
473000000   -332.75769    7732.6519    12881.765   -64.927824    8130.3374    308.70528    15065 
474000000   -346.25787    8023.5186    12929.735    172.82545     8196.951    309.85485    15079 
475000000   -332.61819     7780.594    12969.784   -51.527551    8164.7398    310.81461    15112 
476000000   -320.12091    7814.9204     12891.86    -117.5051    8252.5464    308.94721    15094 
477000000   -316.52474    7723.6254     12923.52   -41.434486    8081.5846    309.70592    15096 
478000000   -325.77339    7926.9694    13042.542   -3.5002596     8256.243    312.55822    15082 
479000000   -310.20468    7650.7884    12876.403    -98.45989    8059.4529    308.57678    15097 
480000000   -302.87844    7675.5638    13025.201   -115.29939    8093.7417    312.14265    15104 
481000000   -333.48853    7803.6726    12931.155   -5.4480904    8142.6092    309.88888    15083 
482000000   -331.78738    7708.9487     12932.46   -182.83246    8223.5685    309.92017    15134 
483000000   -364.48124    7676.5425    12956.094   -70.608285     8111.632    310.48654    15113 
484000000    -337.6639    7676.6991    12990.483   -201.12845    8215.4914    311.31066    15134 
485000000   -340.11335    7711.9135    12906.573   -82.933505    8134.9604     309.2998    15084 
486000000   -315.19914    7654.9921    13036.462    -128.3868     8098.578    312.41252    15115 
487000000   -369.72714    7640.4755    12940.169   -106.47067    8116.6733     310.1049    15097 
488000000   -345.19189    7766.9946    12782.332   -44.956743    8157.1433    306.32242    15098 
489000000   -331.32607    7843.2765     13051.39   -35.013918    8209.6165    312.77026    15091 
490000000   -315.58506    7729.8425    12979.234   -57.013827    8102.4414    311.04108    15098 
491000000   -340.21634     7962.718     12962.67    41.798896    8261.1355    310.64412    15073 
492000000   -332.39294     7866.006    12879.378    63.275556    8135.1233    308.64809    15054 
493000000   -330.50979    7870.1071    13133.782    -58.78534    8259.4023    314.74475    15087 
494000000    -347.0675    7615.4902    13080.427   -209.52775    8172.0855    313.46612    15140 
495000000   -348.41051    7599.8963    12976.227   -89.460308    8037.7671    310.96901    15096 
496000000   -316.01423    7847.8059    12943.724   -35.532027    8199.3521     310.1901    15060 
497000000   -304.42264    7687.8475    12854.276   -150.72118    8142.9913    308.04653    15109 
498000000   -344.23465    7877.2022    12823.922    13.749552    8207.6873     307.3191    15092 
499000000   -320.38148    7739.4884    12877.337   -125.85235    8185.7222    308.59917    15116 
500000000   -329.46968     7623.114    12770.667   -112.04362    8064.6273    306.04286    15100 
Loop time of 158427 on 28 procs for 500000000 steps with 14000 atoms

Performance: 6817.024 ns/day, 0.004 hours/ns, 3156.030 timesteps/s
99.3% CPU use with 28 MPI tasks x no OpenMP threads

MPI task timing breakdown:
Section |  min time  |  avg time  |  max time  |%varavg| %total
---------------------------------------------------------------
Pair    | 14974      | 16478      | 18335      | 591.8 | 10.40
Bond    | 5951.7     | 6274.5     | 9386.2     | 885.2 |  3.96
Neigh   | 46000      | 46575      | 47343      | 146.9 | 29.40
Comm    | 43636      | 48504      | 52567      | 896.6 | 30.62
Output  | 0.74644    | 0.74773    | 0.74972    |   0.1 |  0.00
Modify  | 25134      | 25365      | 26013      |  97.7 | 16.01
Other   |            | 1.523e+04  |            |       |  9.61

Nlocal:    500 ave 515 max 482 min
Histogram: 2 1 2 3 0 8 4 3 4 1
Nghost:    576.179 ave 819 max 369 min
Histogram: 1 1 5 5 8 1 2 1 2 2
Neighs:    4058.79 ave 4689 max 3233 min
Histogram: 1 3 2 1 2 2 7 5 3 2

Total # of neighbors = 113646
Ave neighs/atom = 8.11757
Ave special neighs/atom = 8.22443
Neighbor list builds = 99803216
Dangerous builds = 0
System init for write_restart ...
Total wall time: 44:00:30
