LAMMPS (5 Jun 2019)
Reading data file ...
  orthogonal box = (-420 -420 -420) to (420 420 420)
  2 by 2 by 7 MPI processor grid
  reading atoms ...
  14000 atoms
  scanning bonds ...
  51 = max bonds/atom
  scanning angles ...
  1 = max angles/atom
  reading bonds ...
  13800 bonds
  reading angles ...
  13600 angles
Finding 1-2 1-3 1-4 neighbors ...
  special bond factors lj:   0          0          0         
  special bond factors coul: 0          0          0         
  2 = max # of 1-2 neighbors
  2 = max # of 1-3 neighbors
  4 = max # of 1-4 neighbors
  56 = max # of special neighbors
  special bonds CPU = 2.34067 secs
  read_data CPU = 2.51594 secs
Finding 1-2 1-3 1-4 neighbors ...
  special bond factors lj:   1          1          1         
  special bond factors coul: 0          0          0         
  2 = max # of 1-2 neighbors
  2 = max # of 1-3 neighbors
  4 = max # of 1-4 neighbors
  56 = max # of special neighbors
  special bonds CPU = 0.00140609 secs
WARNING: Using 'neigh_modify every 1 delay 0 check yes' setting during minimization (../min.cpp:168)
Neighbor list info ...
  update every 1 steps, delay 0 steps, check yes
  max neighbors/atom: 2000, page size: 100000
  master list distance cutoff = 26.9
  ghost atom cutoff = 26.9
  binsize = 13.45, bins = 63 63 63
  1 neighbor lists, perpetual/occasional/extra = 1 0 0
  (1) pair lj/cut, perpetual
      attributes: half, newton on
      pair build: half/bin/newton
      stencil: half/bin/3d/newton
      bin: standard
Setting up cg style minimization ...
  Unit style    : real
  Current step  : 0
Per MPI rank memory allocation (min/avg/max) = 1.165 | 13.79 | 17.67 Mbytes
Step Temp E_pair E_mol TotEng Press 
       0            0 2.4262116e+12      2649600 2.4262142e+12 1.1227655e+09 
    2593            0   -3213.8545    8077.7575     4863.903  0.022358999 
Loop time of 0.952468 on 28 procs for 2593 steps with 14000 atoms

99.3% CPU use with 28 MPI tasks x no OpenMP threads

Minimization stats:
  Stopping criterion = energy tolerance
  Energy initial, next-to-last, final = 
     2.42621422944e+12      4864.36586087      4863.90297658
  Force two-norm initial, final = 2.10957e+10 3.95325
  Force max component initial, final = 1.05441e+09 0.95274
  Final line search alpha, max atom move = 0.049396 0.0470616
  Iterations, force evaluations = 2593 2659

MPI task timing breakdown:
Section |  min time  |  avg time  |  max time  |%varavg| %total
---------------------------------------------------------------
Pair    | 0.038157   | 0.13322    | 0.23294    |  16.4 | 13.99
Bond    | 0.012117   | 0.034517   | 0.058551   |   7.5 |  3.62
Neigh   | 0.077392   | 0.079132   | 0.080579   |   0.3 |  8.31
Comm    | 0.19128    | 0.31237    | 0.45372    |  11.8 | 32.80
Output  | 0          | 0          | 0          |   0.0 |  0.00
Modify  | 0          | 0          | 0          |   0.0 |  0.00
Other   |            | 0.3932     |            |       | 41.29

Nlocal:    500 ave 894 max 183 min
Histogram: 3 3 3 4 6 0 2 2 3 2
Nghost:    312.964 ave 490 max 136 min
Histogram: 3 3 2 1 4 3 4 4 1 3
Neighs:    3601.79 ave 6560 max 1006 min
Histogram: 4 1 5 2 7 0 1 1 5 2

Total # of neighbors = 100850
Ave neighs/atom = 7.20357
Ave special neighs/atom = 5.82857
Neighbor list builds = 165
Dangerous builds = 0
Setting up Verlet run ...
  Unit style    : real
  Current step  : 2593
  Time step     : 0.1
Per MPI rank memory allocation (min/avg/max) = 1.127 | 12.9 | 16.54 Mbytes
Step Temp E_pair E_mol TotEng Press 
    2593            0   -3213.8545    8077.7575     4863.903  0.022358999 
   12593    223.85788    -2666.081    11621.145    18296.287   -1.1157489 
Loop time of 2.00888 on 28 procs for 10000 steps with 14000 atoms

Performance: 43.009 ns/day, 0.558 hours/ns, 4977.903 timesteps/s
99.4% CPU use with 28 MPI tasks x no OpenMP threads

MPI task timing breakdown:
Section |  min time  |  avg time  |  max time  |%varavg| %total
---------------------------------------------------------------
Pair    | 0.053329   | 0.20003    | 0.38289    |  22.7 |  9.96
Bond    | 0.0387     | 0.10927    | 0.18526    |  13.2 |  5.44
Neigh   | 0.0018961  | 0.0019566  | 0.0020619  |   0.1 |  0.10
Comm    | 0.71748    | 0.94944    | 1.2166     |  13.6 | 47.26
Output  | 0.00011976 | 0.00014574 | 0.0001744  |   0.0 |  0.01
Modify  | 0.090848   | 0.25499    | 0.42885    |  19.7 | 12.69
Other   |            | 0.493      |            |       | 24.54

Nlocal:    500 ave 895 max 182 min
Histogram: 3 3 4 3 6 0 2 2 3 2
Nghost:    312.536 ave 488 max 136 min
Histogram: 3 3 2 1 4 3 4 3 2 3
Neighs:    3606.46 ave 6547 max 997 min
Histogram: 3 2 4 3 7 0 1 1 5 2

Total # of neighbors = 100981
Ave neighs/atom = 7.21293
Ave special neighs/atom = 5.82857
Neighbor list builds = 4
Dangerous builds = 0
4000 atoms in group rxnSites
Neighbor list info ...
  update every 1 steps, delay 1 steps, check yes
  max neighbors/atom: 2000, page size: 100000
  master list distance cutoff = 26.9
  ghost atom cutoff = 26.9
  binsize = 13.45, bins = 63 63 63
  2 neighbor lists, perpetual/occasional/extra = 1 1 0
  (1) pair lj/cut, perpetual
      attributes: half, newton on
      pair build: half/bin/newton
      stencil: half/bin/3d/newton
      bin: standard
  (2) fix bond/create/random, occasional, copy from (1)
      attributes: half, newton on
      pair build: copy
      stencil: none
      bin: none
Setting up Verlet run ...
  Unit style    : real
  Current step  : 0
  Time step     : 25
Per MPI rank memory allocation (min/avg/max) = 17.76 | 18.28 | 18.83 Mbytes
Step E_pair PotEng KinEng E_bond E_angle Temp Bonds 
       0    -2666.081    8955.0643    9341.2223    3114.0609    8507.0843    223.85788    13800 
 1000000   -1427.2626    9380.7968    12713.734    2285.9556    8522.1037    304.67851    14680 
 2000000   -1516.3656    8802.4991    12889.575    2047.5881    8271.2765    308.89244    14795 
 3000000   -1648.3101     8492.418    12997.301    1871.6701    8269.0581    311.47405    14858 
 4000000   -1768.6392    8285.9657    12851.383    1772.2195    8282.3855    307.97719    14890 
 5000000   -1804.3704    8465.5227    12768.659    1813.2576    8456.6355    305.99475    14885 
 6000000   -1876.1473    8114.0401    12991.057    1598.7778    8391.4095    311.32442    14949 
 7000000   -1797.9074    8408.6108    12959.837    1867.2665    8339.2517    310.57623    14892 
 8000000   -1960.0616    8179.2768    12853.267    1702.7438    8436.5946    308.02233    14972 
 9000000   -1965.2043    8008.9365    12841.862    1618.6941    8355.4467    307.74903    14984 
10000000    -1965.941     7961.208    12875.133    1489.3868    8437.7622    308.54635    14991 
11000000   -2112.5595     7652.871    12943.837    1528.1544    8237.2762     310.1928    15022 
12000000    -2106.154    7662.4685    13100.314    1566.3222    8202.3003    313.94269    14971 
13000000   -2054.3561    7735.1639    12972.965    1482.2787    8307.2413    310.89085    15017 
14000000   -2118.9498    7682.8416    12994.584     1427.148    8374.6434    311.40893    15036 
15000000   -2123.1871    7687.5561    13070.622    1510.8014    8299.9418    313.23115    15015 
16000000   -2170.6895    7760.0414    12940.479    1641.7521    8288.9788    310.11232    15000 
17000000   -2049.8108    7843.6523    12857.978    1508.1522    8385.3109    308.13522    15004 
18000000   -2143.8149    7767.1392    13028.196    1513.4724    8397.4817    312.21444    15010 
19000000   -2235.9916    7510.9614    12871.026    1408.4725    8338.4804    308.44793    15042 
20000000   -2211.1076    7682.8314    13132.046     1611.869      8282.07    314.70315    15014 
21000000   -2298.8721    7216.4187     12840.03    1351.1368    8164.1539    307.70512    15064 
22000000   -2377.7089    7363.8054    13038.859    1446.4946    8295.0197    312.46995    15071 
23000000   -2321.5898    7261.5138    12980.249    1400.9254    8182.1782    311.06539    15061 
24000000   -2423.9862    7325.4725    12923.364    1396.8376    8352.6211    309.70219    15052 
25000000    -2303.297    7358.7161    12879.818    1288.8698    8373.1434    308.65862    15093 
26000000   -2413.4849    7360.6723    12912.798    1414.8884    8359.2689    309.44898    15081 
27000000   -2372.1318    7219.0536    12943.777    1312.5076    8278.6777    310.19137    15069 
28000000    -2408.578    7257.4765    12942.357    1332.2053    8333.8493    310.15734    15086 
29000000   -2379.2436    7385.8228    13008.337    1470.1699    8294.8966    311.73852    15052 
30000000   -2357.0577    7294.6613    12795.888    1395.1945    8256.5246    306.64729    15101 
31000000   -2451.4148    7304.1112    13109.436    1366.9551    8388.5709    314.16131    15087 
32000000   -2469.4054    7219.7932    12735.081    1418.1746     8271.024    305.19008    15051 
33000000    -2391.647    7390.2206    12971.755    1508.8171    8273.0505    310.86185    15070 
34000000   -2434.9515    7111.2373    12779.051    1335.4123    8210.7765     306.2438    15103 
35000000   -2366.4909    7204.9305    12947.528    1332.0219    8239.3995    310.28126    15107 
36000000   -2489.8712    7241.2109    12886.802    1399.9404    8331.1417    308.82599    15073 
37000000   -2501.0906    6983.6945    12978.157    1337.7487    8147.0363    311.01527    15062 
38000000   -2522.1068    7178.0144     12952.98    1405.9843    8294.1369    310.41191    15094 
39000000   -2468.1566     7128.926    12952.195    1432.0726    8165.0101     310.3931    15042 
40000000   -2548.2151    7020.3191    12722.339    1380.0698    8188.4644    304.88471    15086 
41000000   -2592.4632    7153.9705    12977.047    1361.2708    8385.1629    310.98866    15100 
42000000   -2542.5084    7200.7353    13010.646     1416.128    8327.1157    311.79386    15077 
43000000   -2590.3465    7281.0789    12960.973    1566.8191    8304.6062    310.60347    15060 
44000000   -2517.2973     7014.442    13001.023    1269.3397    8262.3996    311.56324    15066 
45000000   -2471.1077    7042.2506    12949.505    1226.2936    8287.0648    310.32865    15103 
46000000   -2489.8389    7355.6593    12989.003    1500.4204    8345.0778    311.27517    15092 
47000000   -2587.0078    6874.5138    12981.028    1252.9538    8208.5678    311.08408    15115 
48000000   -2697.4199    6996.6029    12819.954    1345.4886    8348.5342      307.224    15104 
49000000   -2586.3816    7084.8327    12897.181    1308.3903     8362.824    309.07471    15088 
50000000   -2553.3841    7059.8719    13102.958    1287.1357    8326.1203    314.00606    15115 
51000000   -2533.4354    6838.2574     12783.57     1280.943    8090.7497    306.35208    15111 
52000000   -2599.7105    6969.4841    12922.567    1320.7137    8248.4809    309.68309    15103 
53000000    -2658.796    6933.7745    12897.904    1286.5248    8306.0457    309.09205    15094 
54000000   -2686.7633    6838.7229    13012.533    1349.9055    8175.5808    311.83907    15123 
55000000   -2714.5817     6858.422    12866.808    1267.3523    8305.6514    308.34685    15114 
56000000   -2735.2095    6813.8788    12940.026    1321.1759    8227.9124    310.10147    15096 
57000000   -2617.0675    6935.4377    13150.502    1304.5019    8248.0033    315.14544    15101 
58000000    -2540.398    7158.9964    12814.793    1462.3588    8237.0356    307.10033    15073 
59000000   -2566.0723    6967.0978    12962.318    1282.0696    8251.1005    310.63569    15124 
60000000   -2635.6998      6718.75    12934.209    1159.8762    8194.5736    309.96207    15143 
61000000   -2646.5289    6998.5719    12893.423     1370.582    8274.5188    308.98465    15109 
62000000   -2651.7043    6985.3608    12960.803    1340.3688    8296.6964    310.59938    15110 
63000000   -2669.1125    6756.8179     12849.91    1223.7435    8202.1869    307.94188    15134 
64000000   -2734.5275    6702.4938    13029.492    1232.6757    8204.3456    312.24547    15156 
65000000   -2693.6449    6953.2892     12835.05    1306.7694    8340.1647    307.58577    15109 
66000000   -2707.8446    6872.6695    12855.857    1331.7162    8248.7979     308.0844    15130 
67000000   -2652.7116    6915.2193     12949.52    1415.4263    8152.5045      310.329    15111 
68000000    -2792.613    6656.7407    13052.615    1224.8056    8224.5482    312.79962    15142 
69000000   -2744.7756    6874.4346    12843.636    1256.6299    8362.5803    307.79154    15130 
70000000   -2776.3818    6702.0401    12950.435    1279.1001    8199.3218    310.35091    15129 
71000000   -2868.6281    6727.6541    13015.183    1314.9109    8281.3714    311.90259    15143 
72000000   -2750.2839    6777.4302    12911.929    1251.7931     8275.921    309.42814    15141 
73000000   -2726.5222    6753.1244    12886.533    1226.7168    8252.9299    308.81954    15120 
74000000   -2786.2227    6633.0634     12891.81    1232.5558    8186.7303      308.946    15147 
75000000   -2799.2101    6627.9182    13114.126    1186.6398    8240.4885     314.2737    15142 
76000000   -2758.2671    6883.9738    12872.501    1297.0729     8345.168    308.48328    15106 
77000000   -2705.3092    6763.2939    12860.871    1238.4085    8230.1946    308.20458    15108 
78000000   -2727.3394    6753.3368     12811.36    1241.1063    8239.5699    307.01806    15133 
79000000   -2853.1201     6655.629    12844.264    1175.2878    8333.4612    307.80659    15124 
80000000   -2858.9797    6578.0961     12928.44    1256.6361    8180.4397    309.82382    15112 
81000000   -2791.3637    6608.5219    13087.272     1233.692    8166.1937    313.63016    15150 
82000000    -2808.214    6994.5626    12854.688    1388.9671    8413.8094     308.0564    15101 
83000000   -2845.5342    6525.3951    12901.705    1079.3034     8291.626    309.18314    15171 
84000000   -2765.8437    6904.6073    12831.475    1371.3135    8299.1375    307.50011    15128 
85000000   -2742.8032    6772.3665     12917.86    1314.0758    8201.0939    309.57028    15154 
86000000   -2754.8497    6572.2106    12930.252    1146.4331    8180.6272    309.86725    15153 
87000000   -2822.4398    6856.3126    12963.135    1344.4669    8334.2855    310.65526    15120 
88000000   -2754.0255    6619.0523    12985.799    1206.2153    8166.8625    311.19839    15136 
89000000    -2725.308    6788.6839     12759.15    1246.7034    8267.2886    305.76688    15150 
90000000    -2804.961    6785.9206    12958.321    1296.5819    8294.2997    310.53991    15115 
91000000   -2819.0752    6677.0766    12901.084    1248.6909    8247.4608    309.16824    15142 
92000000   -2766.3329    6776.1114    12866.673    1211.8554     8330.589     308.3436    15140 
93000000   -2864.1155    6620.3294    13154.378    1198.6169    8285.8281    315.23832    15139 
94000000   -2833.2916    6743.1574     13050.66    1281.2106    8295.2384    312.75276    15136 
95000000   -2938.2311    6523.8688    12848.382    1226.6481    8235.4518    307.90528    15152 
96000000   -2964.2239     6428.646    13019.566    1171.1846    8221.6853    312.00762    15160 
97000000   -2902.1052    6717.3769    13041.108     1300.256    8319.2261    312.52387    15130 
98000000   -2960.4075    6404.2419    12721.566    1171.5758    8193.0736     304.8662    15131 
99000000    -2976.148    6245.4485      12965.2    1126.2091    8095.3875    310.70477    15173 
100000000   -2901.0859      6655.39    12868.512    1272.1627    8284.3133    308.38767    15143 
101000000   -2808.1455    6847.2822    12935.679    1413.3889    8242.0388     309.9973    15111 
102000000   -2861.6074     6611.431    12883.753    1277.8958    8195.1426    308.75291    15142 
103000000   -2810.3416    6669.5544     12964.58    1259.3814    8220.5146    310.68991    15152 
104000000   -2874.7504    6517.0537    12756.266    1219.3197    8172.4844    305.69775    15129 
105000000   -2835.8882    6634.2832    13073.963    1272.3774    8197.7941    313.31122    15142 
106000000   -2916.6975    6617.3074    12860.731    1307.6282    8226.3767    308.20122    15126 
107000000   -2796.3342     6648.103    12975.169    1184.9826    8259.4547    310.94366    15127 
108000000   -2825.6273    6626.1653    12938.328    1336.1353    8115.6573    310.06078    15126 
109000000    -2875.957    6507.9713    12948.609    1279.0036    8104.9247    310.30715    15133 
110000000   -2952.7575    6328.3296    12840.229    1140.3233    8140.7637     307.7099    15153 
111000000    -2910.548    6411.8165    12865.926    1198.6876    8123.6769     308.3257    15144 
112000000   -3008.9403    6436.9989    12829.598    1246.0351    8199.9041    307.45512    15136 
113000000   -2901.6293    6706.9236    12949.156    1326.1132    8282.4397    310.32027    15130 
114000000   -2905.3764     6473.261    12855.162    1306.6891    8071.9484    308.06775    15154 
115000000   -2880.8106    6590.8935    13013.805    1278.2284    8193.4758    311.86955    15151 
116000000    -2827.841    6721.8315    12900.763    1310.2767    8239.3958    309.16055    15114 
117000000   -2933.7571     6403.889    12835.051    1113.0141     8224.632    307.58579    15203 
118000000   -2973.5027     6428.718    12945.777     1188.415    8213.8058     310.2393    15158 
119000000   -2915.1184    6523.4813    12987.295    1251.4228    8187.1769    311.23426    15138 
120000000   -2843.2598    6626.0518    12989.568    1193.6069    8275.7047    311.28871    15136 
121000000    -2965.086    6539.8866    12932.133    1176.0976    8328.8749    309.91232    15139 
122000000   -2887.2359    6543.5427    12937.452     1118.914    8311.8646    310.03978    15158 
123000000    -2907.787    6712.6941    12890.055    1250.5166    8369.9646    308.90394    15127 
124000000   -3000.2619    6354.0645    12935.839     1185.033    8169.2934    310.00113    15145 
125000000   -2913.9303    6576.0694    12970.973    1228.2419    8261.7578     310.8431    15153 
126000000   -3018.3462    6411.5775    12761.183     1271.494    8158.4297    305.81559    15157 
127000000   -3008.2809    6490.3268    12979.374    1258.0783    8240.5294    311.04443    15134 
128000000   -2875.1739    6501.1628    12866.142    1229.5029    8146.8337    308.33089    15137 
129000000   -2937.3759    6537.1102    13003.283    1252.1266    8222.3595    311.61739    15129 
130000000   -2959.7009    6406.3377    13017.387    1132.3679    8233.6707    311.95539    15182 
131000000    -2852.387    6579.5885    13027.641    1212.0888    8219.8866    312.20112    15155 
132000000   -2982.6635    6671.1401    12868.388    1348.6977    8305.1059    308.38471    15119 
133000000     -2745.23    6693.0035    12984.663    1303.3146    8134.9189    311.17118    15097 
134000000   -2831.2026    6762.5563    12824.844    1357.4281    8236.3308    307.34119    15146 
135000000   -2882.7346    6560.0399    12997.812     1265.197    8177.5774    311.48628    15147 
136000000   -2909.4174    6448.8901    12963.167    1172.8463    8185.4612    310.65603    15149 
137000000   -2877.2196     6618.672    12990.438    1270.8318    8225.0598    311.30957    15150 
138000000   -2972.5589    6501.8596    12924.412    1249.0742    8225.3443    309.72729    15187 
139000000   -2869.3497     6591.977    12945.364    1286.9428    8174.3839    310.22941    15125 
140000000   -2932.8577    6425.8255    12718.691    1189.9935    8168.6897     304.7973    15136 
141000000   -2887.2763    6621.8613    12916.984    1214.8139    8294.3238    309.54928    15130 
142000000   -2953.1106     6478.945    12787.998    1170.6186     8261.437    306.45819    15172 
143000000    -2993.368    6535.6118    12749.635    1279.1833    8249.7965    305.53886    15137 
144000000   -2959.2883    6622.4405     12894.05    1291.6449     8290.084    308.99967    15147 
145000000   -2890.8296    6745.2567    12867.533    1321.0378    8315.0484    308.36423    15130 
146000000   -2856.6919    6739.8038    13009.685    1264.5376    8331.9581    311.77082    15145 
147000000   -2859.3431    6667.3912    12822.435    1289.5658    8237.1685    307.28346    15148 
148000000   -2782.4948    6475.1063    12735.399    1143.3125    8114.2887    305.19769    15176 
149000000   -2965.0903    6490.8031    12928.255     1335.706    8120.1874    309.81938    15112 
150000000   -2927.5993     6498.708    12869.727    1186.8504    8239.4569    308.41678    15141 
151000000   -3017.5361     6491.584     13050.39    1234.7852    8274.3349     312.7463    15115 
152000000   -2920.8917    6508.4973    12960.631    1148.9361    8280.4529    310.59527    15159 
153000000   -2812.1551    6625.4712    12789.725    1232.0785    8205.5477    306.49958    15129 
154000000     -2889.76    6458.0749    12902.819    1123.4655    8224.3694    309.20982    15182 
155000000   -2807.0716    6838.3846     12819.55    1272.7782    8372.6779    307.21432    15119 
156000000   -2739.0508    6640.4316    12903.595    1295.7755     8083.707    309.22843    15111 
157000000   -2854.9469    6503.7079    12976.685    1251.9639    8106.6908       310.98    15130 
158000000   -2864.7267    6660.9446    12844.783    1300.0913    8225.5799    307.81903    15116 
159000000   -2971.3177    6458.2437    12860.423    1225.4905     8204.071    308.19384    15148 
160000000   -2752.9967    6783.2331    12943.474    1276.8391    8259.3907    310.18411    15132 
161000000   -2756.3121     7004.844    12960.026    1409.7572    8351.3989    310.58076    15112 
162000000    -2833.857    6571.4311    12918.489    1270.7043    8134.5839    309.58536    15109 
163000000   -2889.2068    6654.3769    12952.685    1323.4481    8220.1357    310.40484    15112 
164000000   -2922.2141    6446.9174    12913.722    1171.0865     8198.045    309.47111    15180 
165000000   -3014.5746    6383.1618    12937.193    1159.6129    8238.1234    310.03357    15163 
166000000   -2925.8431    6423.9438    13052.767    1187.5745    8162.2124    312.80327    15184 
167000000   -3048.8299    6524.8767    12966.321    1266.5716     8307.135    310.73161    15129 
168000000   -2999.2931    6459.4057    12816.231     1284.626    8174.0728     307.1348    15153 
169000000   -2930.5967    6723.8304    12954.601    1259.9218    8394.5053    310.45077    15128 
170000000   -2999.7069    6570.3509    12834.726     1264.197    8305.8609    307.57801    15179 
171000000     -2888.58    6579.2984    12996.106    1186.1035    8281.7749     311.4454    15173 
172000000   -2811.3074    6632.0683    12934.728    1183.9869    8259.3888    309.97452    15117 
173000000   -2852.2172    6679.8225    13058.972     1276.997    8255.0426    312.95195    15145 
174000000   -2864.5168    6722.3479    12934.683    1320.5053    8266.3594    309.97343    15138 
175000000   -2967.7847    6564.5586        13004    1320.8048    8211.5385    311.63458    15132 
176000000    -2966.801    6333.6117    13033.927    1197.5384    8102.8743    312.35177    15159 
177000000   -2959.0304     6446.316    12973.055    1157.1921    8248.1544    310.89299    15148 
178000000   -2887.7106    6568.9084    12832.775    1261.8334    8194.7856    307.53126    15153 
179000000   -2817.1975    6588.1821    12809.162    1244.6647     8160.715    306.96539    15134 
180000000   -2951.2613    6507.3195    12831.132     1186.267    8272.3138    307.49189    15132 
181000000    -3025.016    6292.3602    12809.231    1208.5294    8108.8467    306.96705    15142 
182000000   -3053.9032    6206.0267    13017.477    1234.2865    8025.6434    311.95754    15134 
183000000   -2945.1759    6466.6852    13006.825    1210.8017    8201.0594    311.70227    15155 
184000000   -2965.0098    6511.8334    12821.489    1196.8635    8279.9797    307.26079    15153 
185000000   -2934.9431    6403.0317    12998.314    1182.9534    8155.0214    311.49832    15173 
186000000   -2942.2569    6460.1693    12807.178    1193.4248    8209.0014    306.91784    15156 
187000000   -3015.1663    6419.4336    12876.192    1312.4014    8122.1984    308.57172    15138 
188000000   -2910.8429    6476.8071    12992.267    1130.0559    8257.5942    311.35341    15156 
189000000   -2871.6713    6646.0756    12950.303    1249.0628     8268.684    310.34775    15154 
190000000   -2887.6004    6725.3841    12862.537    1292.9389    8320.0456     308.2445    15112 
191000000   -2821.7422    6722.3747    12855.175    1326.2177    8217.8991    308.06805    15117 
192000000   -2881.4189    6657.8485    12946.387    1264.0347    8275.2327    310.25391    15129 
193000000   -3044.8759    6432.5985      12966.9    1200.7318    8276.7427    310.74549    15171 
194000000   -2931.6234    6523.0746    12934.352    1326.5359     8128.162    309.96551    15145 
195000000   -2949.6147    6656.3114    12892.811    1390.5039    8215.4222    308.96998    15115 
196000000   -2996.6285    6724.1363     12860.66    1417.1513    8303.6135    308.19951    15116 
197000000   -2843.2718    6468.6507    13103.543    1073.7411    8238.1814    314.02009    15180 
198000000   -2990.5653    6326.8938    12928.257    1174.9442    8142.5148    309.81945    15167 
199000000   -3066.5504    6454.2781    12831.907    1228.5095     8292.319    307.51046    15167 
200000000   -3075.7893    6265.5076    13042.721    1149.5063    8191.7906    312.56252    15182 
201000000   -2871.0451    6486.4122    12920.979     1211.331    8146.1263    309.64503    15150 
202000000   -2933.0348    6468.1414    13047.727    1125.0586    8276.1176    312.68248    15162 
203000000    -2917.323    6425.0201    12943.046    1178.3872    8163.9559    310.17385    15156 
204000000   -2941.6481     6464.497    12847.532    1231.4976    8174.6475     307.8849    15171 
205000000   -2968.1524    6541.2953    12858.472     1325.272    8184.1756    308.14706    15121 
206000000    -2990.398    6488.2984    12902.306    1266.1409    8212.5555    309.19754    15166 
207000000   -2890.1513    6554.9128    12944.993    1297.4287    8147.6355    310.22051    15150 
208000000   -2733.4299    6720.4969    12865.731    1273.4915    8180.4353    308.32103    15118 
209000000   -2840.7049    6709.4465    12869.223    1281.8156    8268.3358    308.40472    15130 
210000000   -2854.6751    6686.0064    12846.141    1314.5214    8226.1601    307.85156    15146 
211000000   -2934.1547    6522.9433    12968.167    1233.7878    8223.3103    310.77586    15161 
212000000   -2934.1124    6541.5035    12845.878    1224.6892    8250.9267    307.84527    15132 
213000000   -2943.3672    6634.8627    12832.337    1353.3127    8224.9172    307.52076    15135 
214000000   -2870.1115    6516.8986    12995.676    1198.7877    8188.2224    311.43511    15171 
215000000   -2900.6526    6553.7318    12934.052    1320.1834    8134.2011    309.95832    15137 
216000000   -2849.5543    6555.9731    12810.224    1126.9735    8278.5539    306.99084    15156 
217000000     -2898.27    6610.1481    12944.517    1279.1366    8229.2814    310.20911    15136 
218000000    -2935.185    6574.9139    12913.059    1188.5709     8321.528    309.45523    15169 
219000000   -2971.2493    6430.9202    12933.943    1158.9054    8243.2641    309.95569    15155 
220000000   -2906.6742    6527.2855    12982.012    1239.2826    8194.6771    311.10766    15103 
221000000   -2960.1072    6471.4217    12949.809     1269.131    8162.3979    310.33592    15131 
222000000   -2970.9422    6590.0301    13017.037    1222.8228    8338.1496    311.94702    15131 
223000000   -2972.8953     6417.799    12815.241    1163.0881    8227.6062    307.11106    15157 
224000000   -2874.4164    6675.2619    12971.536     1363.926    8185.7522    310.85659    15106 
225000000   -2915.5001    6398.9052    12786.851    1161.4529    8152.9523    306.43072    15161 
226000000   -3118.5218    6209.7975    12994.963    1151.4206    8176.8988    311.41802    15166 
227000000   -2989.9101    6532.4056    13028.365    1266.6639    8255.6517    312.21848    15167 
228000000   -2964.4547    6455.6534    12836.551    1281.5201     8138.588    307.62175    15132 
229000000   -2954.1846    6374.9472    13085.456    1200.2558     8128.876    313.58663    15163 
230000000   -2908.7972    6443.5827    12897.996    1177.1859     8175.194    309.09424    15148 
231000000   -2922.3958    6509.3519    12845.022    1249.7693    8181.9784    307.82476    15148 
232000000   -2875.7904    6486.1606    12794.015    1217.8628    8144.0882    306.60238    15166 
233000000   -2973.4348    6524.6275    12917.184    1187.0455    8311.0168    309.55408    15158 
234000000   -2957.7349    6502.7938    12878.727    1228.3965    8232.1322    308.63247    15182 
235000000   -2896.0044    6673.5447    12674.945    1292.9872    8276.5619    303.74893    15156 
236000000   -2968.2217    6617.4804    13005.806    1282.4154    8303.2867    311.67787    15142 
237000000   -3034.7247      6478.46     12849.89    1260.8915    8252.2932    307.94141    15154 
238000000   -3033.9562    6351.2199    12804.882    1142.8636    8242.3125    306.86281    15183 
239000000   -2879.0653    6578.1819    13015.724    1223.7839    8233.4633    311.91554    15137 
240000000   -2884.9662    6758.4008    13034.506    1341.9391    8301.4278    312.36563    15101 
241000000   -2986.9411    6415.4822    12995.794    1146.6017    8255.8215    311.43793    15164 
242000000   -2878.3099    6461.7578    13051.084    1122.7459    8217.3219    312.76293    15173 
243000000   -2904.7398    6554.6214    12789.863    1207.0527    8252.3085     306.5029    15145 
244000000   -3010.0484    6486.4669    12895.257     1241.393    8255.1223    309.02861    15149 
245000000   -3019.8672    6473.6974    12900.841    1278.1526    8215.4121    309.16242    15131 
246000000   -3022.8961    6273.0512    12983.797    1141.5726    8154.3747    311.15044    15171 
247000000   -3047.3942    6431.2294    12761.768    1227.3165    8251.3071     305.8296    15158 
248000000   -3067.9318    6213.0057    13005.386    1120.6486    8160.2889     311.6678    15174 
249000000   -2960.7441    6430.8702     12915.07    1248.1205    8143.4938    309.50341    15168 
250000000   -2992.1451    6238.6901    12893.962    1155.2227    8075.6125    308.99757    15197 
251000000   -3013.8722      6461.82    12854.417    1211.5794    8264.1128    308.04991    15152 
252000000   -2967.3679    6396.8237    12994.923    1180.9423    8183.2492    311.41705    15182 
253000000   -3004.5159    6549.6208    12949.111    1311.4947    8242.6419     310.3192    15121 
254000000   -2960.0512    6472.5302    13003.347    1257.3544     8175.227    311.61893    15176 
255000000   -2944.4276    6623.3702    12920.137    1291.9134    8275.8843    309.62484    15140 
256000000   -2816.1039     6535.511    12786.786    1215.3826    8136.2323    306.42915    15143 
257000000    -2812.235    6685.3024    13149.648    1317.1294     8180.408    315.12496    15128 
258000000   -2868.3559    6578.6233    12890.884    1307.6494    8139.3298    308.92382    15134 
259000000   -2902.6795       6519.4    12933.563    1233.3859    8188.6936    309.94659    15144 
260000000   -2837.9364    6562.4978    12972.787    1221.5333    8178.9009    310.88657    15164 
261000000   -2910.7433    6498.2259    13009.553    1232.3799    8176.5894    311.76765    15144 
262000000   -2970.8494    6443.6771    12913.119      1238.73    8175.7966    309.45666    15152 
263000000   -2865.2153    6540.4036    13018.363    1192.5869     8213.032    311.97879    15150 
264000000   -2774.8984    6798.8305    12768.496    1162.5446    8411.1843    305.99085    15137 
265000000    -2877.147    6491.1654    12969.696       1204.7    8163.6125    310.81251    15130 
266000000   -2982.3491    6500.2061    12888.816    1235.9806    8246.5745    308.87424    15171 
267000000   -2969.7836    6340.3247    12912.323    1253.3897    8056.7186     309.4376    15159 
268000000   -3006.2801    6548.3363    13013.609    1224.1913    8330.4251    311.86487    15131 
269000000   -2891.7785    6553.6165    12840.287    1184.4377    8260.9574    307.71127    15157 
270000000   -2958.9923    6553.3479    12902.874    1256.2693    8256.0709    309.21115    15151 
271000000    -2949.565     6480.266    12926.973     1289.487     8140.344    309.78868    15141 
272000000   -2990.8348    6297.8439    12844.955    1116.4796    8172.1991    307.82315    15190 
273000000   -2784.0077    6715.7028    12937.287     1302.085    8197.6254    310.03583    15132 
274000000   -2858.2162    6500.6283     12881.45    1155.7004    8203.1441    308.69772    15165 
275000000   -2980.2031    6612.1697     12904.37    1370.9754    8221.3974    309.24701    15120 
276000000   -2947.7449    6698.5575    12915.613    1403.2548    8243.0475    309.51643    15139 
277000000   -2844.2319    6795.2989    12779.445    1317.8301    8321.7007    306.25324    15125 
278000000   -2856.7351    6608.9616    12932.975    1252.7938    8212.9029     309.9325    15138 
279000000   -2963.9735    6677.0297    12883.705    1318.3422     8322.661    308.75177    15141 
280000000   -2951.4287    6539.7964     13014.61    1262.5409    8228.6843    311.88884    15153 
281000000   -2844.4961    6754.0434    12725.007     1305.007    8293.5325    304.94866    15129 
282000000   -2981.0157    6455.0142     13015.85    1218.6143    8217.4155    311.91856    15169 
283000000   -3013.2133    6432.8688    12863.456    1295.5445    8150.5376     308.2665    15118 
284000000   -2984.1559    6396.2306    12899.092    1173.7139    8206.6726     309.1205    15153 
285000000   -2980.4633    6363.5101    12890.553    1093.2293    8250.7441    308.91587    15154 
286000000   -2950.5941    6647.2482    12984.139    1299.1982     8298.644    311.15863    15145 
287000000   -3046.3699    6405.0126    12988.096    1195.6766    8255.7059    311.25345    15169 
288000000   -2991.5793    6530.0216    13023.172    1320.3402    8201.2608    312.09404    15154 
289000000   -3064.3415    6307.4578    12889.576    1213.7278    8158.0715    308.89245    15158 
290000000   -3057.1485    6201.0955    12969.389    1127.7406    8130.5034    310.80514    15175 
291000000   -2923.2106    6358.0346    12901.885    1148.5947    8132.6505    309.18746    15156 
292000000   -3024.2739    6269.8966    12870.054    1017.8451    8276.3253    308.42464    15174 
293000000   -2958.5429    6455.8993    13104.354    1185.7629    8228.6793    314.03952    15138 
294000000   -2822.0038    6673.1507    12910.795     1334.879    8160.2755    309.40096    15140 
295000000   -2881.1384    6501.4407    12945.091    1154.5063    8228.0728    310.22285    15170 
296000000   -2947.6018    6392.0793    12937.639    1195.8579    8143.8233    310.04428    15181 
297000000   -2952.4784    6630.4775    12946.865    1307.0217    8275.9341    310.26537    15137 
298000000   -2960.2466    6439.8149    12902.945    1245.1898    8154.8716    309.21284    15160 
299000000    -3026.969     6391.535    12806.082     1284.551     8133.953    306.89157    15141 
300000000   -2828.6461    6559.5597    12754.548    1133.4665    8254.7394    305.65659    15169 
301000000   -2944.9238    6499.3737    12966.096    1224.5294    8219.7681    310.72623    15158 
302000000    -2986.322    6613.5979    12926.313    1283.1867    8316.7332    309.77285    15153 
303000000   -3015.0061    6404.8803     13030.45    1201.3981    8218.4883    312.26844    15155 
304000000   -2865.8682    6540.0726    13105.886    1207.8729    8198.0679    314.07622    15172 
305000000   -3022.6818    6456.7019    12831.703    1245.6454    8233.7384    307.50557    15126 
306000000   -2938.1486    6558.2221    13059.874    1321.1104    8175.2603    312.97359    15149 
307000000   -2990.8799    6296.5802    12858.691    1118.9975    8168.4626    308.15232    15197 
308000000   -2962.3192    6733.1401    12961.613    1389.0408    8306.4186    310.61881    15126 
309000000   -2976.4005    6584.8383    12909.005    1186.7261    8374.5127    309.35806    15165 
310000000   -2953.4066    6467.0212    12949.141    1192.3137     8228.114    310.31991    15147 
311000000   -2864.0494    6688.6682    12883.973     1240.838    8311.8796     308.7582    15151 
312000000   -2939.2957     6469.462    12835.736    1171.0822    8237.6754    307.60221    15170 
313000000   -3007.7379    6309.1258    12992.264    1186.6425    8130.2213    311.35333    15183 
314000000   -2924.5008    6619.4192    12929.547    1227.5264    8316.3936    309.85035    15169 
315000000   -2932.7423    6547.3902    13159.119    1219.7915     8260.341    315.35194    15130 
316000000    -2909.816    6487.4271    12829.343    1236.4667    8160.7764    307.44901    15154 
317000000   -2920.2737    6479.0012     12886.87    1213.7001    8185.5748    308.82762    15179 
318000000   -2899.5745    6601.0854    12928.221    1229.0642    8271.5957    309.81858    15164 
319000000   -2868.3962    6643.4952    12910.376     1166.818    8345.0734    309.39093    15147 
320000000   -2763.1246    6743.4105    12873.743    1228.1135    8278.4216    308.51303    15171 
321000000   -2825.8456    6872.9314    12736.189     1305.721     8393.056    305.21662    15131 
322000000   -2932.5797    6535.2275    13000.965    1197.0618    8270.7453    311.56186    15166 
323000000   -2886.8348    6528.8809    12879.071    1145.3844    8270.3313    308.64072    15175 
324000000   -2858.1074    6580.1517     12984.19    1200.2981     8237.961    311.15983    15173 
325000000   -2800.0649    6793.6444    13066.445    1286.5699    8307.1394    313.13105    15151 
326000000   -2814.6193    6520.3257    12968.637    1209.3048    8125.6401    310.78714    15121 
327000000   -2802.8428    6785.0632    13061.917    1309.5314    8278.3746    313.02253    15129 
328000000   -2829.2552    6720.3493    12805.286    1236.2425     8313.362     306.8725    15160 
329000000   -2776.8229    6786.7682     12909.53     1266.331    8297.2601    309.37067    15170 
330000000   -2722.2689    6772.9297    13022.535    1283.3532    8211.8454    312.07876    15100 
331000000   -2843.0787    6467.9443    12992.662    1140.0938    8170.9292    311.36287    15153 
332000000   -2852.5384    6746.9918    13022.082    1295.6297    8303.9006     312.0679    15138 
333000000   -2907.9043     6549.492    12992.123    1229.6907    8227.7056    311.34995    15163 
334000000   -2902.8616     6584.881     12780.67    1284.1048    8203.6379    306.28259    15166 
335000000   -2809.4228    6639.2848    12914.139     1225.608    8223.0996    309.48111    15126 
336000000   -2916.4918    6543.6842    12958.961    1198.3738    8261.8022    310.55525    15144 
337000000   -2894.0577    6482.0002    12868.204    1131.8124    8244.2455    308.38031    15173 
338000000   -3011.2317    6519.0018    12842.053    1316.3765     8213.857    307.75359    15162 
339000000   -2857.3362    6515.7909    13094.089    1191.0645    8182.0626    313.79353    15168 
340000000   -2839.9324    6378.9827    12610.119    1110.2529    8108.6622    302.19542    15172 
341000000     -2955.61    6440.8424    13045.661    1128.3834    8268.0689    312.63296    15147 
342000000   -2883.9746    6493.3176    12832.519     1314.615    8062.6773    307.52512    15110 
343000000   -3012.6223    6647.4166    12796.075    1266.8806    8393.1582    306.65176    15131 
344000000   -2988.5207     6398.026    12890.519    1153.7444    8232.8023    308.91506    15156 
345000000   -2988.1507    6543.6045    12848.946    1272.1072     8259.648     307.9188    15160 
346000000   -3133.4536    6244.3511    12944.427    1220.5818     8157.223    310.20694    15150 
347000000   -2960.7371    6361.7918     12894.16    1135.5005    8187.0284    309.00233    15171 
348000000    -3118.224    6295.6751    12897.995    1208.0909    8205.8082    309.09422    15163 
349000000   -3067.2782    6453.3298     12826.57    1181.0612    8339.5468    307.38256    15173 
350000000    -2944.996    6518.4148    13009.626    1252.3652    8211.0455    311.76942    15150 
351000000   -2979.4722    6473.4093    12999.331    1232.5332    8220.3483    311.52269    15180 
352000000   -2991.0252    6256.8399     12942.04    1079.2219    8168.6431    310.14974    15191 
353000000   -2989.5674    6373.9246    13032.667    1163.5227    8199.9694    312.32157    15170 
354000000    -2993.487    6371.0952    12874.783    1250.0781    8114.5041    308.53796    15138 
355000000   -2953.6597    6426.0123    12876.738    1188.7355    8190.9364     308.5848    15163 
356000000   -3039.1632    6576.3846    12811.314    1338.6618    8276.8859    307.01696    15116 
357000000    -3031.023    6533.2638    12925.955    1275.6825    8288.6043    309.76428    15162 
358000000     -3000.67    6539.5657    12791.787     1147.863    8392.3727    306.54899    15157 
359000000   -2834.2372    6722.9937    12895.437    1297.3903    8259.8407    309.03291    15143 
360000000   -2923.3125    6539.2781    13031.393    1308.4795    8154.1111    312.29103    15138 
361000000   -2953.0104     6365.544    13046.794    1064.6635    8253.8909    312.66012    15162 
362000000   -2906.8826    6568.8384    12903.119    1190.2214    8285.4996    309.21702    15144 
363000000   -2968.7335    6410.1118    12756.152     1220.077    8158.7683    305.69502    15175 
364000000   -2832.2355      6492.52    12922.013    1176.6744    8148.0812    309.66981    15172 
365000000   -2898.4356    6321.4434    12895.709    1085.6232    8134.2557    309.03944    15175 
366000000   -3061.3231    6327.4741     12899.52    1182.3595    8206.4377    309.13077    15158 
367000000   -2903.0788    6519.3569    12899.942    1126.6723    8295.7634    309.14089    15155 
368000000   -2934.0923    6433.1058    12643.055    1136.6203    8230.5778    302.98472    15164 
369000000   -2956.7896     6355.912    12773.097    1096.7868    8215.9149     306.1011    15178 
370000000   -2933.1702    6569.2764    12894.728    1196.0281    8306.4186    309.01593    15136 
371000000   -2930.9828    6514.2825    13059.529    1189.2661    8255.9991     312.9653    15160 
372000000   -2827.5762    6485.7847    12856.916     1196.965    8116.3959    308.10979    15165 
373000000   -2874.9425    6580.8291    12861.967    1204.8922    8250.8794    308.23082    15144 
374000000   -2858.7085    6539.6663    12941.255    1246.5877    8151.7871    310.13093    15138 
375000000   -2971.4958    6443.1322    12934.941    1171.8836    8242.7445    309.97962    15161 
376000000   -2874.4205    6551.8342    12921.982    1286.1862    8140.0685    309.66907    15139 
377000000   -2948.0245    6378.3304    12915.194    1136.1739    8190.1811    309.50639    15185 
378000000   -2817.6273    6635.1292    13082.668    1280.0457    8172.7108    313.51983    15137 
379000000    -2908.352    6507.5537    12916.943    1259.7535    8156.1522    309.54831    15171 
380000000   -3006.0123    6485.2225    13120.208    1290.4382    8200.7966    314.41946    15162 
381000000   -2848.8983    6605.0647    12979.361     1213.425     8240.538    311.04411    15158 
382000000   -2779.4181    6699.2121     13118.39    1334.4039    8144.2263    314.37588    15134 
383000000   -2989.4096    6379.2235    12721.929    1136.7738    8231.8592     304.8749    15149 
384000000   -2878.9253      6587.33    12945.834    1224.2358    8242.0195    310.24067    15148 
385000000   -2938.6873    6468.9934    12955.324    1152.8338     8254.847    310.46809    15151 
386000000   -3009.8893    6444.9909    12890.022     1247.608    8207.2722    308.90315    15133 
387000000   -2995.8789    6537.5207    12935.344    1214.2319    8319.1678    309.98928    15171 
388000000   -2999.8329    6411.1946    12878.183    1187.3373    8223.6901    308.61944    15152 
389000000   -2946.4722    6436.1926    12943.285    1230.8497    8151.8151    310.17958    15147 
390000000   -2991.0908    6405.5659    12968.942    1198.1707    8198.4861    310.79444    15153 
391000000   -3020.0983    6363.1651     12958.31    1112.3008    8270.9626    310.53964    15159 
392000000   -2982.8489    6276.2399    12869.104    1178.8435    8080.2454    308.40187    15132 
393000000   -2961.1509    6523.0447    12827.745    1178.9311    8305.2644    307.41072    15173 
394000000    -2939.243    6548.5007     12955.85    1248.9399    8238.8038    310.48069    15155 
395000000    -2938.617    6440.9639    12853.333    1230.4355    8149.1454    308.02392    15157 
396000000   -2947.6067    6474.0906    12921.862    1207.3972    8214.3001    309.66619    15163 
397000000   -2879.6679    6452.8042    12821.224    1147.2817    8185.1904    307.25445    15183 
398000000   -3015.3966    6482.6808    12883.251    1251.7101    8246.3672     308.7409    15138 
399000000   -3018.8348    6528.5341    12992.933    1301.3194    8246.0495    311.36937    15142 
400000000   -2989.9535    6353.9295    12975.153    1179.2446    8164.6384    310.94328    15178 
401000000   -3031.5961    6330.4293     12765.64    1084.1404     8277.885    305.92241    15191 
402000000   -3033.5798    6408.4001    12916.758    1250.9881    8190.9918    309.54386    15162 
403000000   -3054.7674    6253.1058    12976.951    1171.8959    8135.9773    310.98637    15196 
404000000   -3208.2388     6214.595    12837.759    1123.7777    8299.0561     307.6507    15180 
405000000   -2990.8059    6492.6002     12955.93    1271.0053    8212.4008     310.4826    15171 
406000000   -3067.2784    6203.1905     13016.58    1141.7662    8128.7027    311.93607    15181 
407000000    -2965.889     6548.403    13089.091    1261.2161     8253.076    313.67375    15146 
408000000   -2950.7991    6327.2533    12867.579    1122.0319    8156.0204    308.36533    15161 
409000000   -2959.4978    6573.6221    12932.472    1326.8967    8206.2232    309.92044    15136 
410000000   -3073.6588    6450.7095    12915.498    1192.9683       8331.4    309.51369    15174 
411000000   -2931.9664    6545.3154    12859.109    1182.9048     8294.377    308.16234    15152 
412000000   -2903.5689    6483.7691    12871.043    1224.2034    8163.1346    308.44833    15172 
413000000   -3017.7819      6399.83    12948.657    1183.3597    8234.2522    310.30831    15165 
414000000   -2964.9743    6572.1338    12845.939    1323.2283    8213.8799    307.84673    15137 
415000000   -2905.6576    6452.6316    12985.602    1204.1871    8154.1021    311.19368    15157 
416000000   -3007.7809    6487.9893    12875.762    1178.6012     8317.169    308.56142    15184 
417000000   -3023.3318    6492.4127    12897.392    1285.9899    8229.7547    309.07978    15160 
418000000   -2942.4255     6433.732    12791.117    1180.3633    8195.7942    306.53295    15155 
419000000   -3073.7506    6259.7674    12867.964    1236.4984    8097.0196    308.37454    15177 
420000000   -2992.1773    6500.2404    12936.332    1214.6206    8277.7971    310.01294    15152 
421000000   -2994.7087    6444.3777    12912.634    1248.4285    8190.6578    309.44505    15162 
422000000   -3083.2716    6269.8824    12852.169    1137.3081    8215.8459    307.99602    15169 
423000000   -2932.8073    6537.0618    13036.337    1327.2829    8142.5862    312.40952    15128 
424000000    -2837.995    6495.0414    13135.504     1164.766    8168.2704    314.78601    15185 
425000000   -2852.3054      6667.39    13054.237    1333.9277    8185.7677     312.8385    15128 
426000000   -2912.1282    6611.6312    12949.905    1245.5048    8278.2546    310.33823    15140 
427000000   -2949.3933    6541.7201    12859.166    1199.4896    8291.6238    308.16372    15166 
428000000   -2877.9625    6380.9871    12703.218    1129.2772    8129.6725    304.42649    15169 
429000000   -2825.2402    6545.8713    12903.586    1163.0679    8208.0437    309.22821    15141 
430000000   -2822.0146    6532.1704    12950.014    1135.0373    8219.1477    310.34083    15151 
431000000   -2925.8049    6550.9968    12974.236    1258.5285    8218.2732    310.92131    15140 
432000000   -3108.1074    6418.1036    12962.092    1229.5594    8296.6516    310.63027    15165 
433000000   -3114.6238     6355.834    12965.027    1141.4593    8328.9986    310.70061    15162 
434000000   -3026.0802    6470.8296    12888.752    1190.1004    8306.8095    308.87271    15157 
435000000   -2940.2354     6484.041    12807.376    1222.0928    8202.1836    306.92258    15148 
436000000   -2946.5199    6451.3264    12993.318    1172.2573     8225.589    311.37859    15152 
437000000   -3009.0292    6417.4163     13013.77    1220.6887    8205.7568    311.86872    15148 
438000000   -3045.6083    6324.2323    13004.115    1126.3448    8243.4958    311.63734    15180 
439000000   -2971.1694    6562.8437    12882.406    1342.6496    8191.3635    308.72063    15143 
440000000   -3097.3949    6377.2826    12963.124    1191.1586     8283.519    310.65501    15145 
441000000   -3025.2691    6423.6146    12865.294    1173.2471    8275.6366    308.31056    15177 
442000000   -2865.1067    6567.0083    12983.918     1205.304     8226.811    311.15334    15192 
443000000   -2950.6222    6475.3362    12777.734    1255.4291    8170.5293    306.21222    15149 
444000000   -2954.3133     6567.779    13038.707    1333.0741    8189.0183    312.46632    15157 
445000000   -3091.1177    6383.1833    12951.979     1184.855    8289.4459    310.38793    15186 
446000000   -2947.1001     6415.257     12936.69    1218.5458    8143.8113    310.02153    15162 
447000000   -3057.9386    6546.5243    12941.772    1248.8225    8355.6404    310.14332    15159 
448000000   -3011.1962    6370.2572    12976.478     1140.827    8240.6264    310.97504    15147 
449000000   -2959.0127    6389.6072    12918.684    1162.8441    8185.7758    309.59003    15159 
450000000   -2970.7771     6714.305    13028.297    1349.1825    8335.8997    312.21685    15135 
451000000   -2963.6555    6348.4422    13126.535    1052.3257     8259.772    314.57108    15163 
452000000   -2964.3345    6465.6449    12792.979    1178.3104     8251.669    306.57757    15159 
453000000   -2890.6756    6764.1903    12963.068    1357.1727    8297.6933    310.65366    15137 
454000000   -2894.6377    6596.5294    12907.138    1233.8674    8257.2997    309.31333    15151 
455000000   -2930.0001    6446.6486    12888.221    1161.0809    8215.5677       308.86    15153 
456000000   -2949.2233    6440.2523    12871.569    1132.2232    8257.2523    308.46093    15196 
457000000   -2968.7958    6368.0991    12796.932     1093.594    8243.3009    306.67229    15158 
458000000    -3051.101    6191.8746    12887.806    1123.9236     8119.052    308.85006    15176 
459000000   -2981.1827    6497.5473    12811.157    1277.5807    8201.1492    307.01319    15143 
460000000   -2991.6895     6472.484     12891.78    1176.9921    8287.1814    308.94528    15156 
461000000   -2884.7838    6550.3132    13029.039    1242.0068    8193.0902    312.23464    15155 
462000000   -2959.8543    6477.2312    12901.828    1262.8886    8174.1969    309.18608    15154 
463000000   -2888.5945     6459.304    12923.055    1207.1767    8140.7218    309.69478    15154 
464000000   -2977.8023    6396.9151    12942.851    1183.8264     8190.891    310.16918    15134 
465000000   -2971.9558    6447.8737    12931.345    1161.0496    8258.7799    309.89345    15181 
466000000   -2893.0031    6536.5846    12922.676    1216.8459    8212.7418    309.68569    15147 
467000000    -2912.637    6330.3798    12829.994     1128.477    8114.5397     307.4646    15181 
468000000   -2849.7297    6653.2712    12987.023    1212.1717    8290.8292    311.22775    15174 
469000000   -2909.0558    6587.3953    12751.491     1219.869    8276.5821    305.58333    15155 
470000000   -2856.4519     6658.001    13068.959    1225.1684    8289.2845    313.19129    15136 
471000000   -2946.7423    6336.6491    12708.553    1194.2417    8089.1497    304.55434    15148 
472000000   -2945.2082    6459.1648    12862.635    1256.9974    8147.3756    308.24683    15141 
473000000   -2905.6346     6417.955    12891.772    1097.9217    8225.6679     308.9451    15193 
474000000   -2916.0104    6430.3672    12857.273     1165.112    8181.2656    308.11835    15159 
475000000   -3003.5505    6519.7519     12950.23    1271.8105    8251.4919    310.34601    15169 
476000000   -3039.2313    6290.0614    12939.351    1184.6539    8144.6388     310.0853    15164 
477000000   -3027.8399    6347.3447    12851.155    1127.2698    8247.9148    307.97172    15184 
478000000   -2879.3708    6468.7172    12822.368    1231.8206    8116.2674    307.28185    15159 
479000000   -2954.0938    6316.2685    13045.459    1077.3128    8193.0496    312.62813    15170 
480000000   -2794.0094    6670.8986    12942.521     1296.226     8168.682    310.16127    15148 
481000000   -2966.1922    6553.8817    13006.296    1202.8332    8317.2407    311.68961    15151 
482000000   -2952.7108    6521.8052     12867.53    1229.8695    8244.6465    308.36413    15137 
483000000   -2978.7305    6445.3968    12650.483    1252.4363     8171.691    303.16271    15156 
484000000   -3004.6422     6399.634    12930.308    1232.3125    8171.9636    309.86858    15157 
485000000   -3034.4328    6457.2556    13039.808    1280.6509    8211.0375     312.4927    15154 
486000000   -2888.1688    6444.3842    12924.216    1221.5673    8110.9857    309.72259    15159 
487000000   -3028.7496    6286.5303    12904.804    1116.0136    8199.2663     309.2574    15174 
488000000   -2927.5397    6447.4658    13038.802    1161.6601    8213.3453    312.46859    15185 
489000000   -2997.5197    6360.4693     12928.05     1192.194    8165.7951    309.81448    15155 
490000000   -3048.0825    6318.1697    13113.577    1118.4382    8247.8141    314.26055    15173 
491000000   -2961.2432    6521.4323    12885.422    1271.8137    8210.8619    308.79293    15168 
492000000   -2920.5623    6520.4688    12873.812     1186.635    8254.3962    308.51469    15147 
493000000   -3032.2831    6514.9365    12953.155     1283.694    8263.5257    310.41611    15174 
494000000   -2952.9498    6443.7181    12850.203    1131.8545    8264.8135    307.94892    15189 
495000000    -2911.465     6465.491    12938.679    1243.8374    8133.1185     310.0692    15174 
496000000   -2947.5833    6348.5204    12761.504    1170.4486    8125.6551    305.82328    15170 
497000000   -2978.0955    6298.8426    12894.612    1086.0325    8190.9055    309.01314    15183 
498000000   -2893.8402    6337.6025    13072.444    1082.9802    8148.4624     313.2748    15179 
499000000   -2902.5915    6524.2684    12833.809    1220.2311    8206.6288    307.55604    15184 
500000000   -2943.0487    6370.8967    12848.769    1091.8989    8222.0465    307.91454    15175 
Loop time of 202504 on 28 procs for 500000000 steps with 14000 atoms

Performance: 5333.229 ns/day, 0.005 hours/ns, 2469.088 timesteps/s
99.5% CPU use with 28 MPI tasks x no OpenMP threads

MPI task timing breakdown:
Section |  min time  |  avg time  |  max time  |%varavg| %total
---------------------------------------------------------------
Pair    | 17026      | 22507      | 27762      |1529.4 | 11.11
Bond    | 5808.4     | 7169.4     | 12282      |2624.9 |  3.54
Neigh   | 57956      | 58699      | 59708      | 189.5 | 28.99
Comm    | 52903      | 64398      | 73454      |1929.9 | 31.80
Output  | 0.66139    | 0.68016    | 0.68278    |   0.4 |  0.00
Modify  | 30373      | 31028      | 31517      | 205.6 | 15.32
Other   |            | 1.87e+04   |            |       |  9.24

Nlocal:    500 ave 541 max 439 min
Histogram: 1 1 1 4 2 2 8 2 2 5
Nghost:    713.214 ave 1059 max 395 min
Histogram: 1 2 3 5 5 4 2 4 1 1
Neighs:    5509.43 ave 6897 max 3850 min
Histogram: 1 1 4 3 4 2 2 6 2 3

Total # of neighbors = 154264
Ave neighs/atom = 11.0189
Ave special neighs/atom = 7.76257
Neighbor list builds = 100016783
Dangerous builds = 0
System init for write_restart ...
Total wall time: 56:15:09
