LAMMPS (5 Jun 2019)
Reading data file ...
  orthogonal box = (-420 -420 -420) to (420 420 420)
  2 by 2 by 7 MPI processor grid
  reading atoms ...
  14000 atoms
  scanning bonds ...
  51 = max bonds/atom
  scanning angles ...
  1 = max angles/atom
  reading bonds ...
  13800 bonds
  reading angles ...
  13600 angles
Finding 1-2 1-3 1-4 neighbors ...
  special bond factors lj:   0          0          0         
  special bond factors coul: 0          0          0         
  2 = max # of 1-2 neighbors
  2 = max # of 1-3 neighbors
  4 = max # of 1-4 neighbors
  56 = max # of special neighbors
  special bonds CPU = 0.0017863 secs
  read_data CPU = 0.0541578 secs
Finding 1-2 1-3 1-4 neighbors ...
  special bond factors lj:   1          1          1         
  special bond factors coul: 0          0          0         
  2 = max # of 1-2 neighbors
  2 = max # of 1-3 neighbors
  4 = max # of 1-4 neighbors
  56 = max # of special neighbors
  special bonds CPU = 0.00069196 secs
WARNING: Using 'neigh_modify every 1 delay 0 check yes' setting during minimization (../min.cpp:168)
Neighbor list info ...
  update every 1 steps, delay 0 steps, check yes
  max neighbors/atom: 2000, page size: 100000
  master list distance cutoff = 26.9
  ghost atom cutoff = 26.9
  binsize = 13.45, bins = 63 63 63
  1 neighbor lists, perpetual/occasional/extra = 1 0 0
  (1) pair lj/cut, perpetual
      attributes: half, newton on
      pair build: half/bin/newton
      stencil: half/bin/3d/newton
      bin: standard
Setting up cg style minimization ...
  Unit style    : real
  Current step  : 0
Per MPI rank memory allocation (min/avg/max) = 1.165 | 13.79 | 17.67 Mbytes
Step Temp E_pair E_mol TotEng Press 
       0            0 2.4262116e+12      2649600 2.4262142e+12 1.1227655e+09 
    2593            0   -3213.8545    8077.7575     4863.903  0.022358999 
Loop time of 0.536339 on 28 procs for 2593 steps with 14000 atoms

99.1% CPU use with 28 MPI tasks x no OpenMP threads

Minimization stats:
  Stopping criterion = energy tolerance
  Energy initial, next-to-last, final = 
     2.42621422944e+12      4864.36586087      4863.90297658
  Force two-norm initial, final = 2.10957e+10 3.95325
  Force max component initial, final = 1.05441e+09 0.95274
  Final line search alpha, max atom move = 0.049396 0.0470616
  Iterations, force evaluations = 2593 2659

MPI task timing breakdown:
Section |  min time  |  avg time  |  max time  |%varavg| %total
---------------------------------------------------------------
Pair    | 0.0372     | 0.12575    | 0.2322     |  16.4 | 23.45
Bond    | 0.011727   | 0.032525   | 0.059055   |   7.4 |  6.06
Neigh   | 0.068875   | 0.0698     | 0.070686   |   0.2 | 13.01
Comm    | 0.069996   | 0.18789    | 0.31238    |  15.8 | 35.03
Output  | 0          | 0          | 0          |   0.0 |  0.00
Modify  | 0          | 0          | 0          |   0.0 |  0.00
Other   |            | 0.1204     |            |       | 22.44

Nlocal:    500 ave 894 max 183 min
Histogram: 3 3 3 4 6 0 2 2 3 2
Nghost:    312.964 ave 490 max 136 min
Histogram: 3 3 2 1 4 3 4 4 1 3
Neighs:    3601.79 ave 6560 max 1006 min
Histogram: 4 1 5 2 7 0 1 1 5 2

Total # of neighbors = 100850
Ave neighs/atom = 7.20357
Ave special neighs/atom = 5.82857
Neighbor list builds = 165
Dangerous builds = 0
Setting up Verlet run ...
  Unit style    : real
  Current step  : 2593
  Time step     : 0.1
Per MPI rank memory allocation (min/avg/max) = 1.127 | 12.9 | 16.54 Mbytes
Step Temp E_pair E_mol TotEng Press 
    2593            0   -3213.8545    8077.7575     4863.903  0.022358999 
   12593    227.54127   -2695.7335    11625.266    18424.457   -1.0625679 
Loop time of 1.27611 on 28 procs for 10000 steps with 14000 atoms

Performance: 67.706 ns/day, 0.354 hours/ns, 7836.334 timesteps/s
99.6% CPU use with 28 MPI tasks x no OpenMP threads

MPI task timing breakdown:
Section |  min time  |  avg time  |  max time  |%varavg| %total
---------------------------------------------------------------
Pair    | 0.050737   | 0.18919    | 0.39049    |  23.0 | 14.83
Bond    | 0.036861   | 0.10336    | 0.18529    |  13.2 |  8.10
Neigh   | 0.0017915  | 0.001812   | 0.0018428  |   0.0 |  0.14
Comm    | 0.21787    | 0.46776    | 0.69786    |  20.1 | 36.66
Output  | 3.3851e-05 | 5.7591e-05 | 8.7674e-05 |   0.0 |  0.00
Modify  | 0.089581   | 0.24146    | 0.42744    |  19.7 | 18.92
Other   |            | 0.2725     |            |       | 21.35

Nlocal:    500 ave 898 max 184 min
Histogram: 3 3 4 3 6 0 2 2 3 2
Nghost:    312.393 ave 491 max 138 min
Histogram: 4 2 2 4 2 3 3 4 1 3
Neighs:    3610 ave 6626 max 1016 min
Histogram: 4 1 6 2 6 0 1 1 5 2

Total # of neighbors = 101080
Ave neighs/atom = 7.22
Ave special neighs/atom = 5.82857
Neighbor list builds = 4
Dangerous builds = 0
4000 atoms in group rxnSites
Neighbor list info ...
  update every 1 steps, delay 1 steps, check yes
  max neighbors/atom: 2000, page size: 100000
  master list distance cutoff = 26.9
  ghost atom cutoff = 26.9
  binsize = 13.45, bins = 63 63 63
  2 neighbor lists, perpetual/occasional/extra = 1 1 0
  (1) pair lj/cut, perpetual
      attributes: half, newton on
      pair build: half/bin/newton
      stencil: half/bin/3d/newton
      bin: standard
  (2) fix bond/create/random, occasional, copy from (1)
      attributes: half, newton on
      pair build: copy
      stencil: none
      bin: none
Setting up Verlet run ...
  Unit style    : real
  Current step  : 0
  Time step     : 25
Per MPI rank memory allocation (min/avg/max) = 17.76 | 18.27 | 18.83 Mbytes
Step E_pair PotEng KinEng E_bond E_angle Temp Bonds 
       0   -2695.7335    8929.5325    9494.9241    3113.5654    8511.7007    227.54127    13800 
 1000000   -1408.6958    9218.6643    13074.775    2303.4545    8323.9056    313.33067    14667 
 2000000   -1573.6161    8698.3809    12907.337    2055.5822    8216.4148    309.31809    14752 
 3000000   -1661.1466    8663.5047    12926.348    1910.4341    8414.2172    309.77368    14835 
 4000000   -1737.5868    8245.5512    12878.026    1670.5392    8312.5988    308.61568    14905 
 5000000    -1783.555    8277.0624    12700.399     1734.916    8325.7013    304.35893    14901 
 6000000   -1860.4729    8201.4768    13006.569    1642.5101    8419.4396    311.69616    14902 
 7000000   -1863.6252     8068.556    12905.245    1619.7736    8312.4076    309.26797    14938 
 8000000   -1996.5871     7824.184    12990.457      1465.62    8355.1512    311.31003    14994 
 9000000   -1985.1489    7994.0948    13030.305    1584.8814    8394.3623    312.26496    14986 
10000000   -1940.5501    8035.4177    12896.622    1644.1507    8331.8171    309.06132    14981 
11000000   -2033.3488    7942.7367    13006.297    1533.7365     8442.349    311.68963    15022 
12000000   -2138.3132    7568.9933    13011.295    1440.6974     8266.609     311.8094    15030 
13000000   -2095.5207    7720.0311    12923.658    1533.0089    8282.5429    309.70923    15006 
14000000   -2112.4226     7847.549    12966.924    1538.2972    8421.6743    310.74608    15002 
15000000   -2161.5102    7479.8432    12868.775    1446.5635      8194.79    308.39398    15050 
16000000   -2113.2992    7672.8205    12900.099    1474.0453    8312.0744    309.14465    15058 
17000000   -2222.9806    7567.9032     12877.77    1429.8372    8361.0466    308.60954    15046 
18000000   -2291.7148    7488.6889    12980.343    1417.9791    8362.4245    311.06764    15077 
19000000   -2248.3861    7572.2507    12942.479    1428.0198    8392.6171    310.16027    15053 
20000000   -2272.9018      7687.23    13045.141     1488.685    8471.4467    312.62049    15052 
21000000   -2197.3236    7644.1922    12778.536    1575.3966    8266.1193    306.23145    15034 
22000000   -2242.0144    7558.1277    13035.758    1437.9653    8362.1767    312.39566    15054 
23000000   -2237.1823    7514.0457    12902.888    1451.0204    8300.2077    309.21148    15040 
24000000   -2282.6621    7401.5899    12901.871    1346.0479    8338.2041     309.1871    15075 
25000000   -2346.2535    7315.6547    12964.316    1348.3565    8313.5517    310.68356    15100 
26000000   -2431.0317    7152.7768    12931.102    1356.8727    8226.9357    309.88761    15081 
27000000   -2446.5769    7432.7212    12924.918    1461.3089    8417.9893    309.73942    15073 
28000000   -2357.8669    7289.3809     12868.57    1373.6525    8273.5953    308.38907    15067 
29000000   -2422.3692    7197.1423    12786.273     1330.257    8289.2545    306.41687    15119 
30000000   -2420.0791    7323.2414    13062.759    1369.3055     8374.015    313.04271    15100 
31000000   -2384.7016    7386.4949    12966.527    1347.2099    8423.9866    310.73657    15093 
32000000    -2421.052    7254.3961    12840.373    1489.7153    8185.7328    307.71334    15062 
33000000   -2383.1019     7205.579    12775.813    1254.6537    8334.0273    306.16619    15086 
34000000   -2367.5272    7242.0378    12937.321    1330.7717    8278.7933    310.03665    15102 
35000000   -2383.0634    7346.1744    12970.791    1388.3149     8340.923    310.83873    15093 
36000000   -2406.6143    7202.4227    13083.737    1330.0615    8278.9755    313.54545    15068 
37000000   -2406.2675    7264.5162    12887.161     1384.446    8286.3376    308.83458    15091 
38000000   -2495.5706    6957.2413    12867.044    1240.8279    8211.9841    308.35249    15115 
39000000   -2534.8523    6957.9519    12801.524    1281.3554    8211.4488    306.78233    15120 
40000000   -2506.6674    7138.9589    13104.844    1478.7404    8166.8858    314.05125    15084 
41000000   -2494.2222    7179.7171    12856.582    1340.0175    8333.9218    308.10178    15118 
42000000   -2445.9674    7081.2089    12945.166    1222.3818    8304.7945    310.22466    15090 
43000000   -2551.9094    7192.3671    12860.129     1392.056    8352.2204    308.18678    15091 
44000000   -2382.9855    7094.7942    12936.826    1211.5404    8266.2394    310.02479    15118 
45000000   -2552.9613    7120.7896    12916.177    1308.2815    8365.4694    309.52994    15116 
46000000   -2384.5046    7196.3134    12839.707    1280.1824    8300.6356    307.69738    15112 
47000000   -2500.8875    7280.0927    13111.467    1407.9153     8373.065    314.20997    15071 
48000000   -2502.9781    7282.1813    12950.951    1407.5379    8377.6215    310.36328    15077 
49000000   -2452.1181    7179.0743    12985.975    1259.4627    8371.7298    311.20262    15104 
50000000   -2480.4314    7180.8401    13000.012     1424.487    8236.7845    311.53901    15085 
51000000   -2500.2534    7118.7579    12955.478     1354.461    8264.5503    310.47177    15088 
52000000   -2593.3473    6918.6428    12887.178    1253.6544    8258.3357      308.835    15118 
53000000   -2541.4916    7053.1001    12978.027    1314.7079    8279.8838    311.01216    15100 
54000000    -2679.547    6845.6335    12846.821     1311.967    8213.2134    307.86785    15110 
55000000   -2562.0914    6896.0545    13014.148    1166.9251    8291.2208    311.87776    15156 
56000000   -2643.7733    6736.8758    13040.788     1124.659    8255.9902    312.51619    15137 
57000000   -2604.8321    7077.3386    13046.298    1310.1407    8372.0299    312.64823    15123 
58000000   -2560.1304    6936.4548    12835.152    1225.8495    8270.7357    307.58822    15155 
59000000   -2604.5617    6961.4391     12815.71     1295.071    8270.9298    307.12231    15101 
60000000   -2579.8523     6883.859    13086.056    1219.5165    8244.1948    313.60101    15126 
61000000   -2540.7316    6948.7417    13020.473    1248.3848    8241.0885    312.02935    15150 
62000000   -2637.3135    6948.9274    12985.262    1338.0783    8248.1626    311.18553    15133 
63000000   -2595.1674    6981.6505    13064.454    1315.7539    8261.0639    313.08333    15100 
64000000   -2573.0429    6897.6675    12805.572    1318.5324     8152.178    306.87936    15086 
65000000   -2713.0757    6878.3157    12842.062    1196.8999    8394.4916    307.75382    15130 
66000000   -2709.3601    6952.8488    12904.236    1352.5831    8309.6257     309.2438    15107 
67000000   -2582.8685    7039.1607    12966.543    1324.7446    8297.2846    310.73694    15144 
68000000   -2602.1809    7064.2584    13004.277    1307.6018    8358.8375    311.64123    15147 
69000000   -2771.8287       6623.3    12865.214    1175.4069    8219.7218    308.30863    15143 
70000000   -2766.5091    6856.3557    12987.846     1313.098    8309.7669    311.24746    15106 
71000000    -2737.156    6768.1352    12851.329    1322.1088    8183.1824    307.97591    15107 
72000000   -2721.9048    6843.7475    13021.522     1263.242    8302.4103    312.05449    15132 
73000000   -2721.5615    6797.0788    12894.656     1287.022    8231.6184     309.0142    15165 
74000000   -2736.4434    6695.7231    12940.261    1139.9777    8292.1888    310.10711    15159 
75000000    -2851.312    6692.1049    12871.658     1232.886    8310.5309    308.46307    15155 
76000000   -2797.1472    6505.0582    12759.353    1146.6371    8155.5683    305.77173    15163 
77000000   -2756.0168    6685.7978    12949.566    1178.6662    8263.1485    310.33009    15188 
78000000   -2691.9386    6650.6148    12879.413    1116.7363    8225.8171    308.64892    15191 
79000000   -2768.4526    6617.8157    13009.001    1157.8853     8228.383    311.75444    15167 
80000000   -2710.3687    6641.2459    12992.594    1136.0951    8215.5195    311.36124    15160 
81000000   -2652.1922    6678.5444     12950.71    1130.0207    8200.7159    310.35752    15142 
82000000   -2706.8424    6766.9451    12831.183    1201.1561    8272.6315    307.49312    15146 
83000000   -2777.2498    6488.1532    13033.596    1080.7366    8184.6664    312.34384    15180 
84000000    -2789.553    6774.3778    12734.452    1305.8966    8258.0342    305.17498    15128 
85000000   -2690.4834    6801.3295    12850.279    1277.3684    8214.4445    307.95074    15142 
86000000   -2737.1217    6722.1547    13061.854    1274.6744    8184.6019    313.02102    15132 
87000000   -2657.4516    6869.0746    12998.099    1254.8163      8271.71    311.49316    15124 
88000000   -2827.9375    6756.9217    13030.056    1362.8499    8222.0093    312.25899    15127 
89000000   -2753.0297    6616.9071    12986.849    1216.1186    8153.8183    311.22357    15157 
90000000    -2799.559    6517.2837    13131.897    1128.3072    8188.5355    314.69957    15162 
91000000   -2702.3325    6659.4074    12871.811    1228.8693    8132.8706    308.46673    15118 
92000000    -2738.226    6931.9832     12983.02    1351.2912     8318.918    311.13181    15090 
93000000   -2735.8394    6647.8326    13142.332    1249.2565    8134.4155    314.94964    15123 
94000000   -2743.3369    6833.0943    12874.656    1293.6073    8282.8239    308.53491    15130 
95000000   -2750.3191    6730.7558    12962.289    1288.5928    8192.4821    310.63501    15122 
96000000   -2743.3924    6819.9359    12975.486     1337.152    8226.1763    310.95127    15119 
97000000   -2747.1016    6653.9473    12804.571    1194.9191    8206.1297    306.85536    15158 
98000000   -2816.5587    6579.3727    12944.772    1212.7321    8183.1994     310.2152    15167 
99000000   -2819.6395    6794.7186    12809.844    1296.6766    8317.6815    306.98172    15136 
100000000   -2901.4591     6517.955    12868.261    1207.9296    8211.4845    308.38165    15150 
101000000   -2872.9121    6560.7407     12940.83    1251.9096    8181.7432    310.12075    15130 
102000000   -2899.3205    6567.9886    12895.089    1208.7441     8258.565    309.02458    15128 
103000000   -2822.9629     6807.335    12832.802    1328.5469     8301.751    307.53191    15111 
104000000   -2840.6609    6715.7096    12975.121    1324.1987    8232.1718     310.9425    15109 
105000000   -2858.5295    6650.1839    12796.075    1271.0703    8237.6431    306.65176    15140 
106000000   -2936.1673    6556.3746    12824.522    1240.8203    8251.7216    307.33347    15164 
107000000   -2808.9801    6652.9816    12953.319    1231.7018    8230.2599    310.42004    15161 
108000000   -2890.6737    6591.0255    12990.083     1289.967    8191.7322    311.30106    15129 
109000000   -2856.0174    6681.5197    13046.103     1223.018    8314.5191    312.64357    15141 
110000000    -2785.935    6656.6872    12702.556    1163.0814    8279.5409    304.41063    15176 
111000000   -2843.8057    6643.3591    13052.266     1185.423    8301.7419    312.79124    15170 
112000000   -2888.2479    6442.8174     12972.73    1136.7571    8194.3081    310.88522    15139 
113000000   -2924.9605    6644.4985    12978.963    1270.3396    8299.1194    311.03459    15142 
114000000   -2798.4913    6589.4336    12977.992    1186.6765    8201.2483    311.01131    15146 
115000000    -2804.513    6646.6755     13036.83    1241.2881    8209.9004    312.42134    15147 
116000000    -2859.407    6665.1937    12884.125    1203.1867     8321.414    308.76183    15153 
117000000   -2840.1152     6632.324    13086.083    1246.3315    8226.1076    313.60167    15141 
118000000   -2875.4957    6673.9913    13083.044    1293.3324    8256.1546    313.52884    15150 
119000000   -2863.3028    6484.4826    12899.854    1183.0212    8164.7642    309.13877    15183 
120000000   -2850.3122    6585.1288    13005.379    1210.3358    8225.1053    311.66763    15144 
121000000   -2871.4083     6632.148    12907.665    1156.5444    8347.0119    309.32595    15173 
122000000   -2894.5973     6642.181    12840.255    1296.0904    8240.6879    307.71052    15154 
123000000   -2838.5453    6577.1105    12789.586    1222.8494    8192.8064    306.49626    15159 
124000000   -2793.7264    6638.5348    13009.529    1296.1875    8136.0736    311.76709    15109 
125000000   -2737.7764    6700.3052    12783.595    1278.1437    8159.9379    306.35269    15186 
126000000   -2789.0099    6688.8938    12975.401    1271.7509    8206.1528    310.94923    15149 
127000000   -2868.6706    6421.3457    13028.609    1101.4815    8188.5349    312.22432    15148 
128000000   -2835.7831     6723.741    12788.208    1299.1297    8260.3944    306.46324    15128 
129000000   -2862.6638    6597.2095    12848.612    1276.5229    8183.3505    307.91078    15142 
130000000   -2909.1455    6524.5717    12920.379    1312.0792     8121.638    309.63063    15117 
131000000   -2997.3047    6413.2157    12835.362    1191.3169    8219.2035    307.59325    15156 
132000000   -2974.4883    6537.4636    12890.154    1235.2019    8276.7501    308.90632    15153 
133000000   -2872.2083    6457.6829    12855.819    1162.5142     8167.377    308.08351    15130 
134000000   -2803.4338    6706.8025     12918.12    1272.7911    8237.4452    309.57651    15125 
135000000    -2841.247    6562.7922    12907.523    1249.4976    8154.5417    309.32255    15155 
136000000   -3002.9358    6467.2724    12879.114    1179.1071    8291.1011    308.64174    15169 
137000000   -2922.4049    6515.7522    12867.504    1254.9221     8183.235    308.36352    15143 
138000000   -2954.7056    6533.8888    12862.085    1222.2154     8266.379    308.23367    15134 
139000000   -2957.6282    6519.6347    12919.129    1175.9665    8301.2964     309.6007    15161 
140000000   -2895.3572     6505.298    12942.853    1230.5698    8170.0854    310.16921    15168 
141000000   -2815.2236    6620.9906    12938.399    1197.3625    8238.8516    310.06249    15174 
142000000   -2783.8367    6738.3793     13047.52    1217.0051     8305.211    312.67752    15158 
143000000   -2746.9614    6801.0694     12882.44    1260.2378    8287.7931    308.72146    15134 
144000000   -2736.1408     6725.048    12966.824    1274.2782    8186.9106    310.74367    15151 
145000000   -2820.0638    6693.9514    12898.079    1238.0491    8275.9661    309.09623    15156 
146000000   -2936.1251    6419.4047    13044.505    1173.5727    8181.9571    312.60525    15154 
147000000   -2835.3185    6501.3746    12935.618     1091.286    8245.4071    309.99584    15178 
148000000    -2891.393    6473.4094    12827.669    1195.3585    8169.4439    307.40889    15149 
149000000   -2854.5334    6501.6091    12964.321    1116.8166     8239.326    310.68369    15180 
150000000    -2873.771    6660.8336    13179.295    1255.0047    8279.5999    315.83545    15151 
151000000   -2971.3628    6361.0408    12969.862    1195.7446    8136.6589    310.81649    15161 
152000000   -2940.3723    6375.6201    12896.895    1187.6753    8128.3171    309.06786    15184 
153000000   -2907.9364    6467.8776    13006.257    1114.6078    8261.2062    311.68866    15176 
154000000   -2951.2067    6578.7673    12938.085    1195.0521    8334.9219    310.05496    15165 
155000000   -2849.9939    6607.2098    12974.798    1226.6882    8230.5155    310.93478    15167 
156000000    -2888.073    6696.3504    12961.561    1316.5696    8267.8538    310.61755    15119 
157000000   -2814.5012    6517.4475    12901.475    1183.5921    8148.3566    309.17761    15161 
158000000    -2712.529    6719.6747    12904.228    1207.0826    8225.1211    309.24359    15155 
159000000   -2848.3936    6726.3027    12938.347    1246.2838    8328.4125    310.06124    15144 
160000000   -2847.5594    6639.3728    12778.809    1209.3599    8277.5723    306.23798    15146 
161000000   -2868.6922    6790.5079    12889.887    1337.9652    8321.2349    308.89993    15139 
162000000   -2949.8438    6472.6218    12871.613    1125.8052    8296.6605    308.46199    15158 
163000000   -2933.2111    6517.9646    13050.063    1280.5202    8170.6554    312.73847    15144 
164000000   -3019.9662     6429.224    12853.113    1288.9592    8160.2311    308.01866    15129 
165000000   -3001.2527    6323.9072    12897.149    1237.5225    8087.6374    309.07395    15166 
166000000    -2990.352    6280.6262    13000.959    1143.5537    8127.4245    311.56171    15187 
167000000   -2996.0613    6315.9975    12874.739    1236.5367    8075.5221     308.5369    15160 
168000000   -2916.4772    6493.3724     12974.73    1219.1182    8190.7314    310.93313    15137 
169000000   -2840.7527    6568.4721    12895.075    1255.4434    8153.7814    309.02424    15122 
170000000    -2884.602    6436.6057    12894.257    1166.8694    8154.3384    309.00464    15151 
171000000   -2824.1703    6705.7814    13070.949    1263.5909    8266.3608    313.23899    15139 
172000000   -2797.8658    6534.9466    12908.834    1268.0622    8064.7501    309.35398    15132 
173000000   -2832.5407    6521.2119    12912.957     1179.228    8174.5246    309.45278    15167 
174000000   -2804.4307    6708.2532    12957.418    1327.2463    8185.4376    310.51826    15107 
175000000    -2831.527    6503.5666    12950.792    1216.2766     8118.817    310.35948    15150 
176000000   -2787.8546    6623.3422    12970.006    1169.3311    8241.8656    310.81993    15161 
177000000    -2811.417    6674.8293    12920.099    1191.8578    8294.3885    309.62394    15163 
178000000   -2919.0189    6413.9045    12869.569    1089.2539    8243.6695    308.41301    15154 
179000000   -2830.3652    6509.9842    12975.874    1209.9849    8130.3645    310.96057    15159 
180000000   -2898.1826     6409.749    13033.878    1203.6492    8104.2824     312.3506    15164 
181000000   -2943.2287    6501.0372    12794.582    1292.6357    8151.6302    306.61598    15172 
182000000   -2881.2695     6423.572     12893.34    1247.1401    8057.7014    308.98266    15149 
183000000   -2846.7338    6534.9685    12864.414    1243.1294     8138.573    308.28946    15134 
184000000   -2962.5833    6451.3853    12858.195    1202.3239    8211.6448    308.14043    15167 
185000000   -2982.3594    6529.5119    13005.794     1228.621    8283.2504    311.67757    15159 
186000000   -2967.2994    6432.3382     12919.22    1145.0453    8254.5923    309.60288    15161 
187000000   -2898.8962    6520.0499     12774.17    1294.3492    8124.5968    306.12682    15133 
188000000   -2927.1588    6579.9389    12886.326     1214.239    8292.8587    308.81458    15150 
189000000   -2911.0088    6440.0961     12877.05    1198.8666    8152.2383    308.59228    15149 
190000000   -2906.5319    6571.7106    12807.524    1302.3425       8175.9    306.92613    15147 
191000000   -2795.0019    6708.3475    12911.531    1239.7595    8263.5899     309.4186    15134 
192000000   -2844.2207    6653.5961    12955.827    1275.0327    8222.7841    310.48014    15141 
193000000   -2865.3807    6529.0361    13033.256    1144.6275    8249.7892    312.33569    15178 
194000000   -2850.5339    6708.0608    13011.757    1283.0436     8275.551    311.82048    15137 
195000000   -2867.3632     6694.031    12986.544    1284.0374    8277.3568    311.21626    15144 
196000000   -2845.6629    6661.3641    12773.417    1220.2948    8286.7322    306.10877    15134 
197000000   -2830.7364    6790.4114    12856.298    1232.0698     8389.078    308.09498    15158 
198000000   -2877.1758    6508.3648    12884.989    1192.0913    8193.4493    308.78254    15131 
199000000   -2969.9399    6442.1772    12934.279    1175.8147    8236.3024    309.96376    15168 
200000000   -2912.5017    6600.2664    12947.422     1284.533    8228.2351    310.27872    15160 
201000000   -3029.7815    6317.6823    12982.209    1164.2881    8183.1757    311.11238    15144 
202000000   -2851.1773    6565.7084    12859.291    1242.5104    8174.3752    308.16671    15140 
203000000   -2851.4574    6624.0277     12723.27    1240.5237    8234.9614    304.90703    15131 
204000000    -2894.381    6581.7557     12781.75    1291.8003    8184.3365    306.30847    15133 
205000000   -2850.6049    6459.1909    12975.127     1105.014    8204.7818    310.94266    15176 
206000000   -2850.3258    6340.3998    12988.895    1102.1855    8088.5401     311.2726    15176 
207000000   -2896.0033    6644.4469    12975.503    1269.9056    8270.5446    310.95166    15144 
208000000    -2848.965    6372.2949    12897.507    1133.4082    8087.8517    309.08253    15146 
209000000   -2993.7787    6576.4314    12707.526     1266.753    8303.4571    304.52972    15146 
210000000   -3042.8465    6352.5161    13081.866     1153.414    8241.9485    313.50061    15160 
211000000    -2921.537    6385.5636    12974.583    1168.0538    8139.0467    310.92962    15197 
212000000   -2892.7189    6627.3355    12872.267    1291.7971    8228.2573    308.47766    15127 
213000000   -2935.3376    6524.1061    12801.238    1225.9737      8233.47     306.7755    15140 
214000000   -2953.1251    6619.9317    12899.222     1213.339    8359.7178    309.12362    15168 
215000000   -2904.6636    6435.0031    12940.462    1251.7823    8087.8843    310.11193    15155 
216000000   -2935.2392      6510.33    13000.609    1206.5375    8239.0317    311.55332    15132 
217000000   -2944.7344    6508.0632      12890.5    1244.0493    8208.7483    308.91461    15141 
218000000   -3013.4535    6395.1013    13104.525     1207.904    8200.6508    314.04361    15136 
219000000   -3005.1249    6367.1424    12842.758    1222.0999    8150.1675    307.77049    15142 
220000000   -2978.9706    6451.2394    12957.854    1145.8462    8284.3638    310.52872    15163 
221000000    -2877.832    6546.9502    12791.223    1227.9366    8196.8456    306.53548    15173 
222000000   -2874.0503    6404.0477    12938.986    1170.9168    8107.1812    310.07656    15161 
223000000   -2897.8726    6509.4119    12870.824    1207.6681    8199.6164    308.44308    15166 
224000000   -2853.6389    6647.7137    13128.009    1178.7258    8322.6268    314.60639    15128 
225000000   -2884.3488    6482.5759    12653.308    1163.0599    8203.8648    303.23042    15183 
226000000   -2944.8716    6486.1579    12851.175    1138.4432    8292.5863     307.9722    15178 
227000000   -2837.9548    6589.6468    13100.484    1129.4626     8298.139    313.94676    15169 
228000000   -2792.0184    6698.9697    13060.989    1226.9465    8264.0416    313.00029    15153 
229000000   -2973.3355    6491.4501    13101.174    1285.2267    8179.5589    313.96332    15154 
230000000   -2882.9258    6561.9909    12816.304    1279.9412    8164.9755    307.13653    15142 
231000000   -2975.3991    6587.8945    12883.987    1261.4017    8301.8919    308.75853    15130 
232000000   -2900.2027    6656.1242    13051.004    1310.4357    8245.8913    312.76101    15118 
233000000   -2879.7262    6599.2563    12915.581    1210.6625    8268.3199    309.51566    15149 
234000000   -2963.8164    6385.9257    12830.062    1202.6762     8147.066    307.46623    15166 
235000000   -3048.6514    6355.4428    12966.706    1144.1556    8259.9385    310.74085    15179 
236000000   -2958.7694    6547.5978    12824.664    1212.7019    8293.6653    307.33688    15168 
237000000   -2918.1009    6545.2705    12974.888    1246.0277    8217.3438    310.93694    15153 
238000000   -2881.3947    6575.7845    12917.748    1275.5984    8181.5809    309.56759    15110 
239000000   -2871.0666    6765.9216    12915.369    1381.3344    8255.6538    309.51058    15115 
240000000   -3024.8229    6516.3494    12817.647    1256.5348    8284.6375    307.16873    15149 
241000000   -3002.9637    6551.5269    12953.958    1230.4845    8324.0061    310.43534    15154 
242000000   -2931.6415    6601.7671    12764.228    1261.7556    8271.6531    305.88855    15169 
243000000   -2988.6886    6438.8607    12977.831    1200.5537    8226.9956    311.00745    15183 
244000000   -2918.5713    6593.8992    12810.604    1146.9217    8365.5488    306.99995    15162 
245000000   -3007.4608    6495.8417    12941.328     1360.435    8142.8676    310.13268    15145 
246000000   -3009.3035    6441.5014     12854.08    1236.8983    8213.9066    308.04181    15131 
247000000    -2936.612    6598.3716     12823.66    1274.8395    8260.1442    307.31283    15151 
248000000   -2902.2454    6399.6357    12954.558    1177.8736    8124.0075    310.44973    15172 
249000000   -3031.5511    6442.9031    13046.207    1275.3267    8199.1275    312.64606    15169 
250000000   -2863.6902    6385.3503     12886.75    1067.0334    8182.0071    308.82475    15180 
251000000   -2994.2621    6464.2577    12915.524    1216.7255    8241.7943     309.5143    15165 
252000000   -2947.0359    6425.7038    12927.305    1222.2587     8150.481    309.79661    15165 
253000000   -2764.8431    6795.3063    12917.238    1265.9969    8294.1524    309.55538    15129 
254000000   -2912.0525    6314.2545    12906.715    1111.2416    8115.0654    309.30318    15162 
255000000    -2878.679    6435.4243    12877.486    1116.6304    8197.4729    308.60274    15166 
256000000   -2978.7646    6313.4285     12978.67    1135.4637    8156.7295    311.02757    15180 
257000000   -3044.2332    6316.4134    13077.004    1078.9161    8281.7304    313.38408    15176 
258000000    -2957.922    6504.9938    12763.328    1246.5214    8216.3944    305.86699    15154 
259000000   -3031.3648    6415.8315    12933.486    1124.1915    8323.0048    309.94475    15177 
260000000   -2958.0206    6477.3638    12817.027    1187.8866    8247.4978    307.15386    15179 
261000000   -2894.4892    6542.4321    12947.049    1304.2155    8132.7058    310.26978    15154 
262000000   -2911.1703    6542.6169    12956.754     1126.304    8327.4832    310.50235    15193 
263000000   -2952.0546    6377.0382    12899.384    1125.1002    8203.9927    309.12751    15156 
264000000   -2918.7938    6644.8429    12991.075    1280.9483    8282.6884    311.32484    15114 
265000000   -2922.2902    6463.8534    12989.978    1190.4991    8195.6446    311.29854    15167 
266000000   -2876.2481    6550.0569    12978.869    1138.4135    8287.8914    311.03233    15184 
267000000   -2875.2728    6492.2042     13025.32    1169.3731    8198.1038    312.14552    15151 
268000000   -2848.3844     6592.851    12937.693    1232.7845    8208.4509    310.04556    15142 
269000000   -2810.7739    6663.1502    12964.136    1188.2059    8285.7182    310.67926    15142 
270000000   -2873.2686    6479.6921    13005.363    1174.6904    8178.2703    311.66725    15177 
271000000   -3007.4175    6385.7262    12887.988    1129.5591    8263.5846    308.85442    15177 
272000000    -2886.096    6568.9268    12865.395    1265.2188     8189.804    308.31298    15176 
273000000   -2963.7921    6537.9751    12908.726    1184.3623    8317.4049    309.35138    15159 
274000000   -2979.3472    6484.2402     12880.61    1244.9495     8218.638     308.6776    15164 
275000000   -2878.4703    6455.4799    12759.684    1145.2694    8188.6808    305.77967    15164 
276000000   -2995.7204    6415.7031    13152.698    1178.2551    8233.1684    315.19806    15149 
277000000   -2898.3487    6600.8624    12970.357    1201.2296    8297.9815    310.82834    15185 
278000000   -2933.5327    6427.0493    12767.915    1162.0397    8198.5424    305.97692    15157 
279000000   -2968.4591    6516.8202    12906.337    1213.3055    8271.9738    309.29414    15142 
280000000   -2898.1749    6637.6952    12951.899    1289.5425    8246.3277    310.38601    15136 
281000000   -3051.6832    6302.8413    13068.807    1204.7167    8149.8078    313.18765    15153 
282000000   -2984.3253    6299.2489    12936.567    1186.0504    8097.5238    310.01858    15135 
283000000   -2974.0064    6457.6398    12820.798    1198.9391    8232.7071    307.24424    15147 
284000000   -3047.0127    6261.2554    12992.504    1156.7726    8151.4955    311.35908    15164 
285000000   -3042.7767    6343.2069    13013.737    1152.2969    8233.6866    311.86794    15168 
286000000   -2936.0176    6521.8322    12892.933     1184.709    8273.1408    308.97293    15145 
287000000   -2896.9089    6514.4228    12968.144    1277.3997     8133.932     310.7753    15168 
288000000   -3049.0374    6480.5938    12941.212    1214.0045    8315.6267    310.12991    15193 
289000000   -3038.1431    6360.3592    12934.859    1233.0923      8165.41    309.97765    15142 
290000000   -3091.4669    6218.7829     12979.17    1081.7445    8228.5054    311.03955    15165 
291000000   -2971.6606    6383.4293    12759.383    1238.6474    8116.4425    305.77247    15156 
292000000   -2959.6611     6388.453    12932.763    1234.7978    8113.3164    309.92742    15110 
293000000   -3027.3354    6352.6968    12942.609    1155.5708    8224.4615    310.16337    15170 
294000000   -2997.6065    6573.8644     13010.68    1324.8446    8246.6263    311.79468    15130 
295000000    -2975.905     6502.652    12936.436    1303.2293    8175.3277    310.01545    15149 
296000000   -2969.7586    6302.9044    12831.972    1093.0491    8179.6139      307.512    15192 
297000000     -2823.07    6610.3998    12900.086    1231.3277    8202.1421    309.14434    15150 
298000000   -2929.4703    6472.0989    13091.796    1227.6894    8173.8799    313.73857    15134 
299000000   -2974.2292    6679.1409    12916.157    1278.8887    8374.4814    309.52946    15154 
300000000   -2975.5796    6686.3796    12890.204    1320.3863    8341.5729    308.90752    15169 
301000000    -2938.158    6435.7368    12936.592    1161.3303    8212.5645    310.01918    15182 
302000000   -2941.3723    6730.5249    12909.481    1316.5497    8355.3475    309.36947    15174 
303000000   -2941.9306      6480.47     12874.23    1228.8572    8193.5435     308.5247    15136 
304000000   -2966.9256    6273.1606    13043.984    1077.2901    8162.7961    312.59278    15178 
305000000   -2975.7259    6410.1962    12786.066     1118.109    8267.8131     306.4119    15196 
306000000   -2918.6806    6468.7524    13006.161    1144.8771    8242.5558    311.68637    15166 
307000000   -2933.7027    6560.9829    12947.626     1182.215    8312.4706    310.28361    15172 
308000000   -2955.8717    6496.9374    12740.227    1259.4382    8193.3708    305.31339    15134 
309000000   -2787.4462    6675.9283    13015.972    1199.6688    8263.7056    311.92148    15142 
310000000   -2887.9378    6710.6056     13018.69     1322.458    8276.0854    311.98663    15123 
311000000   -2858.3972    6618.5612    13028.846    1209.3795    8267.5789    312.22999    15168 
312000000   -2854.0666    6563.0909    12790.836    1274.3225    8142.8349    306.52621    15155 
313000000   -2916.4001     6473.258    12665.281     1208.815    8180.8431    303.51734    15176 
314000000   -2907.6547    6535.4154    12978.938    1302.9332    8140.1369      311.034    15126 
315000000   -2931.4804    6415.6984    13143.924    1150.4865    8196.6924    314.98779    15147 
316000000   -2875.4577    6771.5281    12957.883    1262.2402    8384.7456    310.52941    15130 
317000000   -2889.8803    6784.7484    12973.886    1343.1377    8331.4909    310.91291    15111 
318000000   -2895.2907     6431.305    12937.897     1144.718    8181.8778    310.05046    15180 
319000000   -2940.6395    6683.1462    12844.259    1317.2843    8306.5014    307.80646    15133 
320000000   -2959.4017     6458.296     13008.92    1196.4094    8221.2884    311.75248    15153 
321000000   -2975.8326    6444.5567    12806.487    1244.8231    8175.5663    306.90127    15149 
322000000   -3051.6687    6213.1669    12810.485    1149.9049    8114.9307    306.99709    15170 
323000000    -3021.752    6481.0831    12771.038    1281.3087    8221.5264    306.05176    15162 
324000000   -2982.5319    6436.2912    12778.003     1197.788    8221.0351    306.21867    15175 
325000000   -3017.3264    6402.5329    12873.208    1121.3021    8298.5571    308.50022    15164 
326000000   -3000.9059    6410.9631    12836.547    1196.0237    8215.8453    307.62166    15169 
327000000   -2983.3993    6497.5326    13037.755    1307.4265    8173.5054     312.4435    15169 
328000000   -2962.2317    6375.7002    12885.343    1159.1548    8178.7771    308.79103    15133 
329000000   -3026.5409    6236.4552    13018.969    1034.0975    8228.8986    311.99331    15201 
330000000   -3095.9736    6253.4191    13072.632    1071.7859    8277.6068    313.27932    15186 
331000000   -3008.0595    6438.5332    12849.527    1232.3008    8214.2919     307.9327    15184 
332000000   -2926.2872    6610.4209    13142.229    1226.6369    8310.0712    314.94716    15145 
333000000   -2924.4377     6684.722    12908.307    1240.8461    8368.3136    309.34136    15143 
334000000   -2888.4332    6482.1923    12993.637    1190.6117    8180.0138    311.38625    15156 
335000000   -2964.1288    6503.1607    13065.738    1233.2187    8234.0709    313.11411    15142 
336000000   -2959.9441    6536.6525    12904.222    1299.4909    8197.1057    309.24345    15153 
337000000   -2912.2947    6661.8484    12944.663    1384.2496    8189.8935     310.2126    15145 
338000000   -2889.2388    6355.3369    13002.333    1200.5527     8044.023    311.59462    15159 
339000000   -3031.5815    6257.8064    12793.758     1169.523    8119.8649    306.59624    15162 
340000000   -3005.8725    6413.5933     12947.12     1227.717    8191.7488    310.27147    15149 
341000000    -2912.426    6450.3874    13034.745     1248.294    8114.5193    312.37136    15144 
342000000   -2928.0208    6421.4592    12858.232    1196.5238    8152.9562    308.14133    15149 
343000000   -2913.2719     6447.549    12914.237    1180.6165    8180.2044    309.48345    15171 
344000000   -2974.1588    6545.8196     13040.67    1223.3306    8296.6478    312.51335    15157 
345000000   -2941.9595    6324.9693    12868.627     1066.427    8200.5018    308.39043    15192 
346000000   -2996.4604    6197.6487    13000.568    1152.9045    8041.2046    311.55234    15183 
347000000   -2908.4331    6541.9937    12883.039    1200.4263    8250.0005    308.73581    15148 
348000000   -3111.2254    6392.3791    12951.475    1266.3239    8237.2806    310.37584    15181 
349000000   -3028.4887    6535.0908    12874.726    1345.5819    8217.9976    308.53659    15136 
350000000   -2984.1596     6427.952    12883.877    1185.6037    8226.5079    308.75589    15193 
351000000   -2973.1672    6502.7217    12960.347    1174.0149     8301.874    310.58847    15173 
352000000   -2983.8272    6554.0534    12829.935      1364.36    8173.5206     307.4632    15156 
353000000   -3104.1179    6238.6378    12895.689    1116.4311    8226.3245    309.03895    15176 
354000000   -3024.7294     6390.011    12963.344    1195.1727    8219.5678    310.66029    15163 
355000000   -2936.5495    6376.0957    12948.787    1070.4524    8242.1928    310.31142    15182 
356000000   -3018.9712    6311.3181    12912.636    1169.9232    8160.3662    309.44509    15149 
357000000   -2994.3522    6164.0654    12978.344    1046.3891    8112.0285    311.01974    15188 
358000000    -2882.486    6500.9611    13060.338    1285.5332    8097.9139    312.98468    15148 
359000000   -2970.9375    6445.8564    13033.475     1259.158    8157.6358    312.34094    15143 
360000000   -2866.2885    6626.3355    12973.276    1233.4454    8259.1786    310.89829    15149 
361000000   -2882.2746     6525.005    12967.358     1237.249    8170.0307    310.75648    15146 
362000000   -2958.0186    6483.8212    12989.999    1202.5428     8239.297    311.29905    15149 
363000000   -2963.1396    6406.8603    13017.632    1113.1127    8256.8872    311.96126    15169 
364000000    -2959.579     6299.443    12939.389    1147.7317    8111.2903     310.0862    15168 
365000000   -2892.9016    6604.4122    12885.702    1193.0307    8304.2831    308.79962    15151 
366000000   -2943.9059    6460.9486     12899.36    1166.8991    8237.9554    309.12694    15158 
367000000   -2937.4439    6576.1326    12774.551    1233.1614    8280.4152    306.13594    15156 
368000000   -2961.9034    6318.4039    12979.286    1074.8645    8205.4428    311.04232    15154 
369000000   -2968.9391    6435.9732    12864.284    1172.4881    8232.4242    308.28637    15154 
370000000   -2879.0947    6822.2408    12998.657    1324.9936    8376.3418    311.50654    15141 
371000000   -2915.3878    6554.5358    12949.743    1263.8955    8206.0281    310.33435    15112 
372000000   -2983.8105    6381.7499    12975.507    1228.2048    8137.3556    310.95177    15150 
373000000   -2921.5231    6623.9316    12983.137    1257.2398    8288.2149    311.13461    15146 
374000000   -2994.4692    6335.7501    12939.266    1142.2855    8187.9338    310.08326    15161 
375000000   -2771.0142    6731.8385    12980.245    1235.9125    8266.9402     311.0653    15148 
376000000   -2859.9106    6478.5675    12980.977    1196.9487    8141.5294    311.08286    15141 
377000000   -2790.4599    6740.0107    13044.294    1321.9759    8208.4947     312.6002    15125 
378000000   -2874.4314    6500.8051    12802.648    1187.6314    8187.6051    306.80927    15167 
379000000   -2927.4502    6552.2903    12906.931    1238.7463    8240.9942    309.30838    15125 
380000000   -2963.2953     6502.786    12940.093    1283.5759    8182.5054    310.10308    15119 
381000000   -3053.5304    6207.4431    13075.412    1172.7161    8088.2574    313.34595    15166 
382000000   -3034.6965    6293.5655    12793.109    1112.3383    8215.9237    306.58068    15147 
383000000   -2990.2674    6460.1154     13046.93      1259.09    8191.2928    312.66338    15167 
384000000   -3067.3652    6318.9811    12890.286    1134.4421    8251.9042    308.90949    15160 
385000000    -3070.539    6379.0809     12960.65    1217.1657    8232.4542    310.59573    15158 
386000000   -2949.4898    6534.5225    12934.786    1218.7129    8265.2995    309.97589    15161 
387000000   -2943.6062    6697.5349    12665.768    1378.6101    8262.5311    303.52902    15119 
388000000   -3001.5887    6345.7091     13026.56    1221.7652    8125.5327    312.17522    15173 
389000000   -2943.9164    6420.4471    12915.556    1254.1205     8110.243    309.51508    15139 
390000000   -2950.8221    6360.4245    12805.071     1137.771    8173.4756    306.86735    15148 
391000000    -3031.373    6259.3205    13020.494    1205.9816     8084.712    312.02984    15168 
392000000   -3022.9265    6416.6646    12971.125    1226.5775    8213.0135    310.84674    15146 
393000000   -2882.3143    6483.6464    12708.421    1162.3941    8203.5666    304.55118    15166 
394000000   -2907.0206    6577.4486    12866.959    1219.4298    8265.0394    308.35046    15124 
395000000   -2873.1166    6524.5952     12992.72    1228.7188     8168.993    311.36427    15159 
396000000    -3119.311    6228.3448    12847.523    1106.8667     8240.789    307.88469    15183 
397000000   -2951.6127    6609.7259    12958.822    1243.6994    8317.6392     310.5519    15158 
398000000   -2880.4551    6401.8213    12779.959    1065.6461    8216.6303    306.26554    15188 
399000000   -2936.4356    6463.7838    12749.666    1108.1994      8292.02    305.53958    15168 
400000000   -2930.9511    6339.9639     12983.37    1150.7126    8120.2024     311.1402    15183 
401000000   -2901.8098    6362.1145    13023.082    1097.4914     8166.433    312.09187    15172 
402000000   -2978.6505    6546.8928    12959.452    1232.5073     8293.036    310.56701    15161 
403000000   -2906.7502    6462.9844    12798.566       1174.6    8195.1347    306.71145    15153 
404000000   -2906.7915     6643.342    12901.584    1287.0245    8263.1089    309.18023    15140 
405000000   -2967.0741    6578.7196    13024.989    1312.2258    8233.5679    312.13757    15174 
406000000    -2953.105    6371.7073    12909.294    1140.6487    8184.1636      309.365    15164 
407000000   -3003.9453     6440.956    12950.504    1290.8918    8154.0096    310.35257    15127 
408000000   -3015.6748    6502.1742    12787.722     1281.341     8236.508    306.45159    15140 
409000000   -2928.2885    6467.3762    12931.742    1247.8615    8147.8033    309.90297    15175 
410000000   -2956.8294    6258.5636    12725.439    1157.8454    8057.5476      304.959    15163 
411000000   -2856.1717     6632.676    12804.067    1244.9724    8243.8754    306.84328    15177 
412000000   -2965.9848    6469.6334    12962.417    1205.1911    8230.4271    310.63806    15175 
413000000   -2919.0367    6563.4369    12810.582    1304.5243    8177.9493    306.99942    15153 
414000000   -2902.4729     6546.208    12922.947     1245.128    8203.5529    309.69218    15164 
415000000   -2892.6365    6496.3006    12690.362    1149.7917    8239.1455     304.1184    15155 
416000000   -2855.7157    6452.8057    12893.861    1199.4068    8109.1146    308.99515    15115 
417000000    -2948.131    6461.1202    12912.015     1225.784    8183.4673     309.4302    15138 
418000000   -3011.2764    6456.4289    13079.826    1202.9595    8264.7459    313.45172    15143 
419000000   -2977.5078    6432.7859    12821.409    1130.4439    8279.8497    307.25887    15137 
420000000   -2907.4346    6574.6025     12794.26    1246.3269    8235.7102    306.60826    15135 
421000000   -2953.5183    6494.9663    13030.804    1218.6594    8229.8252    312.27693    15151 
422000000   -2996.0514    6531.9765    12965.601    1226.3264    8301.7015    310.71437    15184 
423000000   -3006.4388     6239.977    12775.889    1103.9405    8142.4753    306.16802    15179 
424000000   -2932.6856    6484.7582    12925.476    1130.3724    8287.0715     309.7528    15182 
425000000   -3037.0999    6309.9502    13053.697    1142.9711     8204.079    312.82556    15174 
426000000   -3034.1656    6448.3918    13066.239     1216.342    8266.2154     313.1261    15171 
427000000   -3041.8694    6427.2392    12855.226    1275.8642    8193.2444    308.06929    15181 
428000000   -3011.0828    6446.5896    12877.668    1171.9687    8285.7037    308.60709    15156 
429000000   -2970.3092    6496.9082    12842.757    1210.2687    8256.9487    307.77048    15152 
430000000   -3033.9395    6404.4735     13007.48    1189.1973    8249.2157    311.71798    15167 
431000000   -2955.7345    6528.1313    13026.589    1170.7339    8313.1319    312.17592    15168 
432000000   -3022.4434     6503.662    12816.823    1272.6144     8253.491    307.14897    15173 
433000000   -2951.5811    6423.3366    12697.538    1274.2243    8100.6934    304.29037    15138 
434000000   -3016.7651    6461.6669    12895.738    1248.3876    8230.0444    309.04013    15151 
435000000   -3093.9322    6271.3446    12888.802    1167.6453    8197.6315    308.87392    15167 
436000000   -2966.9497    6367.5702    12861.271    1174.1943    8160.3257    308.21414    15167 
437000000   -2955.6656    6305.6617    12817.866    1148.8576    8112.4697    307.17397    15171 
438000000   -3106.9842    6532.2506    12850.236    1242.7744    8396.4604     307.9497    15143 
439000000   -2915.0691    6497.2608    12937.544    1236.7118     8175.618      310.042    15170 
440000000   -2956.6069    6478.7901     12901.98    1207.3723    8228.0246    309.18971    15150 
441000000   -2953.5015    6405.4576    12825.515    1196.5584    8162.4006    307.35727    15180 
442000000   -2853.2713     6575.578    12856.871    1276.6563     8152.193    308.10871    15136 
443000000   -3032.1158     6244.522    12924.088    1086.1722    8190.4656    309.71952    15203 
444000000   -2947.5982    6434.9634    12895.754     1179.522    8203.0396    309.04051    15146 
445000000   -2966.7109    6419.8976    12929.733    1213.8095     8172.799     309.8548    15158 
446000000   -2928.5977    6447.9835    12911.168    1196.6432     8179.938    309.40991    15159 
447000000   -2885.2999    6446.5039    13009.974    1155.7503    8176.0535    311.77774    15133 
448000000   -2891.3919     6488.241    12907.064    1156.2545    8223.3784    309.31155    15144 
449000000   -2915.1662    6599.9519    13088.341    1228.2573    8286.8608    313.65577    15156 
450000000   -2915.7824    6581.4806     12895.98    1255.7674    8241.4956    309.04593    15128 
451000000   -2907.4136    6525.4741    12978.132    1184.7801    8248.1076    311.01468    15156 
452000000   -2982.0912    6442.0501    12947.803    1315.0977    8109.0436    310.28786    15146 
453000000   -3007.7181    6466.0622    12848.219     1278.183    8195.5973    307.90137    15144 
454000000   -2909.6146    6523.6759    12963.672    1276.8892    8156.4014    310.66815    15174 
455000000   -2967.9371    6574.0902    12993.018     1215.783    8326.2443    311.37141    15161 
456000000   -2888.9643    6552.1546    13030.139    1260.1576    8180.9614    312.26098    15142 
457000000    -2929.615    6548.6727    13049.556    1298.1459    8180.1418    312.72631    15135 
458000000    -3000.974    6476.7062    12725.069    1255.8925    8221.7877    304.95014    15162 
459000000   -2941.1725    6420.9355    12878.109    1196.8464    8165.2616    308.61767    15166 
460000000   -2821.3625    6646.5962    12972.269    1265.5069    8202.4518    310.87416    15165 
461000000   -2825.3865    6699.7839    12920.323    1311.6341    8213.5363     309.6293    15134 
462000000   -2876.5867    6611.1145    12875.829    1239.8959    8247.8052    308.56303    15147 
463000000   -3006.7635    6409.0367    12944.502    1094.6541    8321.1461    310.20875    15179 
464000000   -3017.0939    6349.3881    12905.938    1188.9142    8177.5678    309.28456    15181 
465000000   -2903.2647    6505.4659    12881.134    1171.9309    8236.7996    308.69017    15144 
466000000   -2993.2711    6475.0733     13041.61    1156.2738    8312.0706    312.53589    15171 
467000000    -2998.242    6533.0562    12957.033    1258.5528    8272.7454    310.50904    15133 
468000000   -2996.4275    6404.6305    12902.161    1275.5739    8125.4841    309.19405    15153 
469000000   -2961.6677      6182.77    12854.186    1033.1505    8111.2872    308.04437    15191 
470000000   -2900.0406    6520.4148    12663.451    1206.4003    8214.0551    303.47348    15131 
471000000   -3037.9757     6233.771    12866.403    1110.3952    8161.3515    308.33713    15175 
472000000    -2939.715    6288.1475    12812.571    1081.2726    8146.5899    307.04708    15159 
473000000   -2864.7419    6515.3198    13022.462    1208.1014    8171.9604    312.07701    15167 
474000000   -2904.7951    6564.7166    12964.554    1199.9732    8269.5385    310.68927    15135 
475000000    -2884.615    6871.0119    12969.908    1375.3753    8380.2516    310.81758    15118 
476000000   -2980.2761    6556.4754    12877.355    1257.7226    8279.0288     308.5996    15150 
477000000   -2989.0898    6478.4206    12877.371    1193.4908    8274.0196    308.59997    15148 
478000000   -2893.9583    6555.3756     12822.28     1301.067    8148.2669    307.27976    15118 
479000000   -2906.6776    6465.4582    12909.358    1287.8127    8084.3231    309.36654    15159 
480000000   -2969.5524    6557.3511    13030.177    1246.5513    8280.3522    312.26191    15140 
481000000   -2934.1728    6419.2264    12769.543     1206.327    8147.0722    306.01594    15141 
482000000   -2943.3847    6477.7896     12903.78    1143.6231    8277.5512    309.23286    15151 
483000000   -2932.8397    6497.5454    12966.448    1212.9447    8217.4404    310.73467    15136 
484000000   -2996.7352    6468.9074    12858.822    1241.6296     8224.013    308.15547    15111 
485000000   -2926.1203     6303.021    13002.383     1220.804    8008.3373    311.59583    15152 
486000000   -2969.6943    6449.3867    13050.441    1185.4162    8233.6648    312.74753    15165 
487000000   -2992.2361    6250.1464    12828.073    1139.0419    8103.3406    307.41858    15175 
488000000   -2988.2535    6449.1719    13013.257    1224.7537    8212.6717    311.85642    15161 
489000000   -3020.8707     6205.798     12881.23    1172.2267     8054.442    308.69246    15172 
490000000   -2914.4531    6678.0791    12874.574     1331.013    8261.5192    308.53295    15135 
491000000   -2834.7722    6559.1414    12992.219    1211.7535    8182.1601    311.35225    15158 
492000000   -2998.7409     6594.503    12921.962    1348.0648    8245.1791    309.66857    15113 
493000000   -2958.7539    6362.1383    12717.831    1163.9981    8156.8941    304.77668    15145 
494000000   -2938.0635    6693.5582    12933.559    1279.0508    8352.5709    309.94651    15156 
495000000   -3010.9141     6456.527    12888.989    1217.4231     8250.018    308.87841    15139 
496000000   -2987.3063    6534.3313    12966.627    1319.8569    8201.7807    310.73897    15130 
497000000   -2968.5786    6446.2328    12939.735    1270.7686    8144.0428    310.09449    15129 
498000000   -3024.9327    6390.9295    13118.993     1206.065    8209.7972    314.39034    15172 
499000000   -3048.5507    6285.6382    13169.266    1118.2387    8215.9502     315.5951    15184 
500000000   -3027.8867    6377.2098    13027.206    1280.8177    8124.2788    312.19069    15100 
Loop time of 165950 on 28 procs for 500000000 steps with 14000 atoms

Performance: 6507.968 ns/day, 0.004 hours/ns, 3012.948 timesteps/s
99.5% CPU use with 28 MPI tasks x no OpenMP threads

MPI task timing breakdown:
Section |  min time  |  avg time  |  max time  |%varavg| %total
---------------------------------------------------------------
Pair    | 18515      | 21469      | 26040      |1007.1 | 12.94
Bond    | 5829.8     | 6615.3     | 11517      |2019.9 |  3.99
Neigh   | 54371      | 55042      | 55789      | 151.6 | 33.17
Comm    | 39812      | 49964      | 53479      |1227.4 | 30.11
Output  | 0.66427    | 0.66477    | 0.66565    |   0.0 |  0.00
Modify  | 24711      | 24970      | 25220      | 112.1 | 15.05
Other   |            | 7889       |            |       |  4.75

Nlocal:    500 ave 523 max 472 min
Histogram: 2 0 1 1 7 7 3 3 2 2
Nghost:    780.714 ave 1051 max 474 min
Histogram: 1 3 0 6 3 3 5 2 3 2
Neighs:    5694.25 ave 7084 max 4566 min
Histogram: 5 2 4 4 1 3 1 3 1 4

Total # of neighbors = 159439
Ave neighs/atom = 11.3885
Ave special neighs/atom = 7.73129
Neighbor list builds = 100017169
Dangerous builds = 0
System init for write_restart ...
Total wall time: 46:05:52
