LAMMPS (5 Jun 2019)
Reading data file ...
  orthogonal box = (-420 -420 -420) to (420 420 420)
  2 by 2 by 7 MPI processor grid
  reading atoms ...
  14000 atoms
  scanning bonds ...
  51 = max bonds/atom
  scanning angles ...
  1 = max angles/atom
  reading bonds ...
  13800 bonds
  reading angles ...
  13600 angles
Finding 1-2 1-3 1-4 neighbors ...
  special bond factors lj:   0          0          0         
  special bond factors coul: 0          0          0         
  2 = max # of 1-2 neighbors
  2 = max # of 1-3 neighbors
  4 = max # of 1-4 neighbors
  56 = max # of special neighbors
  special bonds CPU = 1.13212 secs
  read_data CPU = 1.32344 secs
Finding 1-2 1-3 1-4 neighbors ...
  special bond factors lj:   1          1          1         
  special bond factors coul: 0          0          0         
  2 = max # of 1-2 neighbors
  2 = max # of 1-3 neighbors
  4 = max # of 1-4 neighbors
  56 = max # of special neighbors
  special bonds CPU = 0.000903476 secs
WARNING: Using 'neigh_modify every 1 delay 0 check yes' setting during minimization (../min.cpp:168)
Neighbor list info ...
  update every 1 steps, delay 0 steps, check yes
  max neighbors/atom: 2000, page size: 100000
  master list distance cutoff = 26.9
  ghost atom cutoff = 26.9
  binsize = 13.45, bins = 63 63 63
  1 neighbor lists, perpetual/occasional/extra = 1 0 0
  (1) pair lj/cut, perpetual
      attributes: half, newton on
      pair build: half/bin/newton
      stencil: half/bin/3d/newton
      bin: standard
Setting up cg style minimization ...
  Unit style    : real
  Current step  : 0
Per MPI rank memory allocation (min/avg/max) = 1.165 | 13.79 | 17.67 Mbytes
Step Temp E_pair E_mol TotEng Press 
       0            0 2.4262116e+12      2649600 2.4262142e+12 1.1227655e+09 
    2593            0   -3213.8545    8077.7575     4863.903  0.022358999 
Loop time of 0.886541 on 28 procs for 2593 steps with 14000 atoms

99.5% CPU use with 28 MPI tasks x no OpenMP threads

Minimization stats:
  Stopping criterion = energy tolerance
  Energy initial, next-to-last, final = 
     2.42621422944e+12      4864.36586087      4863.90297658
  Force two-norm initial, final = 2.10957e+10 3.95325
  Force max component initial, final = 1.05441e+09 0.95274
  Final line search alpha, max atom move = 0.049396 0.0470616
  Iterations, force evaluations = 2593 2659

MPI task timing breakdown:
Section |  min time  |  avg time  |  max time  |%varavg| %total
---------------------------------------------------------------
Pair    | 0.037235   | 0.12733    | 0.23904    |  16.4 | 14.36
Bond    | 0.011806   | 0.032835   | 0.06031    |   7.4 |  3.70
Neigh   | 0.076496   | 0.078755   | 0.080938   |   0.4 |  8.88
Comm    | 0.16474    | 0.29605    | 0.43434    |  13.1 | 33.39
Output  | 0          | 0          | 0          |   0.0 |  0.00
Modify  | 0          | 0          | 0          |   0.0 |  0.00
Other   |            | 0.3516     |            |       | 39.66

Nlocal:    500 ave 894 max 183 min
Histogram: 3 3 3 4 6 0 2 2 3 2
Nghost:    312.964 ave 490 max 136 min
Histogram: 3 3 2 1 4 3 4 4 1 3
Neighs:    3601.79 ave 6560 max 1006 min
Histogram: 4 1 5 2 7 0 1 1 5 2

Total # of neighbors = 100850
Ave neighs/atom = 7.20357
Ave special neighs/atom = 5.82857
Neighbor list builds = 165
Dangerous builds = 0
Setting up Verlet run ...
  Unit style    : real
  Current step  : 2593
  Time step     : 0.1
Per MPI rank memory allocation (min/avg/max) = 1.127 | 12.9 | 16.54 Mbytes
Step Temp E_pair E_mol TotEng Press 
    2593            0   -3213.8545    8077.7575     4863.903  0.022358999 
   12593    225.88035   -2687.8667    11636.717    18374.467   -1.0913461 
Loop time of 1.9349 on 28 procs for 10000 steps with 14000 atoms

Performance: 44.653 ns/day, 0.537 hours/ns, 5168.224 timesteps/s
99.5% CPU use with 28 MPI tasks x no OpenMP threads

MPI task timing breakdown:
Section |  min time  |  avg time  |  max time  |%varavg| %total
---------------------------------------------------------------
Pair    | 0.049919   | 0.19175    | 0.39661    |  23.1 |  9.91
Bond    | 0.036721   | 0.10445    | 0.19009    |  13.2 |  5.40
Neigh   | 0.0024839  | 0.0025902  | 0.0027154  |   0.1 |  0.13
Comm    | 0.5367     | 0.85844    | 1.1963     |  17.3 | 44.37
Output  | 8.1591e-05 | 0.0001177  | 0.00015624 |   0.0 |  0.01
Modify  | 0.090967   | 0.2441     | 0.43829    |  19.8 | 12.62
Other   |            | 0.5334     |            |       | 27.57

Nlocal:    500 ave 901 max 182 min
Histogram: 3 3 4 3 6 0 2 2 3 2
Nghost:    312.75 ave 486 max 138 min
Histogram: 3 3 2 2 3 4 3 3 2 3
Neighs:    3612.07 ave 6612 max 1005 min
Histogram: 4 1 5 3 6 0 1 2 4 2

Total # of neighbors = 101138
Ave neighs/atom = 7.22414
Ave special neighs/atom = 5.82857
Neighbor list builds = 5
Dangerous builds = 0
4000 atoms in group rxnSites
Neighbor list info ...
  update every 1 steps, delay 1 steps, check yes
  max neighbors/atom: 2000, page size: 100000
  master list distance cutoff = 26.9
  ghost atom cutoff = 26.9
  binsize = 13.45, bins = 63 63 63
  2 neighbor lists, perpetual/occasional/extra = 1 1 0
  (1) pair lj/cut, perpetual
      attributes: half, newton on
      pair build: half/bin/newton
      stencil: half/bin/3d/newton
      bin: standard
  (2) fix bond/create/random, occasional, copy from (1)
      attributes: half, newton on
      pair build: copy
      stencil: none
      bin: none
Setting up Verlet run ...
  Unit style    : real
  Current step  : 0
  Time step     : 25
Per MPI rank memory allocation (min/avg/max) = 17.76 | 18.27 | 18.83 Mbytes
Step E_pair PotEng KinEng E_bond E_angle Temp Bonds 
       0   -2687.8667    8948.8503    9425.6164      3133.39     8503.327    225.88035    13800 
 1000000   -1483.3855    9170.1169    12974.246    2275.3162    8378.1862    310.92153    14689 
 2000000   -1526.3568    8769.6328    12730.233    2012.5564    8283.4331    305.07389    14808 
 3000000   -1612.7424     8788.504    12990.744    2037.2423    8364.0041     311.3169    14796 
 4000000   -1689.6112    8518.0423    12830.716    1862.7159    8344.9376    307.48192    14865 
 5000000   -1701.3639    8608.1816    12847.211    1945.2742    8364.2713     307.8772    14837 
 6000000   -1829.9659    8363.9362    12728.779    1811.0655    8382.8366    305.03904    14886 
 7000000   -1859.8169    8034.4638    13047.905    1648.2841    8245.9966    312.68675    14944 
 8000000   -1844.9149    8183.5033    12874.838    1723.3794    8305.0388    308.53928    14908 
 9000000   -1913.0037     8143.325     12951.89    1632.8036    8423.5252    310.38579    14968 
10000000   -2012.3267    7966.4982     12929.15    1710.4797    8268.3452    309.84083    14963 
11000000    -2002.051    7963.3635    12952.466    1640.6056    8324.8089     310.3996    14942 
12000000   -2059.4839     7699.123    12918.751    1448.1857    8310.4211    309.59164    14990 
13000000   -2083.2233    7743.2814     12780.58    1543.5737    8282.9311    306.28043    15009 
14000000   -2052.1269     7835.073    13016.806    1550.6387    8336.5612    311.94148    14984 
15000000   -2125.7773     7732.536     12836.73    1511.3683     8346.945    307.62604    15006 
16000000   -2283.4783    7498.6632    12999.443    1374.5127    8407.6287    311.52537    15031 
17000000   -2123.8056    7687.3508    12922.787    1422.7829    8388.3735    309.68836    15034 
18000000   -2157.0719    7643.6489    12901.607    1458.3418    8342.3791    309.18079    15034 
19000000   -2266.0585    7461.9994    12948.093    1398.6981    8329.3598    310.29479    15040 
20000000   -2239.3135    7564.4316    12985.719    1481.1672    8322.5779    311.19648    15054 
21000000   -2209.3266    7684.6026    13005.497    1524.8302    8369.0989    311.67045    15061 
22000000   -2253.9049    7439.1236    12963.235    1301.4111    8391.6174    310.65768    15086 
23000000   -2288.0173    7421.9505    12909.542    1401.1281    8308.8398    309.37095    15083 
24000000   -2342.4879    7294.6439    12875.344    1249.5021    8387.6296    308.55141    15070 
25000000   -2316.7828    7452.9693    12930.976    1410.8764    8358.8757    309.88459    15064 
26000000   -2448.4668    7188.9537    12840.523    1319.5765     8317.844    307.71693    15070 
27000000   -2430.5988    7058.6888    12873.133     1270.743    8218.5447    308.49843    15101 
28000000   -2344.8079    7508.5675    12913.344    1524.2096    8329.1658    309.46205    15045 
29000000   -2458.1824     7148.502    12952.028    1253.2488    8353.4356     310.3891    15095 
30000000   -2473.9557    7184.0795    12814.753     1365.011    8293.0242    307.09936    15118 
31000000   -2495.7708     7287.975    12865.314    1311.6722    8472.0736    308.31103    15093 
32000000   -2487.6779    7182.9195    12887.412    1364.2161    8306.3813    308.84062    15088 
33000000   -2314.9298    7585.1362    12909.882    1623.4613    8276.6047     309.3791    15037 
34000000   -2433.3488    7315.4527    13003.511    1411.2565     8337.545    311.62286    15057 
35000000   -2426.2315    7169.2281    12845.079     1332.877    8262.5826    307.82611    15094 
36000000   -2455.6569    7291.5527    12925.628    1350.5952    8396.6144    309.75643    15084 
37000000   -2468.3502    7053.7077    13046.638    1351.2333    8170.8247    312.65638    15093 
38000000   -2531.5201    7132.5568    12835.004    1392.5722    8271.5047    307.58468    15120 
39000000   -2363.1604    7076.0154    12977.172    1267.4837    8171.6921    310.99167    15116 
40000000   -2394.5161    7201.2102    12878.471    1330.5688    8265.1575    308.62635    15097 
41000000   -2537.4921     7166.064    13082.145    1370.6455    8332.9106    313.50729    15085 
42000000   -2578.3082    7016.9299    12916.082     1220.676    8374.5621    309.52766    15122 
43000000   -2531.5783    7226.2226    12901.971    1391.0313    8366.7696    309.18952    15107 
44000000   -2548.1162    6873.1299    12854.918    1253.1323    8168.1138    308.06191    15150 
45000000   -2444.9038    7183.7233    12757.747     1420.982     8207.645    305.73325    15093 
46000000   -2579.9575    6987.7035    13158.614     1242.049    8325.6119    315.33983    15126 
47000000   -2581.8471    7070.7561    12840.881    1358.3706    8294.2326    307.72552    15120 
48000000   -2546.9873     7061.013    12982.786    1309.9563    8298.0441     311.1262    15114 
49000000   -2579.2681    6892.2215     12930.54    1227.1004    8244.3892    309.87414    15124 
50000000   -2611.7784    7026.5305     12767.71    1329.8414    8308.4675    305.97202    15120 
51000000   -2422.6373    7202.4679    12845.866    1400.3097    8224.7955    307.84499    15092 
52000000   -2569.0291    6981.5849    12862.055    1154.8081    8395.8058    308.23295    15148 
53000000   -2573.3618    6948.8973    12886.061     1276.769    8245.4901    308.80823    15120 
54000000   -2553.4563    6962.9924     12857.32    1304.1211    8212.3277    308.11946    15139 
55000000    -2600.232     6957.289    12970.829    1316.8299    8240.6912    310.83965    15120 
56000000   -2547.1689    7061.7713     12948.33    1361.9701    8246.9701    310.30047    15091 
57000000    -2678.115     6876.347    12971.067    1284.0497    8270.4124    310.84535    15130 
58000000   -2590.1131    7023.9629    12904.627    1323.2409    8290.8352    309.25315    15101 
59000000   -2605.2599    7247.9508    12886.642     1479.893    8373.3178    308.82217    15090 
60000000   -2588.7185    6888.8716    12976.962    1275.0194    8202.5706    310.98664    15120 
61000000   -2666.6724    6841.7635    12906.793    1211.1655    8297.2704    309.30507    15140 
62000000   -2649.9579     6858.388    12946.659    1201.0979     8307.248    310.26043    15144 
63000000   -2558.3572    6994.6065    12899.789    1327.4347     8225.529    309.13721    15130 
64000000   -2448.0637      7100.39    12986.124    1247.1926    8301.2612     311.2062    15121 
65000000   -2453.1428    7076.0501    12802.719    1327.9422    8201.2507    306.81098    15116 
66000000   -2483.2431    7085.3699    12882.387    1298.3739    8270.2391    308.72019    15093 
67000000   -2633.2839    7056.1258    12805.698    1341.9215    8347.4882    306.88238    15114 
68000000   -2571.8707    6943.6589    13004.201    1266.1136    8249.4159     311.6394    15137 
69000000   -2722.9483    6677.1997    12915.486     1147.581     8252.567     309.5134    15163 
70000000   -2707.0903     6883.361    12807.602    1266.5969    8323.8544      306.928    15142 
71000000   -2633.3435    7064.5493      12910.4    1386.0908     8311.802    309.39151    15102 
72000000   -2781.6415    6737.1836    12994.396    1227.1046    8291.7204    311.40442    15131 
73000000   -2636.7665     6851.385    12787.738    1375.7092    8112.4424    306.45197    15092 
74000000   -2677.5834    7083.3574    12866.537     1353.536    8407.4048    308.34036    15113 
75000000   -2789.6724    6636.6012    12917.186    1201.8154    8224.4582    309.55412    15158 
76000000   -2573.1302    7025.1381    13092.549    1353.6429    8244.6255     313.7566    15101 
77000000   -2574.7682    7080.8046    12895.945    1442.6702    8212.9025    309.04511    15083 
78000000   -2528.8122    6904.2396    12922.371    1269.1705    8163.8813    309.67838    15097 
79000000   -2629.1866    6877.0937    12824.312    1235.7841    8270.4961    307.32845    15134 
80000000    -2629.569    6824.7113    12719.042    1176.5073    8277.7729    304.80569    15137 
81000000   -2549.1913    6972.8871    12965.479    1306.6688    8215.4097    310.71143    15128 
82000000   -2718.7999    6751.0281    12964.023    1157.1391    8312.6889    310.67655    15148 
83000000   -2748.3485    6897.5271    13009.395    1317.2057    8328.6699    311.76388    15112 
84000000   -2694.9746    6987.3296    12919.626    1400.1243    8282.1799     309.6126    15133 
85000000   -2650.6576    6923.9545    12943.821     1300.842    8273.7702    310.19243    15119 
86000000   -2631.9771    6992.0846    13024.861     1313.964    8310.0977    312.13449    15106 
87000000   -2662.7877     6818.254    12962.179    1173.5502    8307.4914    310.63237    15161 
88000000    -2566.931    7053.2353    12725.363    1348.4065    8271.7599    304.95718    15108 
89000000    -2685.344    6842.1806    12827.507    1227.6008    8299.9238    307.40501    15152 
90000000   -2706.3985     6818.315    12866.277    1288.4776    8236.2359    308.33411    15117 
91000000   -2612.4538    6798.8433    13040.557    1229.1495    8182.1475    312.51065    15136 
92000000   -2663.3069    6858.1226    12891.583    1254.2662    8267.1634    308.94057    15111 
93000000   -2769.5069    6688.1398    12854.458    1200.8057     8256.841    308.05088    15149 
94000000   -2698.3735    6674.3198    12771.559    1202.9649    8169.7283    306.06425    15145 
95000000   -2774.1391    6617.3088     13040.07    1190.7443    8200.7036    312.49898    15155 
96000000   -2763.4815    6545.9764    12703.027    1187.7521    8121.7058    304.42192    15152 
97000000   -2742.9668    6860.8371    12797.488    1391.2669     8212.537    306.68563    15115 
98000000   -2854.2066    6691.1639    12861.255    1241.6312    8303.7393    308.21376    15142 
99000000   -2695.8739    6835.0828    13049.009    1243.1253    8287.8315    312.71319    15121 
100000000    -2752.591    6776.0117     12865.64    1265.3972    8263.2055    308.31886    15147 
101000000   -2718.0701    6907.9489    12824.831    1328.8346    8297.1844    307.34087    15124 
102000000   -2786.6994    6581.5845    12863.185    1181.3682    8186.9157    308.26001    15146 
103000000   -2856.9548    6643.0402     12899.08       1253.8     8246.195    309.12023    15152 
104000000   -2784.4646    6612.2042    12875.599    1175.4673    8221.2015    308.55751    15184 
105000000   -2705.7546    6832.9804    12853.017    1270.3226    8268.4124    308.01634    15127 
106000000   -2674.0608    6846.4131    12902.303    1291.4979     8228.976    309.19745    15122 
107000000   -2657.0708    6819.3624    12938.449    1162.5517    8313.8814    310.06367    15145 
108000000   -2800.4639    6550.6602    12971.457    1154.3371     8196.787    310.85469    15176 
109000000    -2697.565    6744.3088    13013.965    1211.1693    8230.7045    311.87338    15167 
110000000    -2711.893    7021.4659    12919.052    1279.4942    8453.8647    309.59885    15126 
111000000   -2728.9838    6847.4001    12884.275    1306.5071    8269.8767    308.76544    15110 
112000000    -2651.994    6912.3631    12913.381    1305.0769    8259.2802    309.46295    15094 
113000000   -2702.4454    6550.3762    13061.646    1053.6475    8199.1741    313.01603    15148 
114000000   -2728.2496    6700.2075    12970.112    1341.3985    8087.0586    310.82248    15121 
115000000   -2788.6264    6703.6526    12939.519    1310.4511    8181.8279    310.08933    15123 
116000000   -2740.1064    6809.3492     13083.59    1265.5673    8283.8883    313.54192    15139 
117000000   -2739.9096    6696.3978    13067.056    1205.4219    8230.8856    313.14569    15144 
118000000   -2716.9283    6664.4525    12765.572    1187.6006    8193.7802    305.92076    15141 
119000000    -2632.925    6817.6485    12918.667    1237.3535      8213.22    309.58962    15141 
120000000   -2720.2731    6760.6142    12952.606    1295.1642     8185.723    310.40296    15152 
121000000   -2789.3304    6609.3742    12859.448    1231.1943    8167.5103    308.17045    15112 
122000000   -2833.4583    6638.2879    12872.967    1189.8837    8281.8626    308.49444    15171 
123000000    -2745.578    6784.9743    13067.838    1283.7244    8246.8279    313.16443    15114 
124000000   -2643.6248    6793.2993    12814.351    1246.0373    8190.8868    307.08974    15164 
125000000   -2809.8754    6563.2786    12854.591    1154.4056    8218.7484    308.05406    15155 
126000000   -2792.3785    6625.9389    13048.831     1208.746    8209.5714    312.70894    15144 
127000000   -2700.5798    6647.6936     12879.47    1131.2912    8216.9822    308.65029    15161 
128000000   -2628.6998    6862.1709    12937.653    1270.0386    8220.8321     310.0446    15134 
129000000   -2657.8492    6827.1828    12878.917    1272.6249    8212.4071    308.63702    15142 
130000000   -2658.8508     6810.655    12961.478    1209.9027    8259.6031    310.61556    15117 
131000000   -2624.7509    6845.4755    13033.683    1194.8599    8275.3665    312.34591    15119 
132000000   -2798.7553    6590.8276    12968.227    1150.9889     8238.594    310.77729    15137 
133000000   -2619.8628    7021.9917     12914.88    1361.9334    8279.9211    309.49887    15100 
134000000   -2745.4729    6716.5479    12881.541    1287.3247    8174.6961    308.69991    15143 
135000000   -2702.3841    6841.0704    13005.122    1271.8958    8271.5588    311.66146    15124 
136000000   -2739.7346    6786.4368    12912.412    1315.0064     8211.165    309.43972    15129 
137000000   -2874.2043    6874.2092    12921.872    1384.4307    8363.9829    309.66643    15123 
138000000   -2803.0475    6567.5722    12941.302     1229.079    8141.5407    310.13206    15172 
139000000   -2784.5743    6604.9477    12999.575     1157.121     8232.401    311.52855    15164 
140000000   -2791.9247    6727.9161    12989.506    1242.1589    8277.6819    311.28724    15110 
141000000   -2758.4726    6739.1473    12899.206    1281.8747    8215.7452    309.12323    15141 
142000000   -2843.4245    6753.2859     12820.46    1232.6828    8364.0277    307.23612    15168 
143000000   -2804.0424    6568.4938    12919.774    1155.6743    8216.8618    309.61615    15148 
144000000    -2754.158    6689.5191    12674.907    1279.6041     8164.073    303.74803    15146 
145000000   -2861.3042    6617.9386     12878.17    1267.3359    8211.9069    308.61912    15151 
146000000   -2868.0272    6612.2636    12873.628    1241.4679    8238.8229    308.51028    15134 
147000000   -2676.6482    6699.1196    12924.165    1245.4167    8130.3512    309.72137    15130 
148000000   -2658.1415    6845.7261    12885.415    1288.0136     8215.854    308.79276    15141 
149000000   -2792.8103    6735.5726    13043.043    1234.6465    8293.7364    312.57022    15166 
150000000   -2883.0741    6513.5403    12748.407    1164.9101    8231.7043    305.50941    15162 
151000000   -2800.5747    6750.4106    12918.178    1317.8097    8233.1756    309.57789    15144 
152000000   -2683.5181    6835.9843    12908.927    1234.9691    8284.5333    309.35619    15125 
153000000   -2733.9836    6761.3621    13035.461      1345.27    8150.0756    312.38854    15111 
154000000   -2846.6932    6712.1455    12924.606    1327.2924    8231.5462    309.73194    15125 
155000000    -2767.985    6647.2125    12769.295    1130.6807    8284.5168    306.00999    15149 
156000000   -2823.8231    6583.9542    12855.428    1125.5946    8282.1827    308.07413    15157 
157000000   -2861.4258    6660.8199    12820.278    1236.0647     8286.181    307.23177    15121 
158000000   -2915.3253    6682.4878    12877.402    1299.4185    8298.3946    308.60073    15153 
159000000   -2824.6253    6422.1556    12991.579    1139.2943    8107.4866    311.33692    15187 
160000000   -2836.2997    6474.6159    12828.181    1164.2945    8146.6211    307.42117    15184 
161000000   -2815.7205    6514.6449     12928.82    1160.8557    8169.5096    309.83294    15145 
162000000   -2784.2526    6835.2096    13208.788    1335.4796    8283.9825    316.54223    15115 
163000000    -2789.797    6540.5979    12975.646    1212.9733    8117.4215     310.9551    15150 
164000000   -2904.9485    6319.6981    12988.633    1077.4915    8147.1552    311.26631    15160 
165000000   -2879.7307    6320.6945    12816.026    1081.2424    8119.1827    307.12987    15168 
166000000   -2798.9264    6625.6727    12908.273    1222.9272    8201.6719    309.34052    15147 
167000000   -2904.1926     6409.338    12919.061    1173.3978    8140.1328    309.59905    15169 
168000000   -2838.1647    6754.1321    12907.761     1277.246    8315.0508    309.32825    15127 
169000000   -2824.1077    6767.0536    13022.895    1266.8785    8324.2827    312.08739    15091 
170000000     -2760.02    6674.9506    12969.795    1260.3954    8174.5753    310.81487    15118 
171000000   -2799.2146     6633.186    12864.081    1245.8904    8186.5102    308.28149    15143 
172000000   -2753.8788    6589.2229    12853.521     1221.561    8121.5406    308.02842    15143 
173000000   -2833.5945    6660.3861    12967.317    1306.6475    8187.3331     310.7555    15140 
174000000   -2846.1694    6552.1939    12817.377    1194.8241    8203.5393    307.16224    15174 
175000000   -2771.5767    6807.1618    12907.482      1341.89    8236.8485    309.32157    15154 
176000000    -2816.608    6718.2121    13079.459    1272.6933    8262.1267    313.44293    15158 
177000000   -2839.9987    6661.3175     12953.53    1225.5124    8275.8038     310.4251    15139 
178000000   -2883.1859    6687.1115    12984.392    1321.4418    8248.8556    311.16469    15130 
179000000    -2772.817    6765.7452    13014.105    1303.0547    8235.5075    311.87673    15110 
180000000   -2890.8355    6649.7819    12948.923    1343.8334    8196.7841    310.31469    15132 
181000000   -2858.5301    6498.6578    13033.238     1179.353    8177.8348    312.33526    15166 
182000000   -2849.9701    6665.2948    13063.651    1268.1352    8247.1296    313.06408    15117 
183000000   -2793.6988    6595.3676    13137.644    1221.3564    8167.7101     314.8373    15096 
184000000   -2903.0867    6603.4942    12779.942    1279.2036    8227.3774    306.26515    15132 
185000000    -2890.692    6793.7075    13023.805    1427.5635     8256.836    312.10919    15088 
186000000   -2923.2427    6738.8219     12861.62    1302.7802    8359.2844    308.22252    15123 
187000000   -2806.3916    6813.2481    12770.178    1314.1702    8305.4694    306.03115    15134 
188000000   -2906.6306     6645.145    12843.649    1337.4833    8214.2923    307.79184    15132 
189000000   -2849.8199    6557.0998    12972.645    1195.7569    8211.1628    310.88317    15163 
190000000   -2909.0765    6675.6813    13036.241    1363.1665    8221.5913    312.40722    15101 
191000000   -2849.5154    6603.3678    13006.545    1272.9755    8179.9077    311.69558    15120 
192000000   -2859.3241    6481.4777    12847.149    1209.1126    8131.6893    307.87573    15122 
193000000   -2918.6432    6466.4225    12853.054    1265.3334    8119.7323    308.01722    15148 
194000000   -2862.6781     6412.608    12680.062    1239.6506    8035.6356    303.87157    15127 
195000000   -2908.6853    6536.0915    13030.774     1184.088    8260.6889     312.2762    15182 
196000000   -2964.7659     6345.184    12844.348    1227.7742    8082.1757    307.80861    15126 
197000000   -2800.4718    6725.4302    12845.083    1279.6157    8246.2863     307.8262    15138 
198000000   -2823.5103    6794.9637    12918.339    1315.9793    8302.4947    309.58176    15104 
199000000   -2840.4467    6642.1941    13015.009    1251.7073    8230.9335    311.89841    15124 
200000000   -2903.9581    6471.5445    12883.697    1217.9009    8157.6017    308.75159    15141 
201000000    -2860.223    6647.6967    12985.752    1306.1656    8201.7542    311.19727    15137 
202000000   -2842.3525    6693.3119    12847.473    1235.4743    8300.1902    307.88348    15130 
203000000   -2831.0887    6578.2566    12817.909    1200.2258    8209.1195    307.17499    15133 
204000000   -2757.3177    6729.7407    12813.169    1345.7526    8141.3058     307.0614    15131 
205000000   -2932.4943    6756.1456    13047.969    1287.8013    8400.8386    312.68829    15124 
206000000    -2907.797    6520.6322    13027.468    1255.4902     8172.939    312.19699    15122 
207000000   -2909.9486    6571.0594    12921.265    1150.4278    8330.5801    309.65189    15144 
208000000   -2906.6296    6454.9737    12904.975       1231.9    8129.7032     309.2615    15163 
209000000   -2939.4799    6526.2561    12811.697    1294.3428    8171.3932    307.02614    15150 
210000000   -3002.3616    6491.2466    12862.142    1349.7229    8143.8853    308.23503    15146 
211000000   -2936.0957    6565.4595    12897.298     1204.118    8297.4372    309.07753    15142 
212000000   -2983.9558    6554.9646    13022.647    1311.5256    8227.3948    312.08144    15150 
213000000   -3026.6016     6442.979    13131.129    1189.6475    8279.9331    314.68116    15166 
214000000   -3003.1544    6400.0139    12974.111    1267.0082    8136.1601    310.91832    15155 
215000000   -2938.1012    6549.8604    12949.473    1265.8854    8222.0762    310.32787    15118 
216000000   -2943.1334    6488.2053    13058.329    1207.2978     8224.041    312.93655    15164 
217000000   -2956.1794    6302.2468    12915.573    1125.2489    8133.1773    309.51548    15174 
218000000   -2949.4913    6555.8149    12967.239    1216.9749    8288.3313    310.75363    15165 
219000000   -2934.3004    6445.4096    13028.519    1249.2964    8130.4137    312.22218    15150 
220000000   -2863.4816    6574.1547     12981.65    1154.3419    8283.2944    311.09897    15133 
221000000   -2797.9593    6746.1774    12946.284    1288.0113    8256.1254    310.25145    15137 
222000000   -2924.8839    6733.9453    12797.075    1351.0436    8307.7856    306.67573    15126 
223000000   -2934.6761    6534.1289    12927.169    1267.3518    8201.4532    309.79335    15132 
224000000    -2937.865    6495.4472    13033.707    1209.8036    8223.5086     312.3465    15166 
225000000   -3000.4688    6539.9246    12911.036    1260.2626    8280.1308    309.40676    15145 
226000000   -2990.5675    6519.7027    12754.663    1276.1398    8234.1304    305.65934    15137 
227000000   -2875.3513    6624.1266     12801.84    1235.7636    8263.7144    306.78992    15151 
228000000   -2847.7315    6609.0827    12963.347    1269.2585    8187.5557    310.66035    15142 
229000000   -2814.3308    6783.5959    12867.665    1322.0818    8275.8449    308.36739    15096 
230000000    -2965.268    6683.1339    12815.189    1245.2459    8403.1559    307.10982    15145 
231000000   -2993.9684     6555.085    12877.044    1287.6419    8261.4115    308.59213    15145 
232000000   -2858.9062    6556.1881    12977.024    1165.7741    8249.3202    310.98811    15179 
233000000   -2783.6538    6688.3727    13019.805    1255.3753    8216.6512    312.01333    15142 
234000000   -2867.1653    6531.6656    12966.873    1162.3979    8236.4329    310.74484    15143 
235000000   -2897.8022     6695.955    12908.757    1320.9251    8272.8321    309.35212    15134 
236000000   -2959.3706    6492.5238    13010.773    1208.9949    8242.8995     311.7969    15145 
237000000   -3006.9652    6354.4047    12979.748     1180.559     8180.811     311.0534    15165 
238000000   -3062.5943    6278.5836    13098.869     1170.368    8170.8098    313.90808    15169 
239000000   -2922.9463    6437.0904    12851.531    1231.4297     8128.607    307.98074    15201 
240000000   -3082.0009    6328.5233    12910.044    1213.8739    8196.6503    309.38298    15136 
241000000   -3138.4185     6202.204    13002.089    1151.6452    8188.9773    311.58878    15180 
242000000   -3075.8862    6451.2965     12808.29    1282.4603    8244.7224    306.94448    15141 
243000000   -3054.2618    6243.1967    12976.073    1126.4847    8170.9738    310.96532    15170 
244000000   -2943.5091    6492.2176    13067.013    1160.0763    8275.6505    313.14466    15158 
245000000   -2944.2333    6374.5924    12843.685    1218.6533    8100.1724    307.79271    15140 
246000000   -3025.0268    6418.4843    13010.031    1213.2084    8230.3026    311.77911    15163 
247000000   -2974.5439    6523.1549    13054.228    1289.6411    8208.0577    312.83827    15140 
248000000   -2944.1828    6620.8198    12938.005    1267.9334    8297.0691    310.05304    15164 
249000000    -2924.966    6379.4704     12906.73    1149.2537    8155.1827    309.30354    15147 
250000000     -2913.62     6582.181    12967.024    1255.3691    8240.4318    310.74846    15138 
251000000    -2919.844      6486.05    12827.733    1143.1226    8262.7714    307.41042    15150 
252000000   -3046.2439    6466.9978    12823.808    1242.2967    8270.9449    307.31637    15156 
253000000   -2958.2018    6453.8899    12818.223     1182.726    8229.3656    307.18253    15177 
254000000    -3001.504    6390.0798    12747.535    1230.8332    8160.7506    305.48852    15146 
255000000   -2896.5252    6462.9513    12958.674    1258.5001    8100.9765    310.54837    15147 
256000000    -3030.433    6388.3183    12888.461    1133.5134    8285.2379    308.86575    15166 
257000000   -2926.7499     6505.169    13013.194    1169.9644    8261.9545    311.85492    15175 
258000000   -2873.9199    6628.0237    12832.476    1320.8455    8181.0981    307.52409    15131 
259000000   -2957.6699    6573.6422    12989.503     1243.204    8288.1082    311.28718    15146 
260000000   -2932.1661    6402.2387    12938.165    1211.6815    8122.7234    310.05688    15188 
261000000   -2973.1318    6403.0922    12918.678    1217.9451    8158.2789    309.58989    15148 
262000000   -3019.5668    6485.7169    12960.257    1276.3088    8228.9748    310.58631    15161 
263000000   -2965.5174    6417.8871    12858.737    1194.4585     8188.946    308.15342    15144 
264000000   -3025.3219    6498.9681     12942.75    1196.6496    8327.6403    310.16675    15167 
265000000   -3010.5106     6298.036    12789.503     1153.192    8155.3546    306.49425    15194 
266000000   -2978.2859    6318.1416    12861.109    1141.1427    8155.2848    308.21026    15201 
267000000   -2938.0617    6398.3433    12870.185    1192.1596    8144.2454    308.42778    15173 
268000000    -2859.496    6543.9436    12958.433    1220.7434    8182.6961    310.54258    15151 
269000000   -2941.4457    6589.9246    12916.094    1285.6225    8245.7478    309.52796    15130 
270000000   -2913.6676    6491.7901    12866.003    1259.8656    8145.5922    308.32754    15143 
271000000   -2917.1956    6602.8248    12925.837    1290.9442    8229.0762    309.76145    15136 
272000000   -2999.7908    6580.0764    12922.241    1187.0714    8392.7958    309.67526    15181 
273000000   -2858.8961    6759.0626    13112.786    1301.0491    8316.9096     314.2416    15128 
274000000   -2901.1847    6494.3648    12849.785     1191.779    8203.7705    307.93891    15155 
275000000   -3042.8948    6434.4261    12892.594    1287.1952    8190.1258    308.96478    15144 
276000000    -3009.151    6289.9682    12909.462    1105.1554    8193.9637    309.36902    15157 
277000000   -2953.6571    6516.5004    12935.386    1274.6008    8195.5567    309.99028    15144 
278000000    -2867.983    6632.9047    12950.513    1254.7086     8246.179    310.35279    15133 
279000000   -2979.1634    6531.7071    12970.215    1280.9679    8229.9026    310.82494    15138 
280000000   -2872.8075    6540.6147    12990.482    1184.4803    8228.9419    311.31063    15153 
281000000   -2844.8907    6494.4956    12851.487      1158.06    8181.3264    307.97969    15153 
282000000   -2894.1089    6492.5302    12789.263    1159.9667    8226.6725    306.48851    15143 
283000000   -2893.8297     6631.455    12954.489    1303.2194    8222.0653    310.44808    15128 
284000000    -3010.428    6428.1222    12922.522    1219.2727    8219.2775    309.68201    15133 
285000000   -2975.8845     6494.705     13005.88     1278.898    8191.6914    311.67964    15139 
286000000   -2905.3046     6567.648    12966.927    1265.5516    8207.4011    310.74616    15167 
287000000   -2922.0856    6595.9618    12989.758    1255.8811    8262.1662    311.29327    15169 
288000000   -3036.2877    6464.7412    12905.946    1268.2488    8232.7801    309.28477    15182 
289000000   -2908.0481    6534.8137     12939.22    1239.0271    8203.8347    310.08216    15133 
290000000   -2916.6041    6487.5857    12981.718    1154.1194    8250.0704     311.1006    15154 
291000000   -2864.8988      6697.25    13025.213     1283.928    8278.2208    312.14295    15161 
292000000   -2818.1554    6674.6979    12839.422    1303.4408    8189.4125    307.69055    15132 
293000000   -2899.0193    6540.5648    12857.875    1141.2686    8298.3155    308.13278    15180 
294000000   -2950.1878    6577.0687    12966.957    1216.8645     8310.392    310.74687    15168 
295000000    -2943.484    6491.1916     12769.36    1247.6202    8187.0554    306.01154    15138 
296000000   -2949.4816    6475.2229    13017.959    1208.2578    8216.4468    311.96909    15146 
297000000   -2937.8264    6455.7772    12838.461    1241.4542    8152.1494    307.66752    15132 
298000000   -2936.7246     6454.664    12970.259     1215.224    8176.1646    310.82599    15171 
299000000   -2976.7746    6422.1244     12952.59    1245.7706    8153.1283    310.40256    15137 
300000000   -2982.6898    6459.8559    12903.671    1203.1047     8239.441    309.23025    15171 
301000000   -2950.2353    6527.6073    12917.313    1265.8154    8212.0272    309.55718    15166 
302000000    -2947.001    6423.1666    13075.737    1262.2785     8107.889    313.35372    15148 
303000000   -2858.6343    6530.1127    12848.773    1214.8839    8173.8631    307.91464    15137 
304000000    -2941.741    6446.5941      12871.4    1195.8778    8192.4573    308.45689    15161 
305000000   -2822.6483    6589.0596    12890.669    1182.5703    8229.1376    308.91866    15154 
306000000    -2944.827    6510.4093    13003.966    1228.8255    8226.4107    311.63376    15155 
307000000   -2917.1171    6464.7232    12922.949    1199.8593    8181.9809    309.69224    15166 
308000000   -2908.0927     6447.724    12936.346    1219.5644    8136.2523    310.01328    15144 
309000000    -2909.673    6422.3789     13026.16    1195.9675    8136.0844    312.16564    15141 
310000000   -2999.7793    6372.0563    12737.783    1304.3021    8067.5336    305.25483    15124 
311000000   -2944.4101     6342.664    12903.224    1100.3941    8186.6801    309.21953    15205 
312000000   -2982.6997    6397.1293    13060.388    1233.8338    8145.9952    312.98589    15156 
313000000   -2953.4149    6403.3483    12882.765    1179.7165    8177.0467    308.72924    15160 
314000000   -2798.1951    6758.6578    13045.084    1356.4641    8200.3888    312.61915    15109 
315000000   -2951.9177     6427.709    12955.484    1221.6066    8158.0201    310.47193    15142 
316000000   -2984.6574    6330.6523    12783.867    1142.6802    8172.6294     306.3592    15159 
317000000   -2940.7335    6490.4689    12996.142    1156.8642    8274.3381    311.44628    15146 
318000000   -3064.3832    6288.3979    12901.837    1196.6225    8156.1585    309.18629    15157 
319000000   -3026.4235    6271.7438    12959.619    1127.0582    8171.1091    310.57101    15172 
320000000   -2951.3103    6490.8018    12879.054    1138.6757    8303.4364     308.6403    15158 
321000000   -3016.4852    6309.2713    12880.799    1187.9654    8137.7911    308.68213    15178 
322000000   -3082.0651    6450.4255    12900.712    1250.6088    8281.8818    309.15934    15160 
323000000   -2910.4093    6611.2256    12941.684    1390.7578    8130.8772     310.1412    15117 
324000000   -3060.5069    6396.2478    12908.333    1204.8896    8251.8651    309.34196    15141 
325000000   -2972.8723    6459.0632    12945.623    1194.7812    8237.1543    310.23561    15159 
326000000   -2898.6276    6542.0032    12888.299    1307.2015    8133.4293    308.86186    15129 
327000000   -2958.8724     6436.373    12864.912    1270.6126    8124.6328    308.30141    15162 
328000000   -2909.7667    6587.7092    13018.709    1258.8798    8238.5962    311.98708    15128 
329000000   -2916.1732    6436.1378    12867.634     1143.523     8208.788    308.36665    15162 
330000000   -2953.4885     6439.517    12808.736     1237.135    8155.8705    306.95518    15137 
331000000   -2961.3649    6373.4925     12923.55    1196.4275    8138.4299    309.70663    15165 
332000000   -2912.3614     6498.532    12909.592     1170.422    8240.4714    309.37213    15183 
333000000   -2911.9822    6608.6141    12887.247    1304.0152    8216.5811    308.83665    15119 
334000000     -2949.72      6712.02    13035.009    1261.8641    8399.8759     312.3777    15138 
335000000   -2921.0406    6419.2306    13035.868    1155.4255    8184.8458    312.39827    15186 
336000000   -2868.9656    6457.7363    12971.317    1103.3005    8223.4014    310.85136    15185 
337000000     -2812.16    6434.3366    12897.499    1170.0327    8076.4639    309.08234    15130 
338000000   -2988.0756    6361.3325    12842.058    1164.0243    8185.3838    307.75371    15154 
339000000   -2977.9656    6563.2867    12954.587    1256.5249    8284.7275    310.45042    15146 
340000000   -2961.6157    6530.8596    13002.985    1236.0358    8256.4395    311.61027    15157 
341000000   -2832.4635    6474.2325    12876.561    1152.4431    8154.2529    308.58056    15183 
342000000   -2891.5376    6481.2101    12920.742    1193.2141    8179.5336    309.63934    15134 
343000000   -2975.1366    6324.9012    13064.119    1161.2272    8138.8106    313.07531    15185 
344000000   -2979.8807     6510.269     13108.18    1227.1526    8262.9971     314.1312    15154 
345000000   -2889.8128    6542.9073    12759.705    1105.8455    8326.8747    305.78016    15186 
346000000   -2970.4728    6628.2038    12889.216    1271.8843    8326.7922    308.88384    15126 
347000000   -2883.6358    6704.6889    12913.125    1250.6486    8337.6761    309.45681    15138 
348000000   -2848.9854    6370.0683    12896.262    1099.1071    8119.9465    309.05269    15199 
349000000   -2902.8939    6561.5233    13049.697    1222.8426    8241.5746     312.7297    15164 
350000000   -2899.5686    6431.3918    12972.874     1122.248    8208.7124    310.88867    15163 
351000000   -2889.5784      6607.16    12913.607    1272.2805    8224.4579    309.46837    15152 
352000000   -2842.2949     6723.902    12821.274    1303.5804    8262.6165    307.25565    15133 
353000000   -2931.6978     6583.679    12982.468    1241.6424    8273.7344    311.11857    15156 
354000000   -3061.8957    6246.4031     12856.21    1160.7469    8147.5519    308.09287    15188 
355000000   -2934.7227    6590.1712    13011.957    1238.0982    8286.7957    311.82526    15140 
356000000   -2921.4545    6649.1572    12852.742    1364.8626    8205.7491    308.00975    15142 
357000000   -2893.1192    6375.2339    12871.158    1118.9379    8149.4152     308.4511    15181 
358000000     -2942.29    6481.6633    13150.211    1268.0657    8155.8876    315.13846    15154 
359000000   -2974.4428     6523.979    12827.391    1231.1511    8267.2707    307.40224    15152 
360000000   -2998.3397    6374.9379    12927.718    1219.8754    8153.4022    309.80652    15146 
361000000   -3046.5516    6421.4003    13056.043    1193.4694    8274.4825    312.88176    15160 
362000000   -2888.2054    6601.7824    12885.792    1277.1396    8212.8482    308.80178    15145 
363000000   -2848.9214    6664.5741    12865.504    1295.9632    8217.5324     308.3156    15129 
364000000    -2859.158    6666.8838    12873.182    1249.5215    8276.5203     308.4996    15114 
365000000   -2867.5616    6549.2869    12864.642     1240.498    8176.3505    308.29493    15132 
366000000   -2947.0416    6601.8511    12906.913    1264.9196     8283.973    309.30795    15118 
367000000   -2891.9926    6660.7898    12893.524     1317.299    8235.4834    308.98708    15147 
368000000   -2893.0184     6571.374    12992.565    1178.4878    8285.9046    311.36055    15167 
369000000   -2951.6087    6441.0831     12853.63    1218.6012    8174.0907    308.03104    15164 
370000000    -2940.167    6583.7401    12831.047    1269.0157    8254.8913    307.48985    15167 
371000000   -2934.6229     6507.008     12728.71    1159.5766    8282.0544    305.03738    15153 
372000000   -2969.5964     6625.182    12866.286    1300.8307    8293.9477    308.33433    15159 
373000000   -3004.9689     6316.834    12985.836    1225.7153    8096.0876    311.19929    15141 
374000000   -2942.5092    6445.3872    12843.145    1138.1595    8249.7368    307.77977    15182 
375000000   -2969.7143    6594.0357    12951.627    1326.8298    8236.9201    310.37949    15128 
376000000   -2939.8601    6232.2741    12854.644    1103.9309    8068.2034    308.05533    15176 
377000000   -2917.1035    6578.4095    12778.618    1259.8954    8235.6177     306.2334    15146 
378000000   -2866.2076    6631.4594    12943.182    1266.9664    8230.7006     310.1771    15137 
379000000   -2963.1211    6602.2632    12873.144    1190.2699    8375.1144    308.49868    15146 
380000000   -2980.7912    6426.9903    12888.132    1215.5698    8192.2118    308.85785    15155 
381000000   -2899.9058    6583.3097    12972.538    1219.9732    8263.2423    310.88061    15152 
382000000   -2942.9606    6605.6986    13018.394    1321.3305    8227.3288    311.97952    15155 
383000000   -2985.1958     6470.066    12857.184    1111.1033    8344.1586     308.1162    15176 
384000000   -2953.7772    6554.7467     12778.91    1174.1723    8334.3517    306.24042    15164 
385000000   -2886.9706    6322.1246    13045.577    1151.9588    8057.1364    312.63094    15177 
386000000    -2945.087    6428.7661    12849.318    1178.5833    8195.2698    307.92769    15169 
387000000   -3020.1821    6449.6004    12971.413    1241.9034    8227.8792    310.85366    15173 
388000000   -3005.5293     6385.054    12947.199    1229.0983     8161.485    310.27338    15157 
389000000    -2886.027    6516.3721     12809.82    1251.2922    8151.1069    306.98116    15162 
390000000   -3033.1541    6354.4302    13123.376    1206.9019    8180.6824    314.49536    15148 
391000000   -2976.2755    6377.7844    12992.742    1173.6656    8180.3943    311.36478    15168 
392000000   -2931.1164    6434.6008    13044.751     1127.038    8238.6791    312.61115    15171 
393000000   -3041.1507    6288.3372    12914.665    1118.1567    8211.3313    309.49371    15155 
394000000   -2873.3579    6498.1965    12973.264    1176.5235    8195.0309    310.89801    15144 
395000000    -2881.609    6211.8242    12943.717    1129.9353    7963.4979    310.18993    15165 
396000000   -3124.3769    6310.7789    13036.834    1196.1815    8238.9743    312.42143    15188 
397000000    -2989.549    6285.5608    12951.966    1175.8738    8099.2359    310.38761    15165 
398000000   -2994.6265    6410.4837    12893.989    1160.4189    8244.6913    308.99822    15153 
399000000   -2804.9323    6619.9731    12812.669    1186.0761    8238.8294    307.04943    15161 
400000000   -2887.9328    6555.6873    12891.507    1233.3953    8210.2248    308.93874    15167 
401000000   -2894.9571    6581.8101    12828.683    1145.2253    8331.5419    307.43319    15172 
402000000   -2888.8927    6591.5371    12889.509    1283.4295    8197.0003    308.89085    15143 
445000000   -2954.0664    6351.6109    13126.621    1211.9706    8093.7067    314.57313    15162 
