LAMMPS (5 Jun 2019)
Reading data file ...
  orthogonal box = (-420 -420 -420) to (420 420 420)
  2 by 2 by 7 MPI processor grid
  reading atoms ...
  14000 atoms
  scanning bonds ...
  51 = max bonds/atom
  scanning angles ...
  1 = max angles/atom
  reading bonds ...
  13800 bonds
  reading angles ...
  13600 angles
Finding 1-2 1-3 1-4 neighbors ...
  special bond factors lj:   0          0          0         
  special bond factors coul: 0          0          0         
  2 = max # of 1-2 neighbors
  2 = max # of 1-3 neighbors
  4 = max # of 1-4 neighbors
  56 = max # of special neighbors
  special bonds CPU = 0.00223966 secs
  read_data CPU = 0.0414719 secs
Finding 1-2 1-3 1-4 neighbors ...
  special bond factors lj:   1          1          1         
  special bond factors coul: 0          0          0         
  2 = max # of 1-2 neighbors
  2 = max # of 1-3 neighbors
  4 = max # of 1-4 neighbors
  56 = max # of special neighbors
  special bonds CPU = 0.000762906 secs
WARNING: Using 'neigh_modify every 1 delay 0 check yes' setting during minimization (../min.cpp:168)
Neighbor list info ...
  update every 1 steps, delay 0 steps, check yes
  max neighbors/atom: 2000, page size: 100000
  master list distance cutoff = 26.9
  ghost atom cutoff = 26.9
  binsize = 13.45, bins = 63 63 63
  1 neighbor lists, perpetual/occasional/extra = 1 0 0
  (1) pair lj/cut, perpetual
      attributes: half, newton on
      pair build: half/bin/newton
      stencil: half/bin/3d/newton
      bin: standard
Setting up cg style minimization ...
  Unit style    : real
  Current step  : 0
Per MPI rank memory allocation (min/avg/max) = 1.164 | 13.81 | 17.68 Mbytes
Step Temp E_pair E_mol TotEng Press 
       0            0 2.4262116e+12      2649600 2.4262142e+12 1.1227655e+09 
    7035            0   -6144.0854    5742.4468   -401.63854  -0.02117856 
Loop time of 2.15096 on 28 procs for 7035 steps with 14000 atoms

99.2% CPU use with 28 MPI tasks x no OpenMP threads

Minimization stats:
  Stopping criterion = energy tolerance
  Energy initial, next-to-last, final = 
     2.42621421633e+12     -401.614938723     -401.638544729
  Force two-norm initial, final = 2.10957e+10 0.584999
  Force max component initial, final = 1.04817e+09 0.0848794
  Final line search alpha, max atom move = 0.948135 0.0804771
  Iterations, force evaluations = 7035 9919

MPI task timing breakdown:
Section |  min time  |  avg time  |  max time  |%varavg| %total
---------------------------------------------------------------
Pair    | 0.15849    | 0.51127    | 0.93998    |  32.3 | 23.77
Bond    | 0.0457     | 0.12678    | 0.2077     |  12.3 |  5.89
Neigh   | 0.26008    | 0.2646     | 0.27025    |   0.4 | 12.30
Comm    | 0.35736    | 0.7838     | 1.2228     |  28.5 | 36.44
Output  | 0          | 0          | 0          |   0.0 |  0.00
Modify  | 0          | 0          | 0          |   0.0 |  0.00
Other   |            | 0.4645     |            |       | 21.60

Nlocal:    500 ave 824 max 176 min
Histogram: 2 2 4 3 3 2 5 4 0 3
Nghost:    338.464 ave 536 max 168 min
Histogram: 3 4 2 2 3 6 2 2 2 2
Neighs:    5465.89 ave 9884 max 1749 min
Histogram: 2 7 2 3 1 3 2 3 3 2

Total # of neighbors = 153045
Ave neighs/atom = 10.9318
Ave special neighs/atom = 5.82857
Neighbor list builds = 571
Dangerous builds = 0
Setting up Verlet run ...
  Unit style    : real
  Current step  : 7035
  Time step     : 0.1
Per MPI rank memory allocation (min/avg/max) = 1.128 | 14 | 16.55 Mbytes
Step Temp E_pair E_mol TotEng Press 
    7035            0   -6144.0854    5742.4468   -401.63854  -0.02117856 
   17035    215.74773    -4846.882    9432.7048    13588.622   -1.0408703 
Loop time of 1.60783 on 28 procs for 10000 steps with 14000 atoms

Performance: 53.737 ns/day, 0.447 hours/ns, 6219.550 timesteps/s
99.4% CPU use with 28 MPI tasks x no OpenMP threads

MPI task timing breakdown:
Section |  min time  |  avg time  |  max time  |%varavg| %total
---------------------------------------------------------------
Pair    | 0.086335   | 0.31419    | 0.64255    |  29.7 | 19.54
Bond    | 0.037768   | 0.10719    | 0.17497    |  11.6 |  6.67
Neigh   | 0.0021872  | 0.0022567  | 0.0023428  |   0.1 |  0.14
Comm    | 0.32359    | 0.65985    | 0.94204    |  22.7 | 41.04
Output  | 7.7664e-05 | 0.00010233 | 0.00013037 |   0.0 |  0.01
Modify  | 0.090337   | 0.25072    | 0.41188    |  17.3 | 15.59
Other   |            | 0.2735     |            |       | 17.01

Nlocal:    500 ave 822 max 173 min
Histogram: 2 2 4 3 3 2 4 5 0 3
Nghost:    338.714 ave 536 max 165 min
Histogram: 3 3 2 2 4 6 2 2 2 2
Neighs:    5460.07 ave 9914 max 1693 min
Histogram: 2 6 3 3 1 4 1 3 3 2

Total # of neighbors = 152882
Ave neighs/atom = 10.9201
Ave special neighs/atom = 5.82857
Neighbor list builds = 4
Dangerous builds = 0
4000 atoms in group rxnSites
Neighbor list info ...
  update every 1 steps, delay 1 steps, check yes
  max neighbors/atom: 2000, page size: 100000
  master list distance cutoff = 26.9
  ghost atom cutoff = 26.9
  binsize = 13.45, bins = 63 63 63
  2 neighbor lists, perpetual/occasional/extra = 1 1 0
  (1) pair lj/cut, perpetual
      attributes: half, newton on
      pair build: half/bin/newton
      stencil: half/bin/3d/newton
      bin: standard
  (2) fix bond/create/random, occasional, copy from (1)
      attributes: half, newton on
      pair build: copy
      stencil: none
      bin: none
Setting up Verlet run ...
  Unit style    : real
  Current step  : 0
  Time step     : 25
Per MPI rank memory allocation (min/avg/max) = 17.88 | 18.29 | 18.88 Mbytes
Step E_pair PotEng KinEng E_bond E_angle Temp Bonds 
       0    -4846.882    4585.8228     9002.799    3082.4857    6350.2191    215.74773    13800 
 1000000   -2371.7127    4107.9524    12994.644   -2163.2686    8642.9337    311.41037    15205 
 2000000   -2640.9259    3343.5665    12997.164   -2636.0524    8620.5448    311.47076    15298 
 3000000   -2740.9176    2819.3952    13008.957   -2994.6385    8554.9512    311.75337    15364 
 4000000   -2846.0388    2863.9228    13117.031   -3035.6093     8745.571    314.34332    15418 
 5000000   -2898.5581    2458.5398    13021.893   -3263.5665    8620.6644    312.06337    15433 
 6000000   -3019.3019    2108.0164    12958.301   -3375.5617      8502.88    310.53942    15467 
 7000000   -3131.6688    1746.6743    12851.404   -3672.6537    8550.9968     307.9777    15499 
 8000000   -3111.9595    1936.2908    13105.183   -3514.7374    8562.9877    314.05938    15487 
 9000000   -3113.8537    1773.4052    13045.999   -3610.0823    8497.3412    312.64107    15497 
10000000   -3231.6168    1652.1492    13055.531   -3567.8055    8451.5715     312.8695    15502 
11000000   -3239.2034    1710.6342    12873.077   -3592.0547    8541.8923    308.49708    15531 
12000000   -3243.3435    1653.8143    12959.727   -3635.1592     8532.317    310.57361    15523 
13000000   -3314.0511    1511.6538    12926.462   -3675.4543    8501.1591    309.77641    15545 
14000000   -3362.4571    1292.6929    12835.675   -3772.9423    8428.0924    307.60074    15544 
15000000   -3410.7647    1326.2889     12903.21   -3734.3238    8471.3773     309.2192    15541 
16000000   -3407.9639    1297.3734     13016.73   -3795.7708    8501.1081    311.93964    15551 
17000000   -3312.8211      1469.28    13010.847   -3685.5131    8467.6142    311.79868    15541 
18000000    -3495.614     1138.371    12961.542   -3865.2279     8499.213     310.6171    15559 
19000000   -3350.5697    1282.7986    12852.054   -3873.2584    8506.6268    307.99328    15562 
20000000   -3469.7687    1106.5449    13014.737   -3860.5571    8436.8707    311.89189    15556 
21000000   -3503.8814    1171.6866    12859.611   -3818.7954    8494.3634    308.17437    15572 
22000000   -3530.7341     1053.252    12950.579   -3874.0622    8458.0482    310.35438    15560 
23000000    -3604.124     885.3595    12808.209   -3951.3332    8440.8167    306.94255    15574 
24000000   -3580.1694    990.45389    12990.667   -3900.9736    8471.5969    311.31507    15565 
25000000   -3638.1316    947.32294    13082.209   -3864.6442    8450.0988    313.50881    15563 
26000000   -3597.6558    1149.9268    13136.042    -3840.593    8588.1757    314.79891    15575 
27000000   -3662.4594    911.78427    12991.904   -3823.3738    8397.6175    311.34472    15578 
28000000   -3668.9099    897.15219     12788.76   -3869.0219     8435.084    306.47645    15576 
29000000   -3645.2569    944.77722    13273.388   -3927.2701    8517.3042    318.09032    15581 
30000000   -3615.5153    958.88251    12834.594   -3979.8911    8554.2889    307.57484    15578 
31000000   -3732.8171    693.54467    12932.865   -4009.9926    8436.3543    309.92987    15589 
32000000   -3644.7737      1052.13     12876.19   -3827.9873     8524.891    308.57169    15577 
33000000   -3578.4187    793.04391    12961.341   -4000.8285    8372.2912    310.61228    15594 
34000000   -3769.6132    726.19131    12933.969   -3879.3111    8375.1156    309.95632    15583 
35000000   -3600.0837    1026.6975    12987.097   -3833.0521    8459.8333    311.22951    15577 
36000000   -3732.0436    793.75929    12926.327   -3869.8636    8395.6665    309.77318    15574 
37000000   -3740.7727    500.10542    13044.293   -4006.4612    8247.3394    312.60019    15585 
38000000   -3785.5685     855.5204    12944.941   -3899.2567    8540.3456    310.21925    15585 
39000000   -3883.2917    531.05712    13017.385   -3974.7854    8389.1343    311.95534    15579 
40000000   -3854.1162    697.30693    13023.823   -3921.5903    8473.0134    312.10962    15583 
41000000   -3830.9944    545.92159    12959.463   -3969.5402    8346.4562    310.56728    15579 
42000000   -3864.3495    629.57222    13017.177   -4004.1191    8498.0409    311.95035    15594 
43000000   -3838.5394    451.10639    13010.249   -4055.6019    8345.2478    311.78434    15594 
44000000   -3872.6123    494.32246    12956.507   -4029.8725    8396.8072    310.49643    15586 
45000000   -3777.9354     801.2714     13060.71   -3843.1408    8422.3476    312.99362    15573 
46000000   -3901.6381    517.24915     12811.01   -3916.4099    8335.2971    307.00967    15603 
47000000    -4000.147    463.17503    13000.561   -4034.7312    8498.0532    311.55218    15601 
48000000   -3888.2103    558.76835     12930.69   -3994.0428    8441.0214    309.87775    15587 
49000000   -3898.5392    462.93114    12723.607   -3968.4201    8329.8904    304.91511    15586 
50000000   -3960.4725    275.05949    13026.318   -4140.9371    8376.4691    312.16942    15602 
51000000   -3923.2757    581.23339    12921.051   -3985.5995    8490.1087    309.64675    15602 
52000000   -3910.9835    405.74523    12916.747   -4059.2507    8375.9795    309.54361    15589 
53000000    -3848.181     441.3467    12887.076   -4088.6607    8378.1884    308.83255    15605 
54000000   -3855.6644    411.04058    12912.226   -4112.9641    8379.6691    309.43527    15605 
55000000   -3912.4526     319.8368    12887.767   -4109.7111    8342.0006    308.84912    15609 
56000000   -3998.1322    464.24325    12800.222   -3923.7061    8386.0816    306.75115    15592 
57000000   -3914.0871    397.60617     12874.23   -3997.6314    8309.3247     308.5247    15604 
58000000   -3969.5272    356.46572    12857.314   -4012.8557    8338.8486    308.11932    15618 
59000000   -3974.2997    273.54903     12927.05   -4129.1033     8376.952    309.79051    15618 
60000000   -3942.6521    491.69351    13024.221   -4026.4388    8460.7843    312.11918    15608 
61000000   -4034.0939    265.28333    12906.208   -4108.0777     8407.455    309.29105    15610 
62000000   -4031.4027    234.73861    13127.961   -4073.3392    8339.4805    314.60526    15612 
63000000   -4029.2395    178.54227     13037.05   -4149.7221    8357.5038    312.42661    15624 
64000000   -4021.8275    42.023894    12757.528    -4207.827    8271.6783    305.72799    15628 
65000000   -4015.3269    211.18416      12914.1    -4091.022     8317.533    309.48018    15616 
66000000   -4045.5617    122.74405    12874.082   -4150.6955    8319.0012    308.52116    15632 
67000000    -4034.623     142.0881    12963.389   -4171.6191    8348.3302    310.66136    15623 
68000000   -4109.3435    250.66198    12905.837   -3987.1624    8347.1679    309.28215    15626 
69000000   -4113.3526    120.71558    12814.113   -4138.5786    8372.6468    307.08404    15625 
70000000   -4096.3872     178.6781    12801.563   -4111.3504    8386.4157    306.78328    15622 
71000000   -4112.7405    89.883884    12823.308   -4125.5013    8328.1257    307.30439    15624 
72000000   -4101.1323    164.33936    13050.463    -4060.359    8325.8307    312.74806    15614 
73000000   -4089.3427    89.561274    12688.057    -4063.646      8242.55    304.06316    15608 
74000000   -4172.5536    22.972302    12961.636   -4144.5841      8340.11    310.61935    15634 
75000000   -4075.8433    183.13182    13099.189   -4104.9748    8363.9499    313.91575    15625 
76000000   -4096.0101    15.680861    13056.047   -4160.7239    8272.4148    312.88187    15630 
77000000   -4005.2288    282.88358    12934.291   -4026.2948    8314.4071    309.96404    15608 
78000000   -4122.4532   -30.628469    12801.345   -4141.0818    8232.9065    306.77805    15626 
79000000   -4101.5336   -63.728735    12999.555   -4252.8685    8290.6734    311.52806    15638 
80000000   -4128.0597   -66.487362    12893.402    -4252.211    8313.7834    308.98416    15633 
81000000   -4034.9517    102.94524    12980.449   -4113.9532    8251.8501    311.07019    15614 
82000000   -4106.3468    77.428143    12985.928   -4226.5009    8410.2758    311.20148    15624 
83000000   -4068.1838   -10.683156    13018.879   -4110.0492    8167.5498    311.99114    15633 
84000000   -4049.2202     110.1659    12949.728   -4178.4097    8337.7958    310.33398    15610 
85000000   -4079.9316    78.035783    12897.573   -4201.7551    8359.7225    309.08412    15637 
86000000   -4118.8406   -15.225453    12848.029   -4170.1073    8273.7224    307.89682    15627 
87000000   -4142.7083   -72.114767    12952.947   -4209.7713    8280.3648    310.41111    15633 
88000000   -4181.7964   -93.784083    12901.453   -4245.0719    8333.0843    309.17709    15637 
89000000   -4159.1689    84.437955    12906.093   -4088.7068    8332.3137     309.2883    15625 
90000000   -4061.7768   0.60994409    12886.518   -4207.4402    8269.8269    308.81918    15642 
91000000   -4148.9061   -15.061318    12873.161   -4131.7692     8265.614    308.49909    15624 
92000000   -4054.3096     78.97722    12952.788   -4101.2409    8234.5278    310.40731    15624 
93000000   -4075.8305   -12.835663    12806.648   -4211.7873    8274.7821    306.90514    15640 
94000000   -4072.3622    8.6089757    12930.696   -4170.5964    8251.5675     309.8779    15639 
95000000    -4204.295   -101.11114    12857.988   -4193.0002    8296.1841    308.13549    15627 
96000000   -4099.3118    -71.85253    12883.323   -4235.4045    8262.8639    308.74262    15632 
97000000    -4120.495   -22.711806    13091.226   -4160.6472    8258.4304    313.72491    15630 
98000000   -4054.4372    105.48609    12890.546   -4136.0522    8295.9754    308.91571    15629 
99000000   -4142.9598   -18.445703    13071.912   -4231.0643    8355.5784    313.26207    15645 
100000000   -4100.0431   -61.817426    12962.297   -4232.2706    8270.4963    310.63518    15643 
101000000   -4156.6562   -5.9171696    13051.587   -4088.8608    8239.5998    312.77499    15636 
102000000   -4118.8679   -82.957647    12924.295   -4215.9239    8251.8342    309.72449    15638 
103000000   -4049.8016     132.9884    12988.739   -4152.3522    8335.1423    311.26886    15635 
104000000   -4058.7043    280.94575    13007.232   -4122.6778    8462.3278    311.71203    15625 
105000000   -4147.8635    35.459006    13014.831   -4130.5017    8313.8242    311.89415    15623 
106000000   -4060.3278   -59.496281     12851.25    -4201.608    8202.4396      307.974    15634 
107000000   -4143.3024    172.48206    13097.843   -4080.7375    8396.5219    313.88348    15621 
108000000   -4167.2268     -47.2436    12944.774   -4179.1622    8299.1454    310.21527    15641 
109000000   -4132.7965   -19.303244    12953.447   -4224.3324    8337.8256    310.42311    15646 
110000000   -4095.6051    116.51113    13047.417   -4179.7376    8391.8539    312.67505    15634 
111000000   -4141.9059   -101.62655    12899.634   -4200.3953    8240.6747    309.13349    15644 
112000000   -4116.8612   -117.36643    12873.578   -4199.7563    8199.2511    308.50909    15633 
113000000   -4140.2625   -98.566617    12919.529   -4198.9728    8240.6687    309.61027    15637 
114000000    -4052.389    34.805146    13000.143   -4237.6202    8324.8143    311.54215    15630 
115000000   -4017.4606    94.394196    12809.711   -4087.2767    8199.1314    306.97854    15624 
116000000   -4099.1111    43.084935    12878.472   -4156.3874    8298.5833    308.62636    15623 
117000000   -4133.6862   -137.72025     12999.96    -4180.133    8176.0989    311.53777    15631 
118000000   -4235.4942   -126.51152    12884.082   -4148.7257    8257.7084     308.7608    15636 
119000000   -4230.3469   -232.64157    13004.105   -4118.3398    8116.0452    311.63711    15641 
120000000   -4231.9423   -230.29109    12990.496   -4235.5064    8237.1576    311.31097    15640 
121000000   -4090.1395    55.395499    12820.796   -4129.1338    8274.6688    307.24419    15627 
122000000   -4206.9908     -184.263    12941.557   -4246.1814    8268.9092    310.13817    15647 
123000000   -4158.9721   -156.67626    12828.323   -4179.5912     8181.887    307.42457    15642 
124000000   -4189.7708   -229.72887    12849.411   -4228.0117    8188.0537    307.92993    15650 
125000000   -4158.1987   -53.217184    13031.472   -4194.1255    8299.1071    312.29294    15633 
126000000   -4144.3108   -104.69565    12921.127   -4212.0196    8251.6348    309.64856    15624 
127000000   -4196.1245   -268.33654    12879.865   -4355.9988    8283.7867    308.65974    15645 
128000000    -4189.212   -72.669724    12869.342   -4128.5885    8245.1307    308.40756    15621 
129000000   -4148.9674   -91.239656    12783.334   -4205.2442     8262.972    306.34644    15636 
130000000   -4231.5589   -276.99095    13000.877   -4243.9598    8198.5277    311.55974    15643 
131000000   -4172.3123     92.96772     12974.69   -4074.7721    8340.0521    310.93218    15621 
132000000   -4127.7658    -59.45049    12860.283   -4098.6823    8166.9976    308.19047    15629 
133000000   -4148.8867   -171.14414    12931.023   -4252.4629    8230.2054    309.88572    15638 
134000000   -4076.3766   -14.230766    12918.055   -4164.1898    8226.3356    309.57494    15628 
135000000   -4129.9738   -117.78569    12948.396    -4254.047    8266.2351    310.30206    15637 
136000000   -4126.3772   -182.79906    12932.072   -4321.6538     8265.232    309.91085    15649 
137000000   -4184.7276   -57.818044    13069.504    -4142.803    8269.7125    313.20436    15638 
138000000   -4180.2751   -48.773235    12903.609   -4145.8853    8277.3872    309.22875    15616 
139000000   -4102.7403   -103.63665    12992.339   -4259.2425    8258.3462    311.35514    15643 
140000000   -4106.9828    117.22309     12725.63   -4151.3385    8375.5444    304.96359    15632 
141000000   -4171.8866   -51.321114    12985.224   -4174.5872    8295.1527    311.18462    15635 
142000000   -4100.8735   -276.88031     12994.39   -4348.9857     8172.979    311.40429    15643 
143000000   -4178.2141   -101.17974    13075.579   -4098.9724    8176.0068    313.34995    15628 
144000000    -4061.494    -34.47485    12993.049   -4094.7466    8121.7657    311.37216    15627 
145000000   -4116.8564    46.211367    12938.225   -4117.9657    8281.0335    310.05833    15632 
146000000   -4097.4183   -68.184866    13023.293   -4259.3542    8288.5876    312.09692    15631 
147000000    -4119.956    64.828264    12876.771   -4140.6435    8325.4277    308.58559    15640 
148000000   -4161.5389    35.219923    12767.808   -4177.9208    8374.6797    305.97435    15631 
149000000   -4163.9966    -78.61362    12936.136   -4147.8696    8233.2526    310.00825    15626 
150000000   -4100.6548   -48.215863    13062.798   -4160.7342    8213.1731    313.04365    15628 
151000000   -4096.5382    88.129159     12962.77    -4129.729    8314.3963    310.64653    15626 
152000000   -4119.1202   -72.012126    12988.783   -4210.0635    8257.1715    311.26991    15639 
153000000   -4141.0268   -29.864632    12795.676   -4164.1513    8275.3134     306.6422    15628 
154000000    -4097.162   -89.597331    12789.976     -4180.05    8187.6147     306.5056    15631 
155000000   -4129.7858    37.203288     12993.42   -4058.8295    8225.8187    311.38103    15622 
156000000   -4188.3203   -18.631296    13013.409   -4088.4885    8258.1775    311.86006    15632 
157000000   -4114.2817   -132.00275    13083.528   -4260.0853    8242.3643    313.54043    15647 
158000000   -4285.7865   -58.236895    12939.265   -4135.8066    8363.3562    310.08323    15617 
159000000   -4232.3927   -179.82894    12855.701    -4228.179    8280.7428    308.08067    15641 
160000000   -4130.5692   -219.66472     12942.09   -4285.0673    8195.9718    310.15094    15634 
161000000   -4141.5316    68.711154    13064.193   -4136.5644    8346.8072    313.07709    15627 
162000000   -4074.6095   -11.405063    12916.243    -4265.584    8328.7884    309.53152    15638 
163000000   -4060.4417    32.380806    12820.679    -4200.938    8293.7605    307.24138    15638 
164000000   -4156.1626    8.8842563    12987.137   -4211.2936    8376.3405    311.23046    15632 
165000000   -4102.1751   -108.08971    12907.405   -4250.4184    8244.5038    309.31973    15645 
166000000   -4063.7498    185.59702    13007.279   -4125.3787    8374.7255    311.71317    15635 
167000000   -4056.1443    122.94975    12966.145   -4065.5437    8244.6378    310.72741    15628 
168000000   -4123.7543    59.048281    12933.673   -4208.3582    8391.1608    309.94924    15641 
169000000   -4099.6153   -4.3527583    12865.332    -4273.994    8369.2566    308.31146    15656 
170000000   -4141.4771   -140.84325    13015.571   -4166.6078    8167.2416    311.91188    15636 
171000000   -4190.9968   -197.47156    12958.343   -4152.6915    8146.2168    310.54045    15630 
172000000   -4126.1831   -75.940701    12783.347    -4176.228    8226.4704    306.34673    15641 
173000000   -4156.0424    21.981794    12956.417   -4157.6033    8335.6275    310.49428    15634 
174000000   -4190.9578   -103.49399     12948.81   -4261.8143     8349.278    310.31197    15647 
175000000   -4071.0824   -191.18228    12829.227   -4307.7088    8187.6089    307.44623    15643 
176000000   -4145.9469    7.6854806    12902.957   -4161.9381    8315.5705    309.21313    15628 
177000000   -4072.5843    19.804655    12950.818   -4136.2087    8228.5976    310.36009    15637 
178000000   -4218.0232   -41.201375    12909.916   -4103.4599    8280.2817    309.37991    15617 
179000000   -4213.0228   -177.23618    12967.079   -4170.8589    8206.6455    310.74979    15632 
180000000   -4154.7054   -104.96085    12768.535   -4146.6373    8196.3819    305.99178    15635 
181000000   -4183.6671   -109.58179    12952.922   -4147.5579    8221.6432    310.41053    15639 
182000000   -4171.0097   -138.48445    12867.495   -4198.8583    8231.3836    308.36331    15628 
183000000   -4207.0126   -279.07146    12901.972   -4210.8839     8138.825    309.18952    15633 
184000000   -4117.0679   -88.119172    12887.167   -4192.2185    8221.1673    308.83473    15627 
185000000   -4122.3549    34.104137    13059.085   -4241.9919     8398.451    312.95468    15639 
186000000   -4069.6319   -18.921892    13013.507   -4121.7663    8172.4764    311.86241    15639 
187000000   -4171.0825   -111.47716     13210.54   -4103.5618    8163.1672    316.58421    15621 
188000000   -4233.8917    -177.3735    13031.985   -4222.9901    8279.5084    312.30524    15632 
189000000   -4098.8074    15.617181    12900.223   -4121.2099    8235.6344    309.14761    15617 
190000000   -4073.3993    -21.62879    13055.228   -4260.5825    8312.3531    312.86223    15643 
191000000   -4192.1702   -94.317713     12895.72   -4202.6389    8300.4913    309.03971    15634 
192000000   -4128.2645   -86.189154    12864.762   -4191.1113    8233.1866    308.29781    15639 
193000000   -4140.6818   -79.731714    12924.561   -4297.9847    8358.9348    309.73085    15651 
194000000   -4120.9681   -195.25586    12998.058   -4322.9882    8248.7004    311.49218    15646 
195000000   -4123.2077   -47.727261    12956.649   -4248.7958    8324.2763    310.49985    15647 
196000000   -4158.6747   -276.27086    12971.059   -4286.7712     8169.175    310.84517    15655 
197000000   -4181.3556    -250.8255    12963.422   -4271.5225    8202.0527    310.66215    15646 
198000000   -4103.5831   -50.482768    13080.526    -4248.089    8301.1894    313.46848    15636 
199000000   -4248.1277    -169.3437    12858.686   -4223.6006    8302.3846    308.15221    15652 
200000000   -4125.4422    5.8061845    12920.283   -4147.1205    8278.3689    309.62833    15628 
201000000   -4267.6393     -139.412    12895.096   -4158.3616    8286.5889    309.02476    15652 
202000000   -4044.8295    53.950945     12949.39   -4186.5344    8285.3148    310.32587    15635 
203000000   -4161.2263   -137.42171    12894.053   -4276.5036    8300.3082    308.99975    15641 
204000000   -4134.1499   -29.512063    12909.873   -4196.4199    8301.0577    309.37887    15640 
205000000   -4122.1055    20.687332    12965.224   -4137.0968    8279.8896    310.70532    15643 
206000000   -4058.2422   -10.836585    12865.982   -4177.8301    8225.2358    308.32705    15640 
207000000   -4038.8247   -28.214241    12992.133   -4188.6526    8199.2631    311.35019    15627 
208000000   -4052.8674    123.54048    12884.684   -4148.1024    8324.5103    308.77523    15638 
209000000   -4211.9808   -70.777061    12916.537   -4137.3564    8278.5602    309.53856    15629 
210000000   -4252.7578   -310.54107     13121.25    -4290.304    8232.5207    314.44442    15635 
211000000   -4072.9364   -51.043272     12928.63   -4158.5227    8180.4159    309.82838    15629 
212000000   -4031.2336    108.82809    12878.915   -4153.2718    8293.3335    308.63699    15634 
213000000   -4073.0749   -15.671077    13035.519   -4171.5545    8228.9583    312.38992    15626 
214000000   -4140.0558   -79.311309    12906.214   -4119.0278    8179.7723     309.2912    15634 
215000000   -4164.5662   -81.678453     12879.87   -4180.5747    8263.4624    308.65987    15624 
216000000   -4090.7293   -37.711673    12796.044   -4196.9387    8249.9563    306.65102    15631 
217000000   -4132.8157    39.396768    12824.001   -4095.3864    8267.5989      307.321    15624 
218000000   -4099.3818   -8.5371037    12964.357   -4201.6134    8292.4581    310.68456    15641 
219000000   -4127.5679    38.218022    12837.349   -4190.5817    8356.3676    307.64086    15627 
220000000   -4118.3781    -91.07121    12844.807   -4106.5353    8133.8422    307.81959    15639 
221000000     -4071.13    93.426761    13012.823   -4115.3392     8279.896    311.84602    15629 
222000000   -4040.6926    96.013055    13005.963   -4220.9749    8357.6806    311.68161    15617 
223000000   -4178.6272   -101.72068    13072.775   -4126.7842    8203.6907    313.28273    15617 
224000000   -4020.6477    26.872741    12855.106   -4124.2935     8171.814    308.06642    15619 
225000000   -4184.6396   -84.695332    13006.209   -4204.8502    8304.7945    311.68753    15651 
226000000   -4231.9906   -95.084006    12824.744   -4132.1582    8269.0648    307.33879    15634 
227000000   -4167.3953    -103.9653    12906.569   -4222.5184    8285.9484    309.29969    15642 
228000000   -4170.3045   -157.78868    12766.448   -4180.6165    8193.1323    305.94176    15626 
229000000   -4246.2798   -285.73017    12872.933   -4248.4037    8208.9534    308.49363    15633 
230000000   -4207.0248   -46.899024    12772.631   -4062.7132    8222.8389    306.08993    15625 
231000000   -4157.2159    31.913905    13038.359   -4181.9315    8371.0613    312.45797    15636 
232000000   -4164.2972   -215.04687    13013.021   -4232.9537    8182.2041    311.85076    15649 
233000000   -4170.6374    90.375432    12866.503   -4102.5229    8363.5358    308.33954    15624 
234000000   -4198.7354   -80.254663    12993.943   -4138.0753     8256.556    311.39358    15635 
235000000   -4285.0026   -312.03217    12922.358   -4239.4774    8212.4478    309.67808    15634 
236000000   -4184.0444   -70.737038    12855.632   -4126.7312    8240.0385      308.079    15633 
237000000   -4121.1577    25.008578    12678.448   -4189.6624    8335.8287    303.83288    15630 
238000000   -4268.1106     -42.5831    12802.398   -4184.8134    8410.3409    306.80328    15634 
239000000   -4097.3605    111.68806    12831.249   -4102.1446    8311.1932    307.49468    15629 
240000000   -4178.1324   -44.367893    12896.206   -4193.6699    8327.4344    309.05135    15635 
241000000    -4222.407    5.1610239     13015.55   -4128.7347    8356.3027    311.91137    15635 
242000000   -4223.6228   -68.231539    12783.579   -4111.3227     8266.714    306.35229    15627 
243000000    -4225.385   -130.59348    13015.881   -4267.4381    8362.2296    311.91932    15647 
244000000   -4188.9383   -126.31804    12870.173   -4159.4464    8222.0667    308.42749    15632 
245000000   -4116.9666    96.891373    12953.369   -4117.1701    8331.0281    310.42123    15628 
246000000   -4217.9446    -234.2962    13029.363   -4333.3623    8317.0107    312.24239    15650 
247000000   -4152.6467   -172.03936    12875.856   -4216.0253    8196.6326    308.56367    15640 
248000000   -4267.3835   -258.47616    12809.944   -4201.0082    8209.9156    306.98412    15639 
249000000   -4108.7928   -68.408294    12951.467   -4238.7326     8279.117    310.37566    15646 
250000000   -4180.6792   -123.55977    13139.704   -4214.8241    8271.9435    314.88665    15632 
251000000   -4153.2254   -118.28981    12870.832   -4211.1036    8246.0392    308.44327    15634 
252000000   -4153.5617   -131.02136    12950.251   -4221.9617     8244.502    310.34651    15645 
253000000   -4177.4873   -109.48202    12910.063   -4232.3876    8300.3929    309.38342    15631 
254000000   -4118.3534   -100.94149    13155.726    -4291.841    8309.2528    315.27063    15646 
255000000   -4237.3284   -10.839447    12861.345   -4110.0097    8336.4986    308.21591    15632 
256000000   -4260.4795   -102.91819    12968.375   -4194.2423    8351.8036    310.78084    15633 
257000000   -4179.9607   -36.863674    12757.917   -4222.2438    8365.3409    305.73731    15627 
258000000   -4143.8871   -33.050317     12954.63   -4090.3116    8201.1484    310.45145    15636 
259000000   -4207.6311   -221.27039    12911.753   -4192.6812    8179.0419    309.42393    15639 
260000000   -4111.7789    36.737695    12867.562   -4155.8936    8304.4101    308.36491    15636 
261000000   -4139.3533   -101.14111    12893.524   -4226.5681    8264.7803    308.98708    15644 
262000000   -4228.7446   -259.81285    12963.001   -4334.1838    8303.1155    310.65207    15662 
263000000   -4174.5194   -39.981086     13137.81    -4091.882    8226.4204    314.84128    15620 
264000000   -4246.4056   -158.11611    12872.368   -4117.2044    8205.4939    308.48009    15626 
265000000   -4105.0209    31.383071    12862.525    -4097.598     8234.002    308.24421    15619 
266000000   -4148.8724   -55.411831    12734.213   -4174.4735     8267.934    305.16927    15624 
267000000   -4145.1022    66.421131    12854.209   -4148.3218    8359.8452    308.04492    15636 
268000000   -4146.3382   -273.70311    12985.345   -4276.3698    8149.0049    311.18752    15636 
269000000   -4153.9852     106.6168    12969.301   -4138.8043    8399.4062    310.80303    15626 
270000000   -4233.5676   -281.66406    12728.716   -4223.7899    8175.6935    305.03754    15628 
271000000   -4234.4976   -204.75659    12884.017   -4311.7398    8341.4808    308.75926    15645 
272000000   -4233.4299   -223.26877    12917.545   -4229.4393    8239.6005    309.56273    15634 
273000000   -4150.9284   -3.8861577    12986.953   -4078.2375    8225.2798    311.22606    15611 
274000000   -4142.5033    3.3913696     12965.03   -4169.2277    8315.1223    310.70068    15639 
275000000   -4184.3187    2.2921829    12803.804   -4116.4528    8303.0636    306.83697    15625 
276000000   -4188.7087   -137.67117    12953.801   -4212.2548    8263.2924    310.43159    15633 
277000000   -4195.6697   -77.063196    13032.655      -4164.9    8283.5064    312.32129    15630 
278000000   -4160.3618   -163.11628    12989.918   -4213.6671    8210.9126    311.29711    15639 
279000000   -4240.5564   -102.91161    12780.108   -4263.7936    8401.4384    306.26913    15649 
280000000   -4148.8872   -48.414755    12896.509   -4251.5804    8352.0528     309.0586    15649 
281000000   -4123.2974   -108.88607    12988.286   -4199.7291    8214.1404      311.258    15646 
282000000    -4097.757    101.48707    12881.888    -4099.287     8298.531    308.70822    15618 
283000000   -4141.8733   -35.882512    12985.996   -4188.8203    8294.8111    311.20312    15646 
284000000   -4098.5867   -45.510927    12960.245   -4179.9282    8233.0039    310.58601    15642 
285000000   -4146.8042   -93.309111    12975.517   -4160.9076    8214.4027      310.952    15637 
286000000   -4162.4494    152.40998    12872.443   -4078.9026     8393.762    308.48187    15618 
287000000   -4117.3793   -169.86568    12893.383   -4289.2706    8236.7842     308.9837    15641 
288000000   -4186.9128   -156.32276    12982.515   -4234.6287    8265.2188     311.1197    15644 
289000000   -4125.8177    4.3725466    12845.424   -4103.4117    8233.6019    307.83439    15625 
290000000   -4092.4417   -53.906093    12958.144   -4124.7371    8163.2727    310.53567    15614 
291000000   -4160.7104   -94.600947    12955.527   -4253.7218    8319.8313    310.47295    15624 
292000000   -4130.4885   -90.202422    12804.978   -4177.2073    8217.4934    306.86511    15639 
293000000   -4195.8576    42.013982    12943.224   -4185.8993    8423.7709    310.17812    15646 
294000000   -4140.2975    5.4846744    12801.497   -4224.2882    8370.0704    306.78169    15642 
295000000   -4185.8876   -69.957937    12872.324    -4198.075    8314.0047    308.47904    15640 
296000000   -4117.9763   -30.867486    12817.476   -4110.2859    8197.3947    307.16463    15631 
297000000   -4025.1546    123.70422    12810.263   -4171.5835    8320.4424    306.99177    15631 
298000000   -4156.8413    119.23192    12688.737   -4134.8515    8410.9247    304.07945    15636 
299000000   -4103.7682    163.37278    12814.686   -4188.5696    8455.7106    307.09776    15625 
300000000   -4154.3573   -114.85511    12925.366   -4186.8197    8226.3218    309.75016    15637 
301000000   -4132.3415    46.597753    12918.563   -4156.7383    8335.6775    309.58713    15640 
302000000   -4164.3299    23.975266     12837.74   -4149.6213    8337.9265    307.65024    15628 
303000000   -4185.0356    27.421711    12719.594   -4094.6521    8307.1093    304.81892    15635 
304000000   -4204.4525   -120.68136    12770.039   -4306.3761    8390.1473    306.02783    15653 
305000000   -4195.6153   -82.604559    13019.818   -4112.9481    8225.9589    312.01365    15627 
306000000   -4196.7202    -36.72948    12853.748   -4066.7346    8226.7254    308.03387    15620 
307000000    -4195.263   -195.08405    12950.733   -4247.9888    8248.1678    310.35807    15641 
308000000   -4148.3031   -5.0804207    12912.823   -4098.1141    8241.3368    309.44957    15640 
309000000   -4160.2071   -167.22279     12985.31   -4257.6029    8250.5872    311.18669    15634 
310000000   -4079.0439    77.308732    12899.335   -4144.3891    8300.7417    309.12634    15635 
311000000   -4118.3056   -32.146895    12874.216   -4180.4221    8266.5808    308.52437    15634 
312000000   -4071.1324    48.776502    13040.664    -4061.466    8181.3749    312.51322    15608 
313000000   -4074.2775   -74.818544    12880.357   -4174.0351    8173.4942    308.67153    15625 
314000000   -4046.8279   -13.975473    13131.534   -4193.2558    8226.1082    314.69087    15626 
315000000   -4130.8657  -0.58004118    12907.387   -4154.2057    8284.4914     309.3193    15639 
316000000   -4102.0593   -25.375524    12815.013   -4257.8834    8334.5672    307.10559    15650 
317000000   -4210.3841    -158.2429    12838.707   -4225.7963    8277.9376    307.67342    15649 
318000000   -4157.1417   -49.202146    12952.857   -4139.0722    8247.0118    310.40896    15629 
319000000   -4087.3881    4.2823737    12948.169    -4235.616    8327.2865    310.29661    15630 
320000000   -4184.9947   -57.017147    12754.828   -4157.6385    8285.6161    305.66329    15630 
321000000   -4117.7146    14.543115    12893.621   -4157.8667    8290.1245    308.98941    15629 
322000000   -4061.5045    49.859122    12886.931   -4127.8464      8239.21    308.82909    15624 
323000000   -4185.3059    30.991667    12853.961   -4158.8773    8375.1749    308.03898    15628 
324000000   -4223.0527   -108.20287    12856.671   -4122.7519    8237.6017    308.10392    15631 
325000000   -4161.4056   -20.518363    13028.149   -4163.1422    8304.0295     312.2133    15603 
326000000   -4201.7203   -47.464479    12882.293   -4167.1361    8321.3919    308.71793    15637 
327000000   -4233.1987   -77.139322    12815.368   -4182.2552    8338.3146    307.11412    15636 
328000000   -4187.4848   -153.73371    12797.919   -4276.2644    8310.0155    306.69595    15647 
329000000   -4129.0198   -74.108128    12979.992   -4206.4348    8261.3465    311.05924    15637 
330000000   -4136.3064    100.18625    12982.258   -4071.8311    8308.3237    311.11355    15619 
331000000   -4222.7806    -190.0926    12796.469   -4191.4713    8224.1593    306.66121    15641 
332000000   -4078.0503    48.631966    12958.179   -4100.5872    8227.2695     310.5365    15626 
333000000   -4170.8622    179.23688    12915.867   -4021.9754    8372.0746    309.52251    15621 
334000000    -4263.788   -248.25165    12826.002   -4229.8452    8245.3815    307.36895    15639 
335000000   -4080.1519    115.28993    12749.435   -4095.2074    8290.6493    305.53405    15629 
336000000   -4157.7341    127.95268     12877.48   -4035.6954    8321.3822    308.60258    15628 
337000000   -4202.1512   -77.472644    13008.564   -4213.9053    8338.5838    311.74397    15636 
338000000   -4134.8858    11.055545    12904.057   -4129.0357    8274.9771     309.2395    15644 
339000000   -4177.0945   -149.36354    12854.017   -4228.9973    8256.7283    308.04031    15636 
340000000   -4197.8055   -155.57045    12929.633   -4230.3291    8272.5642     309.8524    15638 
341000000   -4154.1839   -38.091489    12977.866   -4197.5194    8313.6119     311.0083    15642 
342000000   -4227.7597   -187.48709    13010.011   -4287.5791    8327.8517    311.77864    15643 
343000000   -4184.4445   -172.83297    13039.351   -4121.1086      8132.72    312.48174    15623 
344000000   -4253.6208    2.7893957    12978.777   -4142.9754    8399.3856    311.03012    15630 
345000000   -4195.8045    -32.08699     12968.51   -4151.7057    8315.4232    310.78409    15637 
346000000   -4099.7235   -48.404257     12822.27   -4193.3819    8244.7012    307.27951    15633 
347000000   -4187.7944    -97.38831    12890.975   -4157.8095    8248.2156    308.92598    15625 
348000000   -4179.4322   -234.29802     13040.74   -4302.5148    8247.6489    312.51503    15643 
349000000   -4047.0765    98.892332    12860.689   -4139.3873    8285.3561    308.20021    15627 
350000000   -4160.6127    96.132676    12953.892   -4042.0383    8298.7837    310.43377    15616 
351000000   -4139.7855    143.26826    12886.633   -4089.0103     8372.064    308.82193    15632 
352000000   -4090.3624    23.652714    12961.605    -4154.481    8268.4961     310.6186    15628 
353000000   -4183.7489    10.636905    12890.715   -4158.7449    8353.1307    308.91975    15641 
354000000   -4157.4933     87.53499    12942.932   -4129.8591    8374.8874    310.17112    15630 
355000000   -4137.8582     22.84721    13095.082   -4122.6498    8283.3551    313.81732    15634 
356000000   -4156.1132     -1.73436    12961.262    -4093.105    8247.4838    310.61039    15630 
357000000   -4212.2942   -176.54506     13001.41   -4185.6227    8221.3718    311.57252    15623 
358000000   -4313.3699   -152.12644     12930.61   -4124.6327    8285.8762    309.87583    15623 
359000000   -4196.6897    6.0348643    12805.625    -4154.694    8357.4186    306.88063    15626 
360000000   -4229.9547   -14.252062    12856.261   -4216.3403     8432.043    308.09408    15646 
361000000    -4152.477    100.90895    13050.625   -4057.7999    8311.1859    312.75193    15613 
362000000   -4162.5107   -20.428307    12804.476   -4260.0739    8402.1563    306.85308    15626 
363000000   -4256.8599   -189.03731    13009.742   -4277.9253    8345.7479    311.77218    15635 
364000000   -4132.3759    69.479506    12910.052   -4139.5094    8341.3648    309.38316    15623 
365000000   -4184.1619     46.36407    13045.814   -4144.3685    8374.8945    312.63663    15625 
366000000   -4184.9564   -173.55491    12870.043   -4311.9995    8323.4009    308.42436    15649 
367000000   -4223.5359   -267.89015    12846.173   -4301.3696    8257.0153    307.85233    15641 
368000000   -4231.2026    -305.1281     13029.57   -4262.1591    8188.2335    312.24736    15635 
369000000   -4095.6288   -55.928324    12874.913   -4157.1992    8196.8996    308.54106    15621 
370000000    -4197.032   -179.11141    12977.255   -4278.6469    8296.5674    310.99365    15650 
371000000   -4153.2084    33.124813    12969.277   -4148.0613    8334.3945    310.80246    15631 
372000000   -4197.7998    29.714926    12921.743   -4087.9743    8315.4891    309.66333    15627 
373000000   -4111.3829   -15.621552    12848.101   -4073.3977     8169.159    307.89854    15616 
374000000   -4229.3478   -288.99787    13057.079    -4296.254    8236.6039     312.9066    15636 
375000000   -4212.9856   -171.17039     13016.64   -4278.8523    8320.6675    311.93749    15644 
376000000   -4216.8275   -235.24483    12818.792   -4264.8658    8246.4484    307.19616    15647 
377000000   -4347.5259   -285.94674    13043.815   -4256.8864    8318.4655    312.58872    15645 
378000000   -4174.1972   -87.765118    12917.275   -4150.8393    8237.2714    309.55626    15619 
379000000   -4169.0891   -220.70776    13022.357   -4243.2789    8191.6603     312.0745    15641 
380000000   -4234.4266   -136.56271    12963.656   -4132.8294    8230.6933    310.66775    15642 
381000000   -4223.5028   -142.20012    12789.091   -4199.4149    8280.7177    306.48439    15637 
382000000   -4254.5841   -308.79386     12891.37   -4273.0538     8218.844    308.93547    15644 
383000000   -4160.0783   -25.994821      12849.6   -4120.0607    8254.1442    307.93445    15636 
384000000   -4155.1973   -86.983812    12804.607   -4133.0251    8201.2385    306.85623    15640 
385000000   -4204.7977   -177.96384    12957.138   -4235.6462    8262.4801    310.51157    15640 
386000000   -4126.2166   -96.302457    12884.075   -4192.1284    8222.0426    308.76063    15625 
387000000    -4183.454   -124.16679    12888.887   -4125.5078     8184.795    308.87596    15626 
388000000   -4258.2642   -216.16478    12847.898   -4189.4731    8231.5725    307.89368    15641 
389000000   -4247.6441   -169.99253    12918.935   -4213.9509    8291.6024    309.59603    15642 
390000000   -4199.6849    91.385508    12821.735   -4068.7711    8359.8415     307.2667    15635 
391000000   -4214.2877   -131.50747    12773.918   -4182.7069    8265.4871    306.12077    15647 
392000000   -4255.8392   -254.28911    12978.182   -4287.5413    8289.0914    311.01586    15620 
393000000   -4163.1798   -27.684746    12884.001    -4189.541    8325.0361    308.75887    15637 
394000000   -4219.8874    81.148105    12920.947   -4077.8857    8378.9211    309.64426    15628 
395000000   -4211.8164   -229.99474    12943.111   -4306.1396    8287.9612     310.1754    15651 
396000000   -4300.8962   -255.03522    12972.276   -4187.5883    8233.4493    310.87434    15638 
397000000    -4298.712   -335.47178    12950.477   -4218.4624    8181.7027    310.35192    15637 
398000000   -4242.9094   -298.95129    12845.358   -4222.5383    8166.4964    307.83281    15636 
399000000   -4252.2845   -179.62886    13133.365   -4198.4337    8271.0894    314.73476    15629 
400000000   -4245.5771   -165.10387    12940.115   -4190.6843    8271.1575    310.10361    15642 
401000000   -4224.1398   -123.50179     12931.38   -4255.0413    8355.6793    309.89428    15638 
402000000   -4314.5854   -199.30947    12863.728   -4148.8629    8264.1388    308.27303    15644 
403000000   -4214.6985   -391.92747     12961.86   -4287.4042    8110.1753    310.62472    15643 
404000000   -4237.3586  -0.39457492     12934.83   -4097.7965    8334.7606    309.97697    15631 
405000000   -4222.0922   -225.06522     13018.05   -4208.9891     8206.016    311.97128    15629 
406000000   -4198.2929   -91.251147    12949.584    -4230.145    8337.1867    310.33054    15644 
407000000   -4263.0657   -223.95008    13002.211   -4125.4094     8164.525    311.59172    15631 
408000000   -4151.8048    -221.5389    12925.866   -4218.8089    8149.0748    309.76214    15637 
409000000   -4234.9935    -253.2711    13037.251   -4142.9643    8124.6867    312.43142    15638 
410000000   -4274.3822   -104.69778     12830.83   -4099.1368    8268.8212    307.48465    15632 
411000000   -4184.9436   -253.99074    12943.847    -4178.482    8109.4349    310.19305    15639 
412000000   -4284.7276   -341.63461    12924.869   -4220.4615    8163.5544    309.73825    15630 
413000000   -4254.8245    -220.1501    13061.039   -4177.6573    8212.3317    313.00148    15642 
414000000   -4212.9894   -32.316987    12976.547   -4076.3469    8257.0193    310.97668    15624 
415000000   -4222.0313   -254.20817    13056.801   -4340.0984    8307.9215    312.89993    15652 
416000000   -4209.5602   -81.801955    12867.707   -4059.7432    8187.5015    308.36838    15623 
417000000   -4209.3985   -230.27232    12891.077   -4221.7923    8200.9185    308.92844    15644 
418000000   -4179.9572   -54.526871    12806.131   -4173.3966     8298.827    306.89275    15630 
419000000   -4155.5987   -91.747054    13018.282   -4162.6563    8226.5079    311.97684    15637 
420000000   -4279.2886   -293.50192        12796    -4203.453    8189.2397    306.64997    15644 
421000000   -4221.4456   -164.38044    12782.104   -4223.5613    8280.6265    306.31694    15633 
422000000   -4261.5941   -205.20699    12859.539   -4291.4261    8347.8132    308.17264    15640 
423000000   -4226.4409    -247.6439    12918.785   -4206.9652    8185.7622    309.59245    15639 
424000000   -4299.1193   -182.34714    12883.259   -4209.9935    8326.7657    308.74108    15650 
425000000   -4206.4023   -345.16013    13012.938   -4303.5649    8164.8071    311.84877    15659 
426000000    -4175.962   -178.12398     12698.34   -4188.3667    8186.2048    304.30958    15640 
427000000   -4196.4318   -139.65113    12924.893   -4169.9443     8226.725    309.73883    15636 
428000000   -4292.8345   -330.73262    12951.915    -4290.828    8252.9299    310.38639    15637 
429000000   -4215.5674   -278.39678    12779.886   -4247.1824     8184.353    306.26379    15648 
430000000   -4242.3185   -170.03403    13006.915   -4128.2139    8200.4983    311.70443    15634 
431000000   -4310.9473   -429.33647    13074.542   -4261.5355    8143.1463    313.32508    15647 
432000000   -4214.1227   -209.14927    12984.667   -4241.0763    8246.0498    311.17128    15632 
433000000   -4314.6117   -406.32088    12868.615   -4266.4746    8174.7654    308.39016    15642 
434000000   -4275.1704   -258.95405    12991.393   -4189.0532    8205.2695    311.33246    15639 
435000000   -4254.3226   -294.83862    12916.456   -4238.6569    8198.1409    309.53663    15645 
436000000   -4204.5313   -53.421434    12958.794   -4125.5154    8276.6252    310.55124    15632 
437000000   -4382.2083    -373.5459    12967.498   -4248.9678    8257.6302    310.75983    15638 
438000000   -4244.7285   -208.60567    12934.384    -4250.283    8286.4059    309.96626    15637 
439000000   -4260.5335   -164.69601    12994.476   -4099.7773    8195.6148    311.40634    15627 
440000000   -4228.5674   -106.97158     13149.27   -4112.7479    8234.3437    315.11591    15636 
441000000    -4236.384   -199.06973     12994.23   -4238.6208    8275.9351    311.40044    15643 
442000000   -4195.6008    -37.38313    12873.404   -4131.0639    8289.2816    308.50492    15629 
443000000   -4250.3331   -396.19754    12914.376   -4348.5472    8202.6827     309.4868    15650 
444000000   -4291.7975   -133.69193    12852.641   -4067.1051    8225.2107    308.00733    15625 
445000000   -4375.9189   -190.57093     12955.83   -4140.1812    8325.5292    310.48022    15633 
446000000   -4343.4111   -211.66637    12900.022   -4192.7287    8324.4734     309.1428    15638 
447000000   -4307.0226   -160.24676    12938.519   -4226.4601    8373.2359    310.06537    15641 
448000000    -4257.808   -266.65766    12910.234   -4223.2522    8214.4025    309.38753    15634 
449000000   -4230.3003   -264.02182    12859.995   -4250.1578    8216.4363    308.18356    15636 
450000000   -4304.4138   -496.47858    12984.337   -4316.3748      8124.31    311.16337    15650 
451000000   -4308.1816   -344.28672    12923.849   -4194.3509    8158.2458    309.71379    15645 
452000000     -4318.98   -109.60808    12981.557   -4141.9288    8351.3007    311.09675    15633 
453000000   -4269.9729   -336.88418    12835.631   -4235.1745    8168.2632    307.59969    15639 
454000000    -4288.024    -370.6697    12949.256   -4210.9847     8128.339    310.32267    15641 
455000000   -4272.2076   -216.24788    12863.531   -4226.0717    8282.0314     308.2683    15655 
456000000   -4291.1423   -276.12967    12721.859   -4238.7511    8253.7637     304.8732    15647 
457000000   -4258.4746   -349.44825    12922.988    -4266.309    8175.3354    309.69317    15642 
458000000   -4262.7308   -189.52944    12797.264   -4219.6256    8292.8269    306.68024    15633 
459000000   -4248.0704   -313.82719    13123.726   -4221.6409    8155.8841    314.50375    15639 
460000000     -4382.17   -265.49959    12913.366   -4128.4976     8245.168    309.46258    15625 
461000000   -4242.1879   -215.32572    12989.646   -4234.0092    8260.8714    311.29059    15653 
462000000   -4319.5308   -257.07667    12840.227   -4195.6881    8258.1422    307.70984    15635 
463000000   -4270.9863   -251.12193    12826.961    -4161.396    8181.2603    307.39193    15640 
464000000   -4290.0145   -242.50849    12850.597   -4265.6473    8313.1533    307.95835    15640 
465000000   -4218.8075   -54.531055    12811.899   -4109.1977    8273.4742    307.03098    15634 
466000000   -4274.6297   -139.18274    12825.351   -4196.5053    8331.9522    307.35334    15645 
467000000   -4193.9959   -188.58817    12893.343   -4197.4449    8202.8526    308.98273    15629 
468000000   -4275.1774   -246.07277    12890.531   -4234.0172    8263.1218    308.91536    15646 
469000000   -4237.5221   -95.478356    12857.576   -4168.8543    8310.8981    308.12561    15647 
470000000    -4267.603   -67.625413    12843.576   -4128.3396    8328.3172    307.79011    15643 
471000000   -4172.1006   -140.02108    13103.564   -4229.0848    8261.1643    314.02058    15641 
472000000   -4163.1557   -4.2543693    12963.643   -4112.5557    8271.4571    310.66745    15631 
473000000   -4249.6301   -207.25294    12876.792   -4226.4606    8268.8378     308.5861    15640 
474000000   -4202.7869   -182.97792    12931.966   -4204.3878    8224.1968    309.90832    15640 
475000000   -4311.5973   -126.39845     12899.66   -4127.3552    8312.5541    309.13413    15630 
476000000   -4258.4826   -272.15133    12843.613   -4260.6956    8247.0269    307.79099    15647 
477000000   -4331.5642    -272.2891     12925.17    -4243.924     8303.199    309.74546    15646 
478000000   -4231.3244   -189.72701    13035.922   -4282.1111    8323.7085    312.39958    15637 
479000000   -4268.7679   -261.94083    12974.663   -4245.0199     8251.847    310.93154    15653 
480000000   -4273.5988   -184.65652    12858.321   -4168.6937     8257.636    308.14346    15644 
481000000   -4224.6956   -70.895489    12968.497   -4148.5466    8302.3468    310.78378    15628 
482000000   -4297.4918   -165.34518    12970.344   -4220.1633    8352.3099    310.82803    15630 
483000000   -4190.6425   -176.67193    12721.719   -4205.2785    8219.2491    304.86986    15638 
484000000   -4159.2708   -67.350586    12859.844   -4126.1345    8218.0548    308.17995    15639 
485000000   -4184.4398   -58.873502    12956.751   -4190.8953    8316.4615    310.50227    15649 
486000000   -4197.8679   -211.61117    13081.326   -4234.0187    8220.2754    313.48767    15638 
487000000   -4262.6051   -127.58132    12931.832   -4159.7568    8294.7806    309.90511    15636 
488000000   -4190.1773     -169.692    12943.968    -4242.617    8263.1023    310.19594    15638 
489000000   -4187.0364    43.713981      13048.2   -4111.9763    8342.7266     312.6938    15629 
490000000   -4251.4334   -73.608519    12906.525   -4110.6165    8288.4414    309.29865    15630 
491000000   -4193.2869     -263.628    13043.512   -4223.8911      8153.55    312.58146    15643 
492000000   -4219.0258   -62.844536     12962.19   -4099.4688      8255.65    310.63264    15618 
493000000   -4124.8402   -52.443362    12904.854   -4178.1348    8250.5316     309.2586    15636 
494000000   -4233.3232    -168.3637    12932.934   -4220.8779    8285.8374    309.93153    15640 
495000000   -4195.0196     -101.143    12871.287   -4213.5817    8307.4583    308.45418    15643 
496000000   -4262.4689   -135.08192    12898.882   -4179.7017    8307.0887    309.11547    15639 
497000000   -4299.0969   -196.79821    12943.882   -4215.2368    8317.5355    310.19388    15648 
498000000   -4200.0596    24.732808    12953.528   -4039.1983    8263.9907    310.42505    15613 
499000000   -4255.9441   -160.70956    12748.927   -4104.6221    8199.8566    305.52189    15629 
500000000   -4226.8762   -34.393087    12963.713   -4125.3778    8317.8609    310.66912    15645 
Loop time of 178883 on 28 procs for 500000000 steps with 14000 atoms

Performance: 6037.475 ns/day, 0.004 hours/ns, 2795.127 timesteps/s
99.5% CPU use with 28 MPI tasks x no OpenMP threads

MPI task timing breakdown:
Section |  min time  |  avg time  |  max time  |%varavg| %total
---------------------------------------------------------------
Pair    | 26664      | 30673      | 34968      |1143.2 | 17.15
Bond    | 6103.4     | 6347.3     | 6797.2     | 214.5 |  3.55
Neigh   | 64922      | 65724      | 66399      | 152.2 | 36.74
Comm    | 41837      | 45684      | 50282      |1064.5 | 25.54
Output  | 0.61324    | 0.64401    | 0.64591    |   0.7 |  0.00
Modify  | 22349      | 22701      | 23107      | 172.2 | 12.69
Other   |            | 7753       |            |       |  4.33

Nlocal:    500 ave 534 max 469 min
Histogram: 3 2 4 2 3 3 4 3 3 1
Nghost:    823.643 ave 1143 max 529 min
Histogram: 1 2 5 5 3 3 1 4 2 2
Neighs:    7606.64 ave 9128 max 6061 min
Histogram: 2 2 4 1 5 2 6 2 2 2

Total # of neighbors = 212986
Ave neighs/atom = 15.2133
Ave special neighs/atom = 9.22843
Neighbor list builds = 94603550
Dangerous builds = 0
System init for write_restart ...
Total wall time: 49:41:26
