LAMMPS (5 Jun 2019)
Reading data file ...
  orthogonal box = (-420 -420 -420) to (420 420 420)
  2 by 2 by 7 MPI processor grid
  reading atoms ...
  14000 atoms
  scanning bonds ...
  51 = max bonds/atom
  scanning angles ...
  1 = max angles/atom
  reading bonds ...
  13800 bonds
  reading angles ...
  13600 angles
Finding 1-2 1-3 1-4 neighbors ...
  special bond factors lj:   0          0          0         
  special bond factors coul: 0          0          0         
  2 = max # of 1-2 neighbors
  2 = max # of 1-3 neighbors
  4 = max # of 1-4 neighbors
  56 = max # of special neighbors
  special bonds CPU = 1.02732 secs
  read_data CPU = 1.20539 secs
Finding 1-2 1-3 1-4 neighbors ...
  special bond factors lj:   1          1          1         
  special bond factors coul: 0          0          0         
  2 = max # of 1-2 neighbors
  2 = max # of 1-3 neighbors
  4 = max # of 1-4 neighbors
  56 = max # of special neighbors
  special bonds CPU = 0.00114091 secs
WARNING: Using 'neigh_modify every 1 delay 0 check yes' setting during minimization (../min.cpp:168)
Neighbor list info ...
  update every 1 steps, delay 0 steps, check yes
  max neighbors/atom: 2000, page size: 100000
  master list distance cutoff = 26.9
  ghost atom cutoff = 26.9
  binsize = 13.45, bins = 63 63 63
  1 neighbor lists, perpetual/occasional/extra = 1 0 0
  (1) pair lj/cut, perpetual
      attributes: half, newton on
      pair build: half/bin/newton
      stencil: half/bin/3d/newton
      bin: standard
Setting up cg style minimization ...
  Unit style    : real
  Current step  : 0
Per MPI rank memory allocation (min/avg/max) = 1.165 | 13.79 | 17.67 Mbytes
Step Temp E_pair E_mol TotEng Press 
       0            0 2.4262116e+12      2649600 2.4262142e+12 1.1227655e+09 
    2593            0   -3213.8545    8077.7575     4863.903  0.022358999 
Loop time of 0.984059 on 28 procs for 2593 steps with 14000 atoms

99.5% CPU use with 28 MPI tasks x no OpenMP threads

Minimization stats:
  Stopping criterion = energy tolerance
  Energy initial, next-to-last, final = 
     2.42621422944e+12      4864.36586087      4863.90297658
  Force two-norm initial, final = 2.10957e+10 3.95325
  Force max component initial, final = 1.05441e+09 0.95274
  Final line search alpha, max atom move = 0.049396 0.0470616
  Iterations, force evaluations = 2593 2659

MPI task timing breakdown:
Section |  min time  |  avg time  |  max time  |%varavg| %total
---------------------------------------------------------------
Pair    | 0.038732   | 0.13242    | 0.2551     |  17.1 | 13.46
Bond    | 0.012253   | 0.034679   | 0.064368   |   7.8 |  3.52
Neigh   | 0.078809   | 0.081572   | 0.083599   |   0.4 |  8.29
Comm    | 0.19658    | 0.33146    | 0.48236    |  12.3 | 33.68
Output  | 0          | 0          | 0          |   0.0 |  0.00
Modify  | 0          | 0          | 0          |   0.0 |  0.00
Other   |            | 0.4039     |            |       | 41.05

Nlocal:    500 ave 894 max 183 min
Histogram: 3 3 3 4 6 0 2 2 3 2
Nghost:    312.964 ave 490 max 136 min
Histogram: 3 3 2 1 4 3 4 4 1 3
Neighs:    3601.79 ave 6560 max 1006 min
Histogram: 4 1 5 2 7 0 1 1 5 2

Total # of neighbors = 100850
Ave neighs/atom = 7.20357
Ave special neighs/atom = 5.82857
Neighbor list builds = 165
Dangerous builds = 0
Setting up Verlet run ...
  Unit style    : real
  Current step  : 2593
  Time step     : 0.1
Per MPI rank memory allocation (min/avg/max) = 1.127 | 12.9 | 16.54 Mbytes
Step Temp E_pair E_mol TotEng Press 
    2593            0   -3213.8545    8077.7575     4863.903  0.022358999 
   12593    225.97051   -2677.4392    11596.302    18348.242    -1.087095 
Loop time of 2.11509 on 28 procs for 10000 steps with 14000 atoms

Performance: 40.849 ns/day, 0.588 hours/ns, 4727.941 timesteps/s
99.5% CPU use with 28 MPI tasks x no OpenMP threads

MPI task timing breakdown:
Section |  min time  |  avg time  |  max time  |%varavg| %total
---------------------------------------------------------------
Pair    | 0.051954   | 0.1988     | 0.4204     |  23.8 |  9.40
Bond    | 0.039183   | 0.1096     | 0.20252    |  13.8 |  5.18
Neigh   | 0.0019437  | 0.0020381  | 0.0021223  |   0.1 |  0.10
Comm    | 0.75129    | 0.99235    | 1.272      |  14.7 | 46.92
Output  | 0.00011388 | 0.00014627 | 0.00019777 |   0.0 |  0.01
Modify  | 0.091999   | 0.25269    | 0.47047    |  20.8 | 11.95
Other   |            | 0.5595     |            |       | 26.45

Nlocal:    500 ave 895 max 184 min
Histogram: 3 3 4 3 6 0 2 2 3 2
Nghost:    312.5 ave 489 max 135 min
Histogram: 3 3 2 2 3 3 4 3 2 3
Neighs:    3602.04 ave 6564 max 1006 min
Histogram: 4 1 4 3 7 0 1 1 5 2

Total # of neighbors = 100857
Ave neighs/atom = 7.20407
Ave special neighs/atom = 5.82857
Neighbor list builds = 4
Dangerous builds = 0
4000 atoms in group rxnSites
Neighbor list info ...
  update every 1 steps, delay 1 steps, check yes
  max neighbors/atom: 2000, page size: 100000
  master list distance cutoff = 26.9
  ghost atom cutoff = 26.9
  binsize = 13.45, bins = 63 63 63
  2 neighbor lists, perpetual/occasional/extra = 1 1 0
  (1) pair lj/cut, perpetual
      attributes: half, newton on
      pair build: half/bin/newton
      stencil: half/bin/3d/newton
      bin: standard
  (2) fix bond/create/random, occasional, copy from (1)
      attributes: half, newton on
      pair build: copy
      stencil: none
      bin: none
Setting up Verlet run ...
  Unit style    : real
  Current step  : 0
  Time step     : 25
Per MPI rank memory allocation (min/avg/max) = 17.76 | 18.28 | 18.84 Mbytes
Step E_pair PotEng KinEng E_bond E_angle Temp Bonds 
       0   -2677.4392    8918.8633    9429.3788    3099.0302    8497.2722    225.97051    13800 
 1000000   -1591.0512     7113.647    12818.296    302.02889    8402.6693    307.18428    14943 
 2000000   -1750.3281    6511.7964    12996.494   -144.73034    8406.8548     311.4547    15083 
 3000000   -1765.8553     6093.687    12862.737   -444.31224    8303.8545    308.24929    15146 
 4000000   -1818.4194    5990.6167    12993.461    -521.7218    8330.7579    311.38201    15202 
 5000000   -1950.1081    5755.0021    12946.892   -662.52268    8367.6329    310.26602    15237 
 6000000   -2003.8022    5489.0267    12962.504   -806.51297    8299.3419    310.64016    15269 
 7000000   -1951.4598    5474.7605    12894.409   -860.50244    8286.7227     309.0083    15288 
 8000000   -2023.9065    5307.4572    12920.031   -905.38456    8236.7482    309.62231    15303 
 9000000   -2057.2877    5252.3326    12976.136   -873.78338    8183.4037    310.96684    15317 
10000000   -2101.3326    5103.3227    12957.116   -1016.4452    8221.1005    310.51103    15356 
11000000   -2134.8316    5126.9737    12932.419   -1043.1531    8304.9584    309.91918    15365 
12000000   -2193.8988    4962.2565    12997.744   -1134.5322    8290.6874    311.48467    15387 
13000000   -2129.6583    4913.5856    12929.493   -1182.1939    8225.4378    309.84905    15360 
14000000   -2236.8569    4883.0282    13086.946   -1226.2695    8346.1546    313.62235    15401 
15000000   -2273.6889    4752.6174    12899.943   -1318.7414    8345.0477    309.14091    15430 
16000000    -2215.069    4824.5038    12973.099   -1227.5787    8267.1514    310.89405    15427 
17000000   -2318.6236    4537.2969    12869.664   -1393.7314    8249.6519    308.41529    15450 
18000000   -2300.8454    4591.8645     12887.91   -1359.2415    8251.9514    308.85254    15448 
19000000   -2305.1043    4520.2774      12989.5   -1328.7827    8154.1643     311.2871    15441 
20000000    -2273.806    4687.1679    12841.283   -1319.2679    8280.2418    307.73515    15441 
21000000   -2338.8742    4401.1851    12887.955   -1438.2206    8178.2799    308.85361    15470 
22000000   -2283.6002     4483.279    12872.379   -1461.5887     8228.468    308.48035    15467 
23000000   -2330.7952      4449.24    12871.643   -1447.2046    8227.2398     308.4627    15464 
24000000   -2443.7497    4575.9899     12982.27   -1335.9582    8355.6978    311.11384    15469 
25000000   -2437.5761    4213.3548    13085.397   -1528.9817    8179.9126    313.58521    15497 
26000000   -2415.5885    4221.6852     13044.94   -1541.2221    8178.4958     312.6157    15514 
27000000    -2481.022    4198.9657    12960.754   -1525.0273     8205.015    310.59822    15507 
28000000   -2463.6395    4324.8017     12885.67    -1553.045    8341.4861    308.79886    15499 
29000000   -2490.4588    4111.6913    12951.971   -1652.7206    8254.8707    310.38773    15541 
30000000   -2541.9044    4061.7394    13016.543   -1693.9292     8297.573    311.93517    15534 
31000000   -2467.9137    4175.1343    12797.128    -1607.069     8250.117      306.677    15547 
32000000   -2479.6159     4072.339    13081.424   -1651.8718    8203.8267    313.49002    15540 
33000000   -2541.9629    4209.3993    13066.256    -1572.904    8324.2662    313.12652    15524 
34000000   -2449.4452    4114.3629    12882.487   -1618.3774    8182.1855    308.72258    15521 
35000000   -2474.5298    4093.5065    12765.125   -1678.5634    8246.5996    305.91007    15553 
36000000   -2519.6134    4069.0194    12948.308   -1694.7567    8283.3894    310.29994    15556 
37000000   -2461.8573     4050.476    13054.871   -1745.0333    8257.3666    312.85367    15550 
38000000   -2504.9298    4187.4204    12938.026   -1587.9097    8280.2598    310.05354    15535 
39000000   -2536.9795    4048.7487    12915.151    -1645.371    8231.0992    309.50535    15546 
40000000   -2464.9042    3875.5779    12922.918   -1822.0412    8162.5233    309.69149    15561 
41000000   -2496.5624    3890.7583    12867.199   -1731.8157    8119.1365    308.35622    15563 
42000000   -2623.7327    3809.2766    13088.595    -1799.066    8232.0753    313.66186    15568 
43000000   -2584.0802    4069.2809    12929.986   -1632.0116    8285.3728    309.86086    15557 
44000000    -2558.745    3947.2731    13089.102   -1779.3245    8285.3426    313.67401    15550 
45000000    -2583.816    3842.4168    12871.868    -1805.761    8231.9939    308.46811    15578 
46000000   -2476.1424    3965.6114    13020.371   -1747.4161    8189.1698    312.02691    15575 
47000000   -2576.1719      3917.57    12936.961   -1855.5796    8349.3215    310.02802    15581 
48000000   -2605.3905    4042.6681    13012.695   -1695.8826    8343.9412    311.84295    15549 
49000000   -2622.5017    3901.4959    12879.802   -1769.8291    8293.8267    308.65823    15556 
50000000   -2509.0959    3947.6674    13029.082   -1797.8491    8254.6124    312.23566    15585 
51000000   -2458.6881    3949.9231    12937.979   -1780.2492    8188.8604    310.05243    15569 
52000000   -2440.6982    3863.6892    12954.783   -1868.7672    8173.1547    310.45512    15594 
53000000   -2546.0718    3815.6568    12746.907   -1799.8492    8161.5778    305.47346    15581 
54000000   -2542.4978    3914.2462    13185.317   -1831.0339    8287.7778    315.97977    15577 
55000000   -2577.7791    3723.9567    12950.693   -1840.6059    8142.3417     310.3571    15594 
56000000   -2589.4764    3787.9713    12750.414    -1811.388    8188.8357    305.55751    15593 
57000000   -2537.3849    4014.1617    12838.036   -1785.3259    8336.8725    307.65733    15558 
58000000   -2581.8236     3785.828    12859.811   -1757.3134    8124.9651    308.17916    15582 
59000000   -2581.9327     3724.656    13030.612   -1868.0449    8174.6336    312.27234    15586 
60000000   -2695.5003     3759.091    12837.936   -1795.3909    8249.9822    307.65495    15585 
61000000   -2633.0896    3745.0015    13024.162   -1789.6258    8167.7168    312.11776    15579 
62000000   -2546.5563    3878.1428    12908.085   -1861.2872    8285.9864    309.33602    15574 
63000000   -2579.8568    3861.5293    12870.467   -1726.9229    8168.3091    308.43453    15562 
64000000   -2621.9507    3855.8132    12873.279   -1754.3136    8232.0774    308.50191    15582 
65000000   -2661.4073    3781.4581    12923.523   -1808.8113    8251.6767    309.70599    15576 
66000000   -2649.1038    3651.0983    12769.484   -1853.3424    8153.5446    306.01452    15582 
67000000   -2596.7141    3886.4678    12840.387   -1770.3001    8253.4821    307.71368    15567 
68000000   -2510.3906    3909.9791    12981.925   -1840.0905    8260.4602    311.10557    15588 
69000000   -2522.8054    3892.2042    12851.731    -1788.678    8203.6875    307.98553    15587 
70000000   -2631.6882    3742.5643    12861.035   -1817.0441    8191.2965    308.20849    15579 
71000000   -2549.1135    3931.9706    12976.459   -1809.5625    8290.6467    310.97458    15587 
72000000   -2627.3425    3874.5492    13066.454   -1853.5435    8355.4352    313.13126    15579 
73000000   -2642.3387     4005.337    12810.773   -1693.7542    8341.4299      307.004    15564 
74000000   -2701.4894    3808.3231    13102.192   -1801.6981    8311.5106    313.98771    15586 
75000000   -2734.7853    3787.3987    12844.636   -1692.6072    8214.7912    307.81549    15566 
76000000   -2687.3254    3823.2233    12963.959   -1726.0095    8236.5582    310.67503    15582 
77000000   -2669.4993    3826.8063    12859.812   -1700.7333    8197.0389    308.17919    15587 
78000000   -2647.0657    3719.9694     12832.65   -1838.8488    8205.8838    307.52826    15586 
79000000   -2591.4402    3734.2943    12964.448   -1903.6026    8229.3371    310.68673    15600 
80000000   -2634.2365    3639.0808    12896.643   -1817.1822    8090.4996    309.06181    15604 
81000000    -2720.567    3624.5537    12892.517   -1989.1432    8334.2639    308.96294    15601 
82000000   -2674.4026    3737.0677    12971.772   -1835.4706    8246.9409    310.86225    15595 
83000000    -2704.703    3950.2615    12837.112   -1716.4478    8371.4123    307.63519    15565 
84000000   -2662.9137    3614.4134    12814.571   -1860.6361    8137.9632      307.095    15582 
85000000   -2690.8654    3968.6518    12983.082    -1679.709    8339.2262    311.13329    15577 
86000000   -2805.1323    3680.9675    12945.671   -1756.0595    8242.1592    310.23677    15582 
87000000     -2671.87    3572.4238    12844.678   -1838.4296    8082.7234    307.81652    15594 
88000000   -2784.0369    3724.1391    12810.579   -1833.8611    8342.0371    306.99934    15586 
89000000    -2673.907    3684.3612    12990.027   -1907.1594    8265.4276    311.29972    15598 
90000000   -2754.6394    3544.7169    13108.657    -1933.756    8233.1123    314.14264    15594 
91000000   -2636.7637    3695.1404    12835.542   -1833.3915    8165.2956    307.59757    15593 
92000000   -2719.9831    3589.2823     13009.98   -1883.0317    8192.2972    311.77789    15593 
93000000   -2714.8742    3704.3844    13137.782   -1832.1033    8251.3619    314.84059    15597 
94000000   -2793.6994    3565.9273    13070.619   -1826.9305    8186.5572    313.23107    15578 
95000000   -2694.6412     3560.174    12975.799   -1847.0143    8101.8295    310.95875    15583 
96000000   -2762.0836    3743.2816    12977.224   -1757.1872    8262.5524    310.99292    15592 
97000000   -2691.8871    3707.3649    13022.379   -1774.5822    8173.8342    312.07503    15573 
98000000   -2679.7185    3787.1008    12909.674   -1744.5801    8211.3994     309.3741    15586 
99000000   -2681.9876    3706.4269    13075.602   -1771.2455      8159.66    313.35048    15574 
100000000   -2648.3936    3695.3603    12832.662     -1795.62    8139.3739    307.52854    15577 
101000000   -2817.6347    3461.0447    12963.859   -1899.3831    8178.0624    310.67263    15603 
102000000   -2795.1632    3533.2982    12917.853   -1962.7717    8291.2331    309.57012    15590 
103000000   -2732.8073    3640.2599    12898.791   -1760.6157    8133.6828    309.11329    15597 
104000000   -2772.6285     3508.867    12805.583   -1899.2295     8180.725    306.87962    15594 
105000000   -2754.0688    3533.6629     12874.99   -1898.1497    8185.8813    308.54293    15582 
106000000   -2812.8369    3573.1778    12943.576   -1819.2579    8205.2727    310.18656    15598 
107000000   -2709.3148    3732.1985    12830.785   -1803.7238    8245.2371    307.48356    15587 
108000000   -2677.9615    3548.9434    12869.786    -1935.168    8162.0729    308.41821    15599 
109000000   -2714.1406    3518.6068     13012.04   -1978.6425    8211.3898    311.82725    15602 
110000000   -2774.6893     3522.841    12810.194   -1906.6111    8204.1413    306.99013    15595 
111000000   -2733.3878    3665.1555    12998.939   -1840.8248    8239.3681    311.51331    15587 
112000000   -2743.9926      3780.39    12946.721    -1758.142    8282.5246    310.26191    15583 
113000000    -2801.445    3623.2966     12901.38   -1848.2813    8273.0229    309.17534    15582 
114000000   -2719.9325    3600.1695    12980.556   -1836.1519     8156.254    311.07277    15592 
115000000   -2666.7101    3690.1394    12977.143   -1899.4557    8256.3052    310.99096    15590 
116000000   -2750.2106    3490.0496    12771.068   -1974.6185    8214.8786    306.05247    15606 
117000000   -2818.1791    3497.8377    13106.116   -1998.0583     8314.075    314.08174    15612 
118000000   -2808.2582    3442.6772    12881.782   -1858.0312    8108.9666     308.7057    15596 
119000000   -2777.8942    3605.0844    13064.905   -1912.9804     8295.959    313.09413    15598 
120000000   -2801.4188    3487.5258    12994.655    -1908.261    8197.2056    311.41063    15603 
121000000   -2880.5335    3523.4144    12892.225   -1856.2642    8260.2121    308.95596    15605 
122000000    -2803.959    3465.1971    13135.019   -1788.3949     8057.551     314.7744    15579 
123000000   -2797.6445    3744.0429    12916.523   -1665.2655    8206.9529    309.53825    15573 
124000000   -2780.5472    3559.6604    12905.937   -1924.0215    8264.2292    309.28455    15599 
125000000   -2788.1272    3559.6122    12793.364   -1849.1984    8196.9378     306.5868    15608 
126000000   -2779.9117    3777.6884    12902.724   -1812.5515    8370.1516    309.20755    15588 
127000000   -2760.1063    3584.3679    12966.966   -1949.3831    8293.8573    310.74709    15609 
128000000   -2784.4956    3691.4257    12848.214     -1765.55    8241.4712    307.90124    15583 
129000000    -2814.178     3651.763    12775.786   -1787.1763    8253.1173    306.16554    15596 
130000000   -2760.4644    3397.7947    12808.746   -1851.9719    8010.2311    306.95542    15589 
131000000   -2809.8995     3563.166     12988.76   -1804.6497    8177.7152    311.26936    15598 
132000000   -2819.4623    3493.8625    12875.176   -1915.9695    8229.2944    308.54738    15614 
133000000   -2813.1766    3497.7077    12693.975   -1817.4261    8128.3103    304.20497    15597 
134000000   -2762.6727    3505.4604    12955.904   -1817.7486    8085.8818    310.48198    15584 
135000000   -2871.7756    3593.8119    12821.465   -1771.5933    8237.1808    307.26023    15579 
136000000    -2871.653    3542.8544    12692.337   -1829.3565    8243.8639    304.16573    15561 
137000000   -2810.0485    3705.5231    12820.841   -1755.6748    8271.2464    307.24526    15586 
138000000   -2806.1828    3507.5687    12872.587   -1949.8367    8263.5882    308.48533    15617 
139000000   -2782.4959    3580.2811    13126.778   -1882.1894    8244.9664     314.5769    15597 
140000000   -2866.5602    3443.4928    12965.734   -1878.6949    8188.7478    310.71755    15605 
141000000   -2841.0711    3401.1891    12950.642   -1922.1112    8164.3713    310.35589    15615 
142000000   -2815.7654    3629.3793    12906.025   -1823.4829    8268.6276    309.28667    15602 
143000000   -2852.1032    3496.8822     12999.35    -1809.234    8158.2193    311.52316    15587 
144000000   -2921.3755    3434.7172    12959.488   -1809.4586    8165.5513    310.56788    15596 
145000000   -2900.4593    3478.9498    12946.357   -1876.7553    8256.1644     310.2532    15598 
146000000   -2845.6423    3498.7081    12843.182   -1900.2352    8244.5856    307.78065    15611 
147000000   -2872.8516    3447.5126    13036.119   -1854.1734    8174.5376    312.40429    15602 
148000000   -2825.9704    3426.0674     12784.98   -1838.9129    8090.9507    306.38588    15606 
149000000   -2968.1755    3350.5089    12836.075   -1874.6735     8193.358    307.61035    15600 
150000000   -2768.5087    3526.4251    12931.517   -1850.1059    8145.0396    309.89755    15570 
151000000   -2810.7636    3426.1222    12808.465   -1956.5607    8193.4465    306.94867    15621 
152000000   -2859.4747    3484.9341    12961.783   -1788.0254    8132.4342    310.62288    15601 
153000000   -2823.8136     3342.223    12675.018   -1946.8619    8112.8986    303.75068    15595 
154000000   -2827.2855    3543.4027    12826.037   -1822.4439     8193.132    307.36978    15594 
155000000   -2894.1178    3379.6354      13003.6    -1856.581    8130.3342      311.625    15597 
156000000   -2826.1852    3631.7975    12910.315    -1805.411    8263.3938    309.38947    15589 
157000000   -2886.0799    3366.5629    12985.629   -1987.9308    8240.5735    311.19434    15598 
158000000   -2887.9909    3407.2064    12828.151   -1874.8928    8170.0902    307.42043    15595 
159000000   -2831.2568    3504.6101    12715.197    -1811.774    8147.6409    304.71357    15580 
160000000   -2894.3404    3456.1624    13013.707   -1842.2704    8192.7732     311.8672    15580 
161000000   -2895.6513    3588.6264    13011.614   -1830.1741    8314.4518    311.81705    15590 
162000000   -2894.2021    3542.3641    12985.978   -1814.4507    8251.0169    311.20269    15587 
163000000    -2826.056    3462.9899    12882.067   -1787.5648    8076.6106    308.71251    15583 
164000000   -2918.9312    3507.9575    12979.366   -1781.3666    8208.2553    311.04425    15581 
165000000   -2768.7154    3667.4016    12836.331   -1719.0016    8155.1185    307.61648    15589 
166000000   -2968.0979    3365.6189    12904.091   -1967.6754    8301.3922    309.24031    15603 
167000000   -2872.4569    3481.3867    12816.128   -1735.2137    8089.0572    307.13232    15600 
168000000    -2870.473    3435.4405    12795.666   -1887.4016    8193.3151    306.64196    15604 
169000000   -2725.6186    3643.1208    12932.351    -1818.874    8187.6134    309.91756    15593 
170000000   -2828.8225     3523.194    12968.851   -1863.7382    8215.7547    310.79225    15595 
171000000   -2848.2871    3586.1568    12840.589   -1774.2777    8208.7217    307.71851    15593 
172000000   -2738.4825    3449.6112    12851.173   -1960.4617    8148.5554    307.97216    15605 
173000000   -2910.8835    3383.9256    12841.512   -1869.6815    8164.4906    307.74063    15597 
174000000   -2893.5498    3625.3907    12961.692   -1790.8458    8309.7862     310.6207    15587 
175000000   -2784.4588    3618.3964    12787.924    -1921.632    8324.4872    306.45643    15609 
176000000     -2860.34    3377.9231    12990.548   -1874.4738     8112.737    311.31221    15602 
177000000   -2814.4499    3521.8192    12775.313   -1796.4714    8132.7405    306.15421    15567 
178000000   -2823.7677    3582.2814     12974.29   -1721.7089    8127.7581    310.92259    15569 
179000000   -2836.1921    3465.8653    12864.254   -1856.3206    8158.3781    308.28565    15615 
180000000   -2962.1941    3392.1592    13068.064   -1860.9608    8215.3141    313.16985    15610 
181000000   -2846.8236    3558.3255    12999.728   -1850.0395    8255.1885    311.53222    15583 
182000000   -2875.5209     3413.311     12926.51   -1862.9258    8151.7577    309.77757    15593 
183000000   -2858.1809    3598.1974    12934.761   -1823.6837     8280.062    309.97531    15569 
184000000   -2782.7193     3711.707    12891.367   -1725.9446    8220.3709    308.93538    15588 
185000000   -2867.5827     3486.717    12938.926   -1846.1255    8200.4252    310.07511    15601 
186000000    -2821.052    3460.1342     12959.24   -1884.4832    8165.6694    310.56194    15598 
187000000   -2734.5511    3755.4394    12785.486   -1757.0533    8247.0439    306.39801    15576 
188000000   -2872.9037    3592.1356    12907.681   -1786.0286    8251.0679    309.32634    15601 
189000000   -2808.1696    3496.4805     12889.87   -1882.2977    8186.9478    308.89952    15595 
190000000   -2890.7647    3524.6047    12980.528   -1730.9839    8146.3533    311.07209    15582 
191000000    -2883.259    3399.0054    12981.827   -1876.5877    8158.8521    311.10322    15581 
192000000   -2886.5492    3342.7036    12864.441   -1896.5474    8125.8003    308.29011    15607 
193000000   -2847.3078    3309.6333    12977.349   -1931.5294    8088.4706     310.9959    15599 
194000000   -2822.8003    3362.7584    13036.364   -1897.6902     8083.249    312.41017    15587 
195000000    -2835.131    3400.5571     12981.79   -1960.5922    8196.2803    311.10232    15601 
196000000   -3004.2455    3339.9498    13021.776   -1882.6629    8226.8582    312.06058    15597 
197000000   -2903.4829    3371.5246    12708.981   -1883.8263    8158.8339    304.56459    15601 
198000000   -2935.4982     3391.053    13061.032   -1785.0152    8111.5664    313.00133    15590 
199000000   -2970.4894    3497.2445    12877.167   -1788.4577    8256.1916    308.59509    15592 
200000000   -2949.6061    3455.2472     12841.51   -1829.0357     8233.889    307.74059    15614 
201000000   -2889.7818    3367.9843     12870.56   -1845.4362    8103.2023    308.43676    15616 
202000000   -2994.2442    3417.3068    12945.838   -1836.5612    8248.1122    310.24076    15587 
203000000   -2951.5889    3425.8543    12998.329     -1817.84    8195.2832    311.49868    15585 
204000000   -2939.3836    3355.5538    13003.599   -1811.4491    8106.3866    311.62497    15594 
205000000    -3011.777    3180.4979    12878.806   -1977.4707    8169.7456    308.63437    15608 
206000000   -2946.0511    3317.1612    12725.131   -1958.2088     8221.421    304.95163    15610 
207000000    -2919.673    3502.9405    13000.326   -1830.4831    8253.0966    311.54654    15586 
208000000   -2878.0877      3480.88    12937.085   -1761.7158    8120.6835      310.031    15600 
209000000   -2926.3991    3324.9195    12906.903   -1876.5235    8127.8421    309.30769    15596 
210000000   -3026.3991    3395.1896    12939.042   -1801.6552    8223.2439    310.07789    15572 
211000000   -3036.3146    3249.4318    12898.571   -1889.7018    8175.4482    309.10803    15588 
212000000   -2955.0684    3378.2854    12838.784   -1782.7576    8116.1113    307.67526    15585 
213000000   -2951.0727    3340.8935    12993.617   -1859.8041    8151.7703    311.38577    15606 
214000000    -2929.948    3261.0233    12860.426   -1888.9254    8079.8967     308.1939    15576 
215000000   -3058.6603    3282.0453    12878.252   -1824.2397    8164.9453     308.6211    15577 
216000000   -2995.6286     3239.478    12782.587   -1925.6295    8160.7361    306.32852    15600 
217000000    -2966.074    3497.0103    12895.246    -1727.387    8190.4713    309.02836    15575 
218000000   -2977.1803     3317.672    12908.553   -1771.9111    8066.7635    309.34724    15581 
219000000   -3051.0543    3372.7296    12972.193   -1809.4517    8233.2356    310.87234    15589 
220000000   -3027.6402    3289.8617     12986.19   -1814.1547    8131.6567    311.20776    15595 
221000000   -2973.8973    3469.2879    12926.971   -1781.4183    8224.6035    309.78863    15590 
222000000   -2907.0329    3281.6433    13043.503   -1931.3587    8120.0349    312.58125    15613 
223000000   -2903.6044    3423.8319    12924.204   -1833.0525    8160.4887    309.72232    15594 
224000000   -2991.1143    3382.9865    13031.231   -1806.3555    8180.4563    312.28715    15584 
225000000   -2944.1464    3412.4823    12848.859   -1878.0385    8234.6672     307.9167    15592 
226000000   -2967.0184    3351.8847    12875.189   -1852.6821    8171.5852     308.5477    15596 
227000000   -2909.6092    3305.5649    13010.497   -1914.1517    8129.3257    311.79028    15605 
228000000   -3018.7299    3214.9675    13059.079    -1845.888    8079.5853    312.95453    15586 
229000000   -3034.6167    3445.3092    12867.443   -1711.8409    8191.7668    308.36206    15562 
230000000   -3055.2544    3418.6598    13152.468   -1741.7079    8215.6221    315.19254    15584 
231000000   -2860.3979    3352.5016    13038.817   -1791.4792    8004.3787    312.46896    15598 
232000000    -2897.201      3336.95    13024.581   -1864.7212    8098.8722    312.12779    15615 
233000000   -2952.5254    3554.7818    12919.945   -1814.9812    8322.2884    309.62024    15586 
234000000    -2960.098    3225.7776    12810.313    -1866.239    8052.1146    306.99297    15598 
235000000    -2995.119      3295.02     13091.87   -1866.9776    8157.1166    313.74035    15592 
236000000   -3010.9973    3217.8343    12893.899   -1881.2614     8110.093    308.99607    15620 
237000000   -2897.1759    3430.9667    12832.991   -1826.1702    8154.3129    307.53644    15593 
238000000   -2924.1888    3543.9745    12954.972    -1734.685    8202.8483    310.45965    15603 
239000000   -3032.1523    3253.4611    12971.739   -1894.4706     8180.084    310.86147    15606 
240000000   -2934.2788    3440.7788    12920.982   -1773.4832    8148.5409     309.6451    15587 
241000000   -3021.2499    3268.7434    12933.665    -1898.934    8188.9273    309.94903    15596 
242000000   -2996.4578    3178.0979    12887.093   -1857.7323     8032.288    308.83297    15585 
243000000   -3045.8523    3438.6006    12929.505   -1730.0906    8214.5435    309.84935    15560 
244000000   -3048.0457     3248.866    12835.081   -1775.2701    8072.1818    307.58653    15583 
245000000   -3066.5445    3291.3067    12948.778   -1726.7048     8084.556    310.31121    15561 
246000000   -3121.0649    3391.0015    12868.335   -1768.9638    8281.0302    308.38345    15589 
247000000   -3061.4034    3308.4419    12905.207   -1816.8982    8186.7435    309.26705    15569 
248000000   -3070.7366    3389.6239    12937.391   -1797.3061    8257.6666    310.03832    15585 
249000000   -2982.7941    3232.0059    12808.145   -1947.7878    8162.5878    306.94102    15606 
250000000   -2971.4174    3463.2316    12903.092   -1773.7038    8208.3528    309.21636    15578 
251000000   -3042.8428    3242.8828     12961.08   -1834.0329    8119.7585    310.60603    15577 
252000000   -3058.8419     3151.118    13000.478   -1972.3463    8182.3062    311.55017    15599 
253000000   -2850.0685    3428.5796    12894.816   -1840.9404    8119.5885    309.01805    15575 
254000000   -2884.5926    3341.9825    12948.286    -1859.337     8085.912    310.29941    15574 
255000000   -2932.7627     3314.719    12955.417    -1906.015    8153.4968    310.47031    15601 
256000000   -2974.2093    3311.3043    12861.742   -1786.8663    8072.3799    308.22545    15597 
257000000   -3010.1913     3480.779    13086.735   -1769.6809    8260.6512    313.61728    15591 
258000000   -3029.1047    3302.5137    12870.337   -1792.8578    8124.4761    308.43142    15587 
259000000   -3022.9056    3175.1225    12977.316   -1915.6611    8113.6892    310.99512    15594 
260000000   -2946.7875    3347.9887    12930.437   -1841.9765    8136.7527    309.87167    15602 
261000000   -3121.5254    3264.3051    13039.412   -1818.0287    8203.8593    312.48322    15596 
262000000   -2944.6417    3339.9535    12886.782   -1789.1902    8073.7854     308.8255    15591 
263000000   -3019.2162    3276.1297    13064.003   -1814.0445    8109.3904    313.07252    15586 
264000000   -3055.7966    3341.6661    12923.998   -1821.2159    8218.6786    309.71738    15589 
265000000   -3021.9401    3414.6703    12874.741   -1762.3707    8198.9811    308.53694    15572 
266000000   -3107.9653    3338.7869     13071.96   -1835.8671    8282.6193    313.26322    15595 
267000000   -2981.4377     3289.964    13000.703   -1876.7453    8148.1471    311.55557    15577 
268000000   -3020.8629    3156.9288    12859.652   -2022.1194     8199.911    308.17534    15610 
269000000   -3009.8494    3242.0335    12811.831   -1875.5131     8127.396    307.02935    15589 
270000000   -2881.2465    3413.5508    13016.732   -1949.1753    8243.9727     311.9397    15620 
271000000   -2955.4344    3211.5672    12938.548   -1861.0605    8028.0621    310.06606    15584 
272000000   -2938.1976    3417.6748    12947.444   -1870.8153    8226.6876    310.27925    15595 
273000000   -2963.2955    3332.8315    13000.945   -1812.8257    8108.9527    311.56138    15593 
274000000   -3052.0539    3297.8953    13005.069   -1845.2053    8195.1544    311.66021    15591 
275000000   -2934.5417    3425.2743    12915.395   -1841.7883    8201.6043    309.51122    15596 
276000000   -2960.4187    3520.0201    13029.692   -1783.5954    8264.0342    312.25028    15578 
277000000   -3059.1992    3264.0363     13169.01   -1842.5094    8165.7448    315.58896    15599 
278000000   -3083.3766    3230.8894    12844.864   -1831.9012    8146.1671    307.82097    15584 
279000000    -3053.248    3390.7607    12976.149   -1816.0426    8260.0513    310.96714    15578 
280000000    -3044.581    3270.3692    12892.182   -1840.0487    8154.9989    308.95491    15584 
281000000   -3054.6275    3339.5296     12865.45   -1800.1115    8194.2686     308.3143    15603 
282000000   -3111.3466    3305.0004    12929.046   -1780.3482    8196.6952    309.83835    15600 
283000000   -3015.6259    3213.6924    12841.009    -1908.042    8137.3603    307.72859    15591 
284000000   -3173.7859    3278.1599    13017.566   -1827.8717    8279.8175    311.95968    15595 
285000000   -3166.4597    3106.3754    12795.928   -1863.8301    8136.6652    306.64825    15587 
286000000   -3046.5133    3161.0911    13035.817   -1935.6477    8143.2522    312.39705    15605 
287000000   -3154.2501    3020.2998    12960.411   -1971.3093    8145.8592    310.58999    15601 
288000000   -3073.5636    3259.6577    13012.521   -1861.1409    8194.3622    311.83878    15585 
289000000   -3205.9449    2942.1493    13128.769   -1925.5033    8073.5975    314.62461    15608 
290000000   -3051.7573    3342.6107    12845.899    -1705.476     8099.844    307.84576    15569 
291000000   -3078.0503    3293.0379    12825.665   -1810.4449     8181.533    307.36088    15593 
292000000   -3159.0597    3313.1805    12965.318   -1751.9983    8224.2385    310.70759    15584 
293000000    -3135.961    3199.1517     13096.44   -1781.6143    8116.7269    313.84987    15583 
294000000    -3070.451    3317.9649    12967.019   -1835.3722    8223.7881    310.74835    15577 
295000000   -3119.7022    3280.3164    12990.437   -1732.3243    8132.3429    311.30954    15566 
296000000   -3168.4054    3080.1616    12954.982   -1922.8294    8171.3964    310.45989    15586 
297000000   -3142.3787    3236.3496     12910.02   -1806.5937     8185.322    309.38239    15573 
298000000    -3236.801    3014.9109    12764.155   -1718.7467    7970.4586     305.8868    15562 
299000000   -3223.5067    3065.8806    12975.056   -1782.3879    8071.7753    310.94096    15589 
300000000   -3155.7015    3091.5266    12891.882   -1839.7069     8086.935    308.94773    15606 
301000000   -3200.7073    2954.6794    12975.331   -1951.2045    8106.5911    310.94755    15602 
302000000   -3084.9611    3094.5265    13004.802   -1901.8901    8081.3777     311.6538    15593 
303000000   -3205.2719    3043.9774    13016.844   -1832.8086     8082.058    311.94238    15583 
304000000     -3105.38    3103.7979    12857.573   -1799.1554    8008.3333    308.12554    15579 
305000000   -3154.8272    3023.8503    13005.283   -1922.2321    8100.9096    311.66533    15596 
306000000   -3177.4457    3014.0216    12940.972   -1839.8206     8031.288    310.12414    15586 
307000000   -3066.9163    3272.0715    13018.857   -1764.8362    8103.8241    311.99062    15578 
308000000   -3099.8993    3249.9696     13048.98   -1801.7832    8151.6521    312.71251    15596 
309000000   -3148.1082     3152.031    12801.257   -1777.9631    8078.1024    306.77595    15582 
310000000   -3197.7153    3110.0345    12874.485   -1808.7664    8116.5163    308.53082    15590 
311000000   -3107.8025    3165.8484    12847.772   -1773.7876    8047.4384    307.89065    15567 
312000000   -3133.0687    3084.9227    13072.114   -1845.1564    8063.1477    313.26689    15582 
313000000   -3172.5775    3074.2154    12936.057   -1832.7738    8079.5667    310.00636    15592 
314000000   -3077.6402    3145.5966    12928.448   -1901.4482     8124.685    309.82401    15593 
315000000   -3228.5537    3061.5253    12907.492   -1837.5892    8127.6682    309.32181    15576 
316000000   -3228.7324     3089.783    12870.772   -1765.8558    8084.3711    308.44184    15584 
317000000    -3177.806    2970.8367    12836.999   -1896.0466    8044.6893    307.63248    15582 
318000000   -3158.4635    3091.7811    12898.245   -1842.4701    8092.7148    309.10022    15598 
319000000   -3132.5999    3010.4846    13118.454   -2008.9564    8152.0409    314.37741    15605 
320000000   -3006.2466    3288.7539     12930.34   -1793.3723    8088.3728    309.86935    15590 
321000000   -3012.9158    3224.1857    12885.913   -1805.8595     8042.961    308.80468    15597 
322000000   -3046.7057    3323.2895    12956.037   -1835.5805    8205.5757    310.48516    15578 
323000000   -3077.0106    3260.6738    12838.674   -1828.7543    8166.4387    307.67263    15584 
324000000   -3010.3562    3263.7198        12865   -1804.4582    8078.5342    308.30353    15575 
325000000   -3039.2974    3264.5887    12987.807   -1911.9542    8215.8403    311.24651    15599 
326000000   -3137.9991    3327.0513    12796.587   -1752.4848    8217.5352    306.66403    15578 
327000000   -3137.2767    3168.0928      12829.1   -1900.8253    8206.1947    307.44318    15595 
328000000   -3180.2186    3177.0455     13003.11   -1743.3465    8100.6106    311.61325    15585 
329000000   -3137.7714    3073.9602     12906.97   -1829.2902    8041.0217    309.30931    15584 
330000000   -3069.2267    3209.9978    13014.423   -1882.4245    8161.6491    311.88437    15601 
331000000   -3121.6638    2862.0541    13017.109     -1994.32     7978.038    311.94874    15581 
332000000    -3112.435    3374.4638    13036.652   -1741.3243    8228.2231    312.41706    15581 
333000000   -3051.2702     3133.285    12993.986   -1792.0095    7976.5647     311.3946    15599 
334000000   -3107.3766    3252.3883    12786.992   -1852.9231    8212.6879     306.4341    15584 
335000000   -3233.3464    3185.8199     12803.38   -1711.4396     8130.606    306.82682    15566 
336000000   -3121.9448    3220.1033    12976.653    -1767.607    8109.6552    310.97923    15579 
337000000   -3097.1555    3323.3801    12917.642    -1742.568    8163.1037    309.56506    15589 
338000000    -3198.791    3273.0083    12855.104   -1716.2804    8188.0796    308.06636    15576 
339000000   -3190.5553    3215.7507    12946.485   -1659.1619    8065.4679    310.25627    15555 
340000000   -3096.1208    3199.9468     12959.59    -1870.425    8166.4927    310.57032    15575 
341000000   -3164.4717     3214.521    12922.786   -1873.6079    8252.6006    309.68832    15598 
342000000   -3100.6085    3328.5128    12941.342   -1722.1116    8151.2329      310.133    15553 
343000000   -3138.3282    3215.0226    12782.982   -1822.1311    8175.4819    306.33799    15585 
344000000   -3124.5385    3250.7321     12834.17   -1860.4528    8235.7234    307.56468    15609 
345000000   -3135.4423    3185.6573    12912.209   -1803.5631    8124.6627    309.43484    15583 
346000000    -3125.718    3169.0754    12883.567   -1779.2404    8074.0338    308.74847    15601 
347000000   -3196.7469    3229.3429    12846.395   -1858.8112     8284.901    307.85766    15584 
348000000   -3049.7385    3272.1069    13126.944   -1862.6623    8184.5077    314.58087    15594 
349000000   -3032.8717    3241.9296    12926.484   -1785.4621    8060.2633    309.77696    15577 
350000000   -3041.0275    3328.8859    12906.216   -1809.8419    8179.7553    309.29122    15580 
351000000   -3073.8291    3256.5414    12882.053   -1731.7483    8062.1189    308.71217    15582 
352000000   -3124.5344    3245.2043    12896.421   -1809.8591    8179.5978    309.05651    15578 
353000000   -3176.8369     3097.583    12755.641   -1922.0002    8196.4201    305.68278    15595 
354000000   -3129.8505    3379.8263    12874.907   -1774.4984    8284.1752    308.54093    15571 
355000000   -3049.1709    3415.3045    13022.305   -1696.2238    8160.6992    312.07325    15588 
356000000   -3076.3753    3222.8256    13034.333   -1841.3382    8140.5392    312.36149    15579 
357000000   -3104.0066     3203.609    12930.444   -1868.4853    8176.1009    309.87185    15602 
358000000   -3107.7003    3226.9863    13092.321   -1856.8751    8191.5616    313.75115    15595 
359000000   -3087.1162    3113.7991    12972.233    -1964.917    8165.8323    310.87331    15594 
360000000   -3114.7716    3163.8175     12709.41   -1869.0993    8147.6885    304.57487    15594 
361000000   -3101.7981    3132.8521    12889.458   -1912.1262    8146.7764    308.88964    15589 
362000000   -3005.3147    3307.9015    12899.807   -1757.2668    8070.4829    309.13764    15570 
363000000   -3117.4721    3205.9844    12853.252   -1835.9917    8159.4482    308.02199    15595 
364000000   -3120.4894    3311.1924    13116.095   -1807.7237    8239.4056     314.3209    15590 
365000000   -3050.6144    3161.9354    12991.202   -1885.0982    8097.6481    311.32788    15583 
366000000   -3105.6412    3205.0963    12850.299   -1766.1035     8076.841     307.9512    15580 
367000000   -3134.3132    3312.1769    12970.213    -1841.718     8288.208    310.82489    15570 
368000000   -3040.5419    3431.5237    12940.117   -1816.6495    8288.7151    310.10365    15589 
369000000   -3074.2785    3173.4534    12843.267   -1856.0165    8103.7484     307.7827    15577 
370000000   -3118.2609    3288.4561    12932.382   -1757.2309    8163.9478    309.91829    15578 
371000000   -3047.7611     3257.549    12886.976   -1908.9264    8214.2365    308.83016    15581 
372000000   -3016.8588    3328.5931    13079.414   -1777.7959    8123.2478    313.44183    15572 
373000000   -2992.2944    3408.2792    12934.463   -1853.1444     8253.718    309.96816    15591 
374000000   -3016.5298    3289.6677    12988.595   -1823.9475    8130.1449     311.2654    15604 
375000000   -3105.5802    3072.0062    12991.928    -1915.921    8093.5074    311.34528    15604 
376000000   -3087.7374     3434.021     12860.59   -1779.3693    8301.1276    308.19783    15590 
377000000    -3090.487    3162.4914    12812.359   -1854.6774    8107.6557    307.04201    15595 
378000000   -3067.7354    3161.4789    12952.638   -1883.8599    8113.0742    310.40372    15596 
379000000   -2934.0433    3369.4119    12938.221   -1806.0851    8109.5402    310.05822    15580 
380000000   -3061.8348    3279.0492    12800.839   -1845.9436    8186.8275    306.76593    15586 
381000000    -2977.255    3461.3456    12964.732   -1822.8132    8261.4138    310.69354    15577 
382000000   -3034.2582    3239.2556    12856.089   -1872.5853    8146.0991    308.08997    15585 
383000000   -3153.6121     3345.977    13010.394   -1791.8129     8291.402    311.78781    15589 
384000000   -3063.8065    3344.1623    12834.734   -1753.5577    8161.5265     307.5782    15566 
385000000   -3138.0309    2988.6043    12796.894   -1952.1711    8078.8063     306.6714    15611 
386000000    -3035.331    3255.8881    12870.373     -1861.42     8152.639    308.43227    15584 
387000000   -2990.6171    3333.7896    12967.655   -1797.8703    8122.2771     310.7636    15592 
388000000   -2934.3438    3356.4515    13049.721   -1839.4164    8130.2117    312.73026    15591 
389000000   -2992.4557     3322.025    12827.525   -1821.4346    8135.9153    307.40544    15583 
390000000   -3116.0078    3167.6658    12818.881    -1868.541    8152.2146     307.1983    15615 
391000000   -2997.4386    3374.4114    12932.153   -1831.6338    8203.4838     309.9128    15581 
392000000   -3114.8402    3227.2849     12970.63    -1768.474    8110.5991    310.83487    15559 
393000000   -3032.5845     3341.634    13062.353   -1851.6177    8225.8363    313.03299    15587 
394000000   -3060.6349    3413.0699     12996.11   -1715.0583    8188.7631    311.44551    15577 
395000000   -3058.4748    3054.7615    12883.756   -1925.7456    8038.9819    308.75299    15587 
396000000   -3065.5113     3297.685    12831.553   -1786.5348    8149.7311    307.50197    15602 
397000000    -3054.875    3276.4651     12875.55   -1769.9619    8101.3019    308.55634    15591 
398000000   -3093.0379    3176.5388    12994.908   -1920.9254     8190.502     311.4167    15592 
399000000   -3126.3698    3073.5809    12972.597   -1863.1128    8063.0635    310.88202    15571 
400000000   -3113.4985    3146.1533    12766.513   -1866.3017    8125.9534    305.94332    15597 
401000000   -2992.9978    3231.3129    12853.138   -1907.7017    8132.0124    308.01924    15586 
402000000   -3028.6626    3288.6458    12774.226   -1816.4238    8133.7322    306.12816    15602 
403000000    -2948.324    3445.3217    12826.198   -1744.8755    8138.5212    307.37364    15579 
404000000   -3021.9784    3280.9703    12961.835   -1848.6326    8151.5812    310.62411    15585 
405000000   -3043.6212    3354.4582    12771.347   -1843.6876     8241.767    306.05917    15586 
406000000   -3080.7499    3306.1633    13026.782   -1829.7251    8216.6384    312.18054    15589 
407000000    -3031.697    3144.3747    12977.286   -1869.8478    8045.9196    310.99439    15580 
408000000   -3011.1299     3467.542     13070.11   -1714.3571     8193.029    313.21887    15570 
409000000   -3120.6354    3224.7137    12809.439   -1859.4754    8204.8244    306.97201    15602 
410000000   -3010.6878    3095.0434    12846.544   -1963.0957    8068.8268    307.86123    15600 
411000000   -3016.8098    3328.8283    12750.161   -1773.6429     8119.281    305.55146    15569 
412000000   -3079.1487    3273.4767    13014.667   -1797.3894    8150.0147    311.89021    15585 
413000000   -3038.2164    3337.6436    13023.366    -1858.272     8234.132    312.09867    15595 
414000000   -3093.6244    3300.7837    13019.426   -1797.6206    8192.0286    312.00426    15565 
415000000    -3123.664    3159.3762    12848.604    -1812.106    8095.1461    307.91058    15597 
416000000    -3071.287    3314.7851    12919.821   -1776.3298    8162.4019    309.61726    15571 
417000000    -3110.678    3144.0988    13079.061    -1836.416    8091.1929    313.43339    15579 
418000000   -3188.0082    3195.0641    12968.485   -1864.8675    8247.9398    310.78348    15596 
419000000   -3063.5531    3137.8778    12925.566   -1880.0336    8081.4646    309.75495    15589 
420000000    -3025.753    3425.7259     13103.94   -1731.5752     8183.054    314.02959    15581 
421000000    -3094.346    3215.5434     12998.95   -1897.6784    8207.5677    311.51357    15586 
422000000   -3244.0051    3107.4593    12876.571   -1923.5671    8275.0315     308.5808    15595 
423000000   -3118.8172    3189.2253    13005.256   -1822.5025     8130.545    311.66468    15599 
424000000   -3086.9955    3372.4459    12891.789   -1698.6162    8158.0576     308.9455    15571 
425000000   -3019.2751     3183.825    12998.377   -1821.5592    8024.6593    311.49984    15600 
426000000    -3000.271    3210.0875    13074.019   -1893.5478    8103.9063    313.31255    15594 
427000000   -3152.4343    2978.1293     13022.84   -1943.7754     8074.339    312.08607    15596 
428000000    -3067.023    3423.6748    13031.168   -1632.5289    8123.2267    312.28565    15563 
429000000   -3158.6452    3252.3816    12866.584   -1768.4627    8179.4894    308.34148    15572 
430000000    -3011.938    3217.3023     12947.38   -1809.0855    8038.3258    310.27772    15583 
431000000   -3059.8627    3358.8089    12822.822   -1734.3503    8153.0219    307.29275    15568 
432000000   -3062.4916     3164.834    12968.578   -1917.0584    8144.3841     310.7857    15594 
433000000   -3051.1401    3274.4664    13001.851   -1782.3462    8107.9528    311.58308    15573 
434000000   -3032.2161    3248.3383    12992.017   -1783.5699    8064.1243    311.34743    15582 
435000000   -3010.5477    3241.3129    12961.463   -1876.4981    8128.3588     310.6152    15589 
436000000   -3147.3145    3234.5401    12920.382   -1687.1082    8068.9627    309.63071    15570 
437000000    -2941.239    3267.0375    12902.766   -1751.6121    7959.8886    309.20855    15586 
438000000   -3037.9699    3142.7135    12925.874   -1977.5895    8158.2729    309.76234    15590 
439000000   -3014.1297    3181.2123    12901.643   -1862.2082    8057.5501    309.18165    15584 
440000000   -3009.6838    3306.6693     12876.67   -1812.5219     8128.875    308.58318    15591 
441000000   -3133.1218    3256.8212    12924.906    -1719.457       8109.4    309.73913    15567 
442000000   -3045.3133    3298.6198    12840.976    -1838.107    8182.0402    307.72778    15573 
443000000   -3142.1725    3114.8714    12890.791   -1904.1145    8161.1583    308.92157    15590 
444000000   -3035.0585    3417.2655    12891.991   -1788.6782    8241.0021    308.95033    15573 
445000000   -3078.2898    3284.5644    12758.855    -1768.964    8131.8182     305.7598    15581 
446000000   -2980.0164    3391.6194     12988.07    -1794.185    8165.8208    311.25283    15586 
447000000   -3023.2849    3275.4305    12994.217   -1828.2573    8126.9726    311.40013    15581 
448000000   -2995.2541    3171.6197    12857.845   -1954.5159    8121.3897    308.13206    15604 
449000000   -3088.1471    3133.3267    12925.368   -1854.0358    8075.5095    309.75021    15592 
450000000   -3134.9198    3068.7468    12969.324   -1918.3724     8122.039     310.8036    15584 
451000000    -3060.916     3379.291    12873.998   -1794.3531    8234.5602    308.51915    15597 
452000000   -3053.4338    3324.0149    12855.041   -1830.8414    8208.2901    308.06485    15594 
453000000   -3060.8382    3149.2465    12780.362   -1866.1267    8076.2115    306.27521    15617 
454000000   -3095.3802    3330.7997    13062.857   -1810.0935    8236.2734    313.04506    15590 
455000000   -3093.3058    3265.1409    12817.735   -1796.5494    8154.9961    307.17083    15595 
456000000   -2953.7932     3373.478    12817.724   -1818.9952    8146.2664    307.17057    15592 
457000000   -3088.6328    3390.3673    13086.348   -1731.6813    8210.6815    313.60802    15587 
458000000   -2991.1712    3290.3899     12811.86   -1828.5833    8110.1443    307.03004    15604 
459000000   -3113.9349    3132.7273    12879.728    -1829.056    8075.7182    308.65646    15599 
460000000   -2996.1515    3301.1647    12990.957    -1880.297    8177.6132    311.32201    15583 
461000000   -3098.7584    3014.7367    12939.453   -1944.4158    8057.9108    310.08774    15607 
462000000   -3063.2143    3315.9868    13139.465   -1817.7929    8196.9941    314.88094    15590 
463000000   -2995.8012    3420.5515    12990.628   -1780.3349    8196.6876    311.31412    15583 
464000000   -3107.2839    3302.8735    12871.028   -1794.1939    8204.3513    308.44798    15579 
465000000   -3144.1101     3088.903     12852.71   -1876.3929     8109.406    308.00899    15595 
466000000   -3105.5175    3120.8271    12862.955   -1920.1398    8146.4844    308.25452    15584 
467000000   -3174.0704    3288.6797    13018.706   -1742.3843    8205.1345      311.987    15591 
468000000   -3096.9711    3315.6574    13036.098   -1703.8193    8116.4478    312.40381    15566 
469000000   -3106.2737    3075.2418    12657.567   -1847.0353    8028.5509    303.33249    15585 
470000000   -3143.0806    3159.6427    12949.374     -1832.61    8135.3333    310.32551    15611 
471000000   -3109.1715    3229.7607     12790.29   -1819.4005    8158.3327    306.51314    15568 
472000000   -3138.4063    3476.2435    13035.619   -1690.2865    8304.9363    312.39232    15576 
473000000   -3162.2564    3153.4778     12953.18   -1858.5015    8174.2356     310.4167    15598 
474000000   -3125.0939    3327.6892    12940.749   -1762.7282    8215.5112     310.1188    15593 
475000000   -3090.3053    3204.1094    12949.432   -1821.1579    8115.5725    310.32689    15584 
476000000   -3129.6916    3224.6767    13098.332    -1744.588    8098.9562    313.89519    15579 
477000000   -3126.2947    3194.0702    12976.681   -1946.5837    8266.9486    310.97989    15585 
478000000   -3190.1843    3001.8856    12818.037   -1837.6337    8029.7036    307.17807    15589 
479000000   -3064.6365    3270.9327    12968.426   -1781.2665    8116.8357    310.78206    15586 
480000000   -3092.2574    3245.9133    12968.671   -1872.3826    8210.5533    310.78795    15577 
481000000   -3020.7777    3381.9461    12766.262   -1778.4959    8181.2197    305.93731    15574 
482000000   -3078.9825    3467.1165    13090.273   -1699.6307    8245.7296    313.70208    15582 
483000000   -3057.1077    3360.4483    12845.851   -1804.4928    8222.0488    307.84461    15586 
484000000   -3075.1823    3222.0253    12727.767   -1771.4868    8068.6944    305.01479    15585 
485000000   -3153.6126    3265.2038    12954.668   -1782.9731    8201.7895    310.45238    15603 
486000000   -3166.7641    3117.6425     12911.13   -1885.2062    8169.6129    309.40901    15607 
487000000   -3116.7905    3187.3795    12878.299   -1878.9488    8183.1189    308.62222    15603 
488000000   -3082.2584    3122.4309    12999.337   -1944.6634    8149.3527    311.52284    15607 
489000000   -3087.6419    3134.2893    12930.183   -1899.8259    8121.7571    309.86559    15602 
490000000   -3158.2178     3110.384     12729.31   -1787.1964    8055.7981    305.05177    15579 
491000000   -3057.2064    3271.4372    12960.894   -1818.6811    8147.3248    310.60158    15583 
492000000   -3032.2678    3262.6338    12941.957    -1824.919    8119.8206    310.14774    15585 
493000000   -2984.3488    3169.5138    12885.178    -1913.259    8067.1216    308.78707    15600 
494000000   -3101.8773    3214.2835    12996.861   -1849.2668    8165.4277     311.4635    15604 
495000000   -3003.2077    3265.8633    12860.253   -1841.4279    8110.4989    308.18976    15603 
496000000   -3175.4226    3214.2232    12875.602   -1792.6177    8182.2636    308.55759    15582 
497000000   -3025.8899    3108.1552    12921.528   -1954.8158    8088.8608    309.65817    15611 
498000000   -3139.0485    3418.7321    12894.451   -1631.5788    8189.3593    309.00929    15575 
499000000   -2997.4367    3298.2532    12778.549    -1825.743    8121.4328    306.23175    15593 
500000000   -3019.3874    3219.0747    13006.313   -1853.2549     8091.717    311.69002    15590 
Loop time of 199107 on 28 procs for 500000000 steps with 14000 atoms

Performance: 5424.216 ns/day, 0.004 hours/ns, 2511.211 timesteps/s
99.5% CPU use with 28 MPI tasks x no OpenMP threads

MPI task timing breakdown:
Section |  min time  |  avg time  |  max time  |%varavg| %total
---------------------------------------------------------------
Pair    | 17433      | 21089      | 24035      |1017.5 | 10.59
Bond    | 6033.8     | 6384.4     | 8508.4     | 728.5 |  3.21
Neigh   | 56713      | 57302      | 58039      | 156.7 | 28.78
Comm    | 55119      | 63091      | 71613      |1462.0 | 31.69
Output  | 0.73193    | 0.78041    | 0.78443    |   1.1 |  0.00
Modify  | 30308      | 30504      | 30796      |  64.8 | 15.32
Other   |            | 2.074e+04  |            |       | 10.41

Nlocal:    500 ave 536 max 449 min
Histogram: 1 4 0 1 4 2 3 7 3 3
Nghost:    713.25 ave 1007 max 427 min
Histogram: 1 2 3 4 6 1 3 6 0 2
Neighs:    5531.93 ave 7122 max 4028 min
Histogram: 2 2 3 1 8 1 5 2 2 2

Total # of neighbors = 154894
Ave neighs/atom = 11.0639
Ave special neighs/atom = 8.14157
Neighbor list builds = 99852904
Dangerous builds = 0
System init for write_restart ...
Total wall time: 55:18:32
