LAMMPS (5 Jun 2019)
Reading data file ...
  orthogonal box = (-420 -420 -420) to (420 420 420)
  2 by 2 by 7 MPI processor grid
  reading atoms ...
  14000 atoms
  scanning bonds ...
  51 = max bonds/atom
  scanning angles ...
  1 = max angles/atom
  reading bonds ...
  13800 bonds
  reading angles ...
  13600 angles
Finding 1-2 1-3 1-4 neighbors ...
  special bond factors lj:   0          0          0         
  special bond factors coul: 0          0          0         
  2 = max # of 1-2 neighbors
  2 = max # of 1-3 neighbors
  4 = max # of 1-4 neighbors
  56 = max # of special neighbors
  special bonds CPU = 1.40193 secs
  read_data CPU = 1.55687 secs
Finding 1-2 1-3 1-4 neighbors ...
  special bond factors lj:   1          1          1         
  special bond factors coul: 0          0          0         
  2 = max # of 1-2 neighbors
  2 = max # of 1-3 neighbors
  4 = max # of 1-4 neighbors
  56 = max # of special neighbors
  special bonds CPU = 0.00154209 secs
WARNING: Using 'neigh_modify every 1 delay 0 check yes' setting during minimization (../min.cpp:168)
Neighbor list info ...
  update every 1 steps, delay 0 steps, check yes
  max neighbors/atom: 2000, page size: 100000
  master list distance cutoff = 26.9
  ghost atom cutoff = 26.9
  binsize = 13.45, bins = 63 63 63
  1 neighbor lists, perpetual/occasional/extra = 1 0 0
  (1) pair lj/cut, perpetual
      attributes: half, newton on
      pair build: half/bin/newton
      stencil: half/bin/3d/newton
      bin: standard
Setting up cg style minimization ...
  Unit style    : real
  Current step  : 0
Per MPI rank memory allocation (min/avg/max) = 1.165 | 13.79 | 17.67 Mbytes
Step Temp E_pair E_mol TotEng Press 
       0            0 2.4262116e+12      2649600 2.4262142e+12 1.1227655e+09 
    2593            0   -3213.8545    8077.7575     4863.903  0.022358999 
Loop time of 1.04359 on 28 procs for 2593 steps with 14000 atoms

99.4% CPU use with 28 MPI tasks x no OpenMP threads

Minimization stats:
  Stopping criterion = energy tolerance
  Energy initial, next-to-last, final = 
     2.42621422944e+12      4864.36586087      4863.90297658
  Force two-norm initial, final = 2.10957e+10 3.95325
  Force max component initial, final = 1.05441e+09 0.95274
  Final line search alpha, max atom move = 0.049396 0.0470616
  Iterations, force evaluations = 2593 2659

MPI task timing breakdown:
Section |  min time  |  avg time  |  max time  |%varavg| %total
---------------------------------------------------------------
Pair    | 0.040087   | 0.13259    | 0.24035    |  16.6 | 12.70
Bond    | 0.012529   | 0.034224   | 0.060433   |   7.4 |  3.28
Neigh   | 0.076515   | 0.078541   | 0.080696   |   0.4 |  7.53
Comm    | 0.21649    | 0.34175    | 0.48665    |  11.5 | 32.75
Output  | 0          | 0          | 0          |   0.0 |  0.00
Modify  | 0          | 0          | 0          |   0.0 |  0.00
Other   |            | 0.4565     |            |       | 43.74

Nlocal:    500 ave 894 max 183 min
Histogram: 3 3 3 4 6 0 2 2 3 2
Nghost:    312.964 ave 490 max 136 min
Histogram: 3 3 2 1 4 3 4 4 1 3
Neighs:    3601.79 ave 6560 max 1006 min
Histogram: 4 1 5 2 7 0 1 1 5 2

Total # of neighbors = 100850
Ave neighs/atom = 7.20357
Ave special neighs/atom = 5.82857
Neighbor list builds = 165
Dangerous builds = 0
Setting up Verlet run ...
  Unit style    : real
  Current step  : 2593
  Time step     : 0.1
Per MPI rank memory allocation (min/avg/max) = 1.127 | 12.9 | 16.54 Mbytes
Step Temp E_pair E_mol TotEng Press 
    2593            0   -3213.8545    8077.7575     4863.903  0.022358999 
   12593    223.78834   -2695.2718    11616.244    18259.292   -0.9884171 
Loop time of 2.21706 on 28 procs for 10000 steps with 14000 atoms

Performance: 38.970 ns/day, 0.616 hours/ns, 4510.471 timesteps/s
99.4% CPU use with 28 MPI tasks x no OpenMP threads

MPI task timing breakdown:
Section |  min time  |  avg time  |  max time  |%varavg| %total
---------------------------------------------------------------
Pair    | 0.054051   | 0.19844    | 0.39564    |  23.1 |  8.95
Bond    | 0.039308   | 0.10882    | 0.19164    |  13.3 |  4.91
Neigh   | 0.0025213  | 0.0026226  | 0.0027184  |   0.1 |  0.12
Comm    | 0.81959    | 1.0649     | 1.3353     |  13.0 | 48.03
Output  | 0.0001177  | 0.00014576 | 0.0001834  |   0.0 |  0.01
Modify  | 0.092412   | 0.25331    | 0.44267    |  20.1 | 11.43
Other   |            | 0.5889     |            |       | 26.56

Nlocal:    500 ave 897 max 181 min
Histogram: 3 3 4 3 6 0 2 2 3 2
Nghost:    313.607 ave 486 max 138 min
Histogram: 4 2 2 1 4 3 4 3 1 4
Neighs:    3615.43 ave 6554 max 994 min
Histogram: 3 2 6 1 7 0 1 1 4 3

Total # of neighbors = 101232
Ave neighs/atom = 7.23086
Ave special neighs/atom = 5.82857
Neighbor list builds = 5
Dangerous builds = 0
4000 atoms in group rxnSites
Neighbor list info ...
  update every 1 steps, delay 1 steps, check yes
  max neighbors/atom: 2000, page size: 100000
  master list distance cutoff = 26.9
  ghost atom cutoff = 26.9
  binsize = 13.45, bins = 63 63 63
  2 neighbor lists, perpetual/occasional/extra = 1 1 0
  (1) pair lj/cut, perpetual
      attributes: half, newton on
      pair build: half/bin/newton
      stencil: half/bin/3d/newton
      bin: standard
  (2) fix bond/create/random, occasional, copy from (1)
      attributes: half, newton on
      pair build: copy
      stencil: none
      bin: none
Setting up Verlet run ...
  Unit style    : real
  Current step  : 0
  Time step     : 25
Per MPI rank memory allocation (min/avg/max) = 17.76 | 18.28 | 18.83 Mbytes
Step E_pair PotEng KinEng E_bond E_angle Temp Bonds 
       0   -2695.2718    8920.9718    9338.3206    3106.5236      8509.72    223.78834    13800 
 1000000   -1584.4834    7144.9456    13013.079    295.81849    8433.6105    311.85216    14949 
 2000000   -1677.6475    6645.2131    13097.066   -75.520748    8398.3814    313.86487    15078 
 3000000   -1763.9483    6027.7883    12978.659   -453.38046    8245.1171     311.0273    15165 
 4000000   -1693.5211    6028.4697    12927.039   -560.88523     8282.876    309.79026    15234 
 5000000   -1914.5553    5542.6307    12833.732   -793.39915    8250.5851    307.55419    15284 
 6000000   -1952.0402    5332.7024    12879.125   -929.87763    8214.6202    308.64201    15311 
 7000000   -1961.3156    5355.0371    13040.128   -799.02954    8115.3822    312.50037    15311 
 8000000   -1996.2913    5253.9285    12839.956   -1021.9213    8272.1411    307.70335    15350 
 9000000   -2040.7818    5132.3699    12736.536   -1074.4821    8247.6337    305.22493    15352 
10000000   -2054.6079    5310.6466    13061.007   -1004.0594     8369.314    313.00072    15360 
11000000   -2098.0839    4970.7754    12952.051   -1166.0115    8234.8709    310.38964    15359 
12000000   -2122.2733    5055.4953     12980.07   -1086.1761    8263.9447     311.0611    15371 
13000000   -2191.9963    5010.2003    12909.315    -1106.519    8308.7155     309.3655    15373 
14000000   -2287.9642    4815.1752    12700.489   -1179.8236     8282.963    304.36109    15398 
15000000   -2238.1094    4885.2099    12910.044   -1248.6296    8371.9488    309.38296    15394 
16000000   -2210.4217    4857.5227    13077.123   -1133.3601    8201.3046    313.38694    15408 
17000000   -2292.5181    4685.2851    12936.997   -1311.1646    8288.9678    310.02888    15415 
18000000   -2315.8081    4701.6029    12979.218   -1143.4368    8160.8477    311.04069    15396 
19000000   -2331.2972    4606.5374     12813.08   -1414.9346    8352.7692    307.05929    15449 
20000000   -2336.0062    4609.2175    12829.304   -1371.5266    8316.7503    307.44808    15441 
21000000   -2381.3292    4510.1973     13104.51    -1373.956    8265.4826    314.04324    15425 
22000000   -2439.9772    4601.7795    12964.478   -1249.4023    8291.1591    310.68745    15447 
23000000    -2421.288    4534.8227    12968.572   -1312.2561    8268.3668    310.78558    15449 
24000000   -2392.6108    4359.0736    12963.441   -1427.1434    8178.8277    310.66261    15461 
25000000   -2481.3594     4518.759    12861.019   -1270.1962    8270.3146    308.20811    15438 
26000000   -2497.3245    4125.2375    13070.445   -1550.7286    8173.2906     313.2269    15483 
27000000   -2598.9867    4134.4493    12885.618   -1475.7344    8209.1703    308.79762    15480 
28000000   -2593.5418    4281.9503    12864.644   -1419.5484    8295.0405    308.29499    15473 
29000000   -2569.4418    4346.9451    12919.175   -1318.5167    8234.9036    309.60178    15466 
30000000   -2629.1926    4233.6613    12966.648   -1427.0567    8289.9106    310.73946    15482 
31000000    -2566.927    4242.0997    12825.666   -1448.1784    8257.2051    307.36088    15480 
32000000   -2524.5268     4261.589    12883.117    -1473.146    8259.2618    308.73769    15487 
33000000   -2548.7317    4281.2451    12875.808   -1434.8133    8264.7901    308.56253    15478 
34000000   -2579.3767     4198.101     13049.44   -1476.0043     8253.482    312.72353    15470 
35000000   -2471.4781    4346.8569     12872.91   -1376.7487    8195.0837    308.49307    15456 
36000000   -2616.5088    4260.3855    12977.014     -1437.67    8314.5643    310.98787    15477 
37000000   -2565.7591    4135.8452    12747.818   -1516.5765    8218.1808     305.4953    15491 
38000000   -2522.3316    4339.7549    12952.602   -1500.0584    8362.1449    310.40287    15483 
39000000   -2646.4161    4115.4031    12842.627    -1485.131    8246.9503    307.76735    15493 
40000000   -2664.8421     3913.964    12882.469   -1499.2744    8078.0806    308.72214    15492 
41000000   -2666.0947    3953.7908    12926.783   -1530.0338    8149.9193    309.78411    15521 
42000000   -2743.1528    3971.6051    12836.949   -1565.4084    8280.1663    307.63127    15503 
43000000   -2665.9126     3879.539     13101.71   -1522.7952    8068.2468    313.97614    15505 
44000000   -2660.7628    3971.4479    12943.338   -1593.7679    8225.9786    310.18085    15525 
45000000   -2774.0827    3795.2423    13062.976   -1705.3863    8274.7113    313.04791    15519 
46000000   -2685.8631    3986.4616    12716.157   -1525.8035    8198.1282    304.73656    15508 
47000000   -2779.1138    3757.7686    13011.121   -1661.3192    8198.2017    311.80523    15519 
48000000   -2779.3872    3907.0632    12758.479   -1576.2768    8262.7272    305.75078    15530 
49000000   -2664.0708    4193.1791    12909.105   -1411.9788    8269.2287    309.36048    15503 
50000000   -2721.1759     3917.023    12926.749   -1621.9808    8260.1798     309.7833    15513 
51000000   -2810.4212    3907.6588     12861.71   -1591.4924    8309.5724    308.22467    15521 
52000000   -2810.5488    3836.5932    12787.427   -1670.8981      8318.04    306.44451    15521 
53000000   -2753.5571    3901.1217    12777.946   -1571.7304    8226.4092    306.21732    15502 
54000000   -2830.3596     3843.888    12956.335   -1637.8096    8312.0572    310.49232    15540 
55000000   -2795.4477    3782.8946    13029.965    -1666.474    8244.8164    312.25682    15534 
56000000    -2823.859     3706.163    13053.391   -1639.6062    8169.6281    312.81821    15534 
57000000   -2758.0447    3977.9959    12915.649   -1465.9748    8202.0154    309.51729    15519 
58000000   -2763.8113     3691.633    12969.447   -1577.9787     8033.423    310.80653    15525 
59000000   -2787.5956    3683.1193    13014.444   -1691.9795    8162.6943    311.88486    15548 
60000000   -2777.1693    3613.7304    12978.805   -1697.7143     8088.614    311.03079    15547 
61000000   -2731.3182    3793.8616    13043.115   -1622.1763     8147.356    312.57196    15526 
62000000   -2724.5315    3960.8088    12901.744   -1685.2199    8370.5602    309.18406    15542 
63000000   -2693.6463    3817.3786     12981.38   -1702.0954    8213.1202     311.0925    15530 
64000000   -2797.6558     3604.103    12743.697   -1761.7754    8163.5342    305.39655    15568 
65000000   -2805.0529    3623.7641    12908.964   -1806.0111    8234.8281    309.35709    15556 
66000000   -2817.6245    3622.3144    13001.578   -1732.4463    8172.3851    311.57655    15555 
67000000   -2809.3348    3680.7575    12918.862   -1773.0923    8263.1846    309.59428    15550 
68000000   -2804.1991    3703.1754    12820.932   -1669.9133    8177.2879    307.24744    15537 
69000000   -2799.2862    3742.0833    13005.727   -1703.0073    8244.3769    311.67596    15543 
70000000   -2855.7585    3859.5792    12874.284   -1576.2459    8291.5837    308.52601    15546 
71000000   -2746.7212    3781.4351    13046.836   -1616.3377    8144.4939    312.66112    15524 
72000000   -2766.0875    3676.8571    12942.038   -1658.6738    8101.6184    310.14968    15537 
73000000   -2892.1083    3505.7426    12860.584   -1757.2477    8155.0985    308.19768    15561 
74000000   -2839.5524    3730.1691    12982.202   -1655.5913    8225.3127     311.1122    15538 
75000000   -2711.6678    3631.3396     12774.11   -1784.1937    8127.2011    306.12538    15560 
76000000   -2813.5492    3557.8396    12902.176   -1829.0654    8200.4543    309.19443    15575 
77000000   -2755.9434    3710.9073    12730.363   -1761.9012     8228.752      305.077    15572 
78000000   -2859.8659    3604.4418    13018.471   -1741.4837    8205.7914    311.98137    15556 
79000000   -2860.5512    3636.6567    12911.193   -1689.6776    8186.8855     309.4105    15553 
80000000    -2809.481    3599.5627    12769.192   -1762.7343     8171.778    306.00751    15572 
81000000   -2952.6533    3380.0061    13052.051   -1859.9689    8192.6282    312.78611    15563 
82000000   -2809.5739    3495.3869    12927.913   -1827.1154    8132.0763     309.8112    15563 
83000000    -2806.763    3567.4163    12759.876   -1812.0485    8186.2278    305.78427    15563 
84000000   -2850.1941    3706.5614    12849.485   -1677.6383    8234.3938     307.9317    15549 
85000000    -2824.453    3611.1129    12843.079   -1744.9202    8180.4861    307.77818    15561 
86000000    -2836.541    3626.4933    12913.725   -1673.4008    8136.4351    309.47119    15544 
87000000   -2803.2209    3540.2469     12784.79   -1800.3294    8143.7972    306.38133    15572 
88000000   -2803.1344    3763.3529    12911.837   -1628.4525    8194.9398    309.42594    15557 
89000000   -2837.7033    3608.0844    13043.738   -1764.4039    8210.1917    312.58689    15583 
90000000   -2835.9552    3576.0032    13121.987   -1795.2936     8207.252    314.46209    15564 
91000000   -2881.9736    3531.3295    12904.887   -1758.6443    8171.9473    309.25939    15566 
92000000   -2882.0608    3535.9926     12929.86   -1778.2409    8196.2943    309.85785    15547 
93000000   -2938.9032    3424.5395    12901.894   -1768.4177    8131.8604    309.18766    15584 
94000000   -2931.7319    3607.2621    12846.717   -1759.8593    8298.8532    307.86537    15564 
95000000   -2850.8343    3369.2669    12947.733   -1831.4847     8051.586    310.28617    15579 
96000000   -2850.2661    3514.3026    12800.938   -1715.3501    8079.9188     306.7683    15574 
97000000   -2859.7406    3563.6822    12855.885   -1748.0336    8171.4564    308.08507    15567 
98000000   -2891.2375    3605.9023    12916.324    -1788.741    8285.8808    309.53346    15548 
99000000   -2821.3312     3607.701    12819.561   -1718.1155    8147.1477    307.21459    15558 
100000000   -2779.8572     3374.382    12925.454   -1804.4008    7958.6399    309.75226    15577 
101000000   -2881.8754    3474.2495    12972.613   -1792.9244    8149.0493    310.88241    15587 
102000000   -2795.9409    3627.0643    12983.837   -1745.8396    8168.8449    311.15139    15556 
103000000   -2938.2725    3428.3456     12854.56   -1743.5456    8110.1637    308.05332    15566 
104000000   -2818.4035    3665.1571    12847.868   -1776.6591    8260.2197    307.89296    15566 
105000000   -2890.3281    3458.6414    12898.368   -1868.5684    8217.5379    309.10316    15585 
106000000    -2806.833    3583.8924    12810.447   -1748.1442    8138.8696    306.99618    15577 
107000000   -2890.0506    3547.5032    12606.706   -1760.3762      8197.93    302.11363    15564 
108000000   -2796.1776    3513.5173    12907.457   -1843.8036    8153.4984    309.32097    15589 
109000000   -2872.7106    3449.3377    13042.378   -1867.9147     8189.963    312.55428    15595 
110000000   -2847.0505    3441.5228    13005.579   -1771.1534    8059.7267    311.67243    15578 
111000000   -2955.5709    3407.8604    13009.223   -1794.2251    8157.6565    311.75975    15579 
112000000    -2938.874    3359.5602    12869.982   -1841.2834    8139.7176     308.4229    15572 
113000000   -2990.1517    3448.3348     12902.09   -1746.8046    8185.2911    309.19236    15570 
114000000   -2960.6444    3511.8915    13025.319   -1701.5838    8174.1197    312.14548    15564 
115000000   -2899.5295    3371.4917    12906.838   -1849.6139     8120.635    309.30615    15584 
116000000   -2857.4463    3605.8466    12804.334   -1760.0856    8223.3785    306.84968    15566 
117000000   -2858.8765    3565.9939    12946.169    -1746.874    8171.7444    310.24869    15571 
118000000   -2902.8672    3540.8685    12907.105   -1773.0869    8216.8226    309.31254    15590 
119000000   -2808.2033    3591.0925     12999.55   -1778.5285    8177.8243    311.52793    15577 
120000000   -2846.1015    3615.5914    13019.098    -1779.523     8241.216    311.99639    15574 
121000000   -2895.1683    3469.6687    12978.745   -1802.8081    8167.6451    311.02935    15585 
122000000   -2803.9535    3426.7507    12904.513   -1905.0781    8135.7823    309.25043    15606 
123000000   -2851.4869    3441.9271    12907.462   -1854.4562    8147.8703    309.32108    15594 
124000000   -2859.5813    3429.8227    12947.229   -1843.8698    8133.2739    310.27409    15575 
125000000   -2926.5203    3519.3558    12897.314   -1776.9952    8222.8712    309.07789    15585 
126000000    -3007.642    3324.4537    12945.349   -1860.3383    8192.4339    310.22904    15589 
127000000   -2922.6721    3597.2217    12931.523   -1714.1646    8234.0585     309.8977    15581 
128000000   -2953.3305    3387.1425    12881.425   -1851.9479     8192.421    308.69713    15598 
129000000   -2930.1156      3387.68    13027.968   -1932.0955     8249.891    312.20897    15593 
130000000   -2874.3601    3330.4541    12988.031   -1919.0847     8123.899     311.2519    15597 
131000000   -2922.6933    3571.5433    12893.423   -1725.9594     8220.196    308.98465    15579 
132000000   -2954.4933    3501.6475    12990.877   -1843.0213     8299.162    311.32011    15577 
133000000   -3035.6208    3402.1254    12981.679   -1792.8689    8230.6151    311.09967    15567 
134000000   -2946.7362    3280.7954    13020.842    -1889.832    8117.3636     312.0382    15584 
135000000   -2936.5084    3605.6997    12852.687   -1706.6386    8248.8467    308.00845    15572 
136000000   -2867.2766    3481.0953     13104.76   -1799.7483    8148.1202    314.04924    15579 
137000000   -2877.9994    3584.6833     13056.89   -1735.0142    8197.6969    312.90206    15571 
138000000    -2913.688    3406.8233    13010.163   -1819.4623    8139.9736    311.78227    15580 
139000000   -2880.7621    3521.6649    13041.997   -1822.2745    8224.7015    312.54517    15582 
140000000   -2883.4284    3381.6325    12870.074   -1894.4575    8159.5185    308.42512    15594 
141000000   -2911.6627    3473.1664    12961.528   -1871.8981    8256.7271    310.61675    15589 
142000000   -2946.9822    3323.0828    12887.037   -1919.5124    8189.5774    308.83163    15597 
143000000   -2902.5096    3552.5448    12782.023   -1729.4001    8184.4544    306.31501    15571 
144000000   -2942.8398     3478.611    13068.264   -1780.3795    8201.8302    313.17463    15625 
145000000   -2759.8366     3586.941    12795.742    -1775.632    8122.4096    306.64379    15580 
146000000   -2829.9217    3632.3218    12790.018   -1817.6641    8279.9076    306.50662    15605 
147000000   -2794.8009    3580.2268    12877.245   -1838.8606    8213.8883    308.59697    15571 
148000000   -2804.5484    3557.6624    13116.277    -1845.395    8207.6058    314.32525    15582 
149000000   -2900.4625    3450.2284    12885.376   -1859.9253    8210.6162    308.79182    15573 
150000000   -2966.6286    3478.3652    12970.829   -1719.6255    8164.6193    310.83967    15587 
151000000     -2853.81    3395.7158    12831.105   -1869.8751    8119.4009    307.49124    15599 
152000000   -2820.8894    3691.4964    12967.735   -1759.0434    8271.4292    310.76551    15578 
153000000   -2836.5577    3575.0466      12909.5   -1779.6888    8191.2931    309.36994    15582 
154000000   -2873.1464    3540.6286     12840.88   -1756.8595    8170.6345    307.72548    15579 
155000000    -2857.546    3428.3391    13003.227   -1861.7244    8147.6095    311.61605    15599 
156000000   -2882.6849    3529.3082    12835.507   -1764.8181    8176.8113    307.59673    15578 
157000000   -2910.1822     3665.189    12953.838   -1735.6206    8310.9919    310.43247    15571 
158000000   -2837.7605    3518.4376    12751.522   -1945.8044    8302.0025    305.58407    15606 
159000000   -2934.3524    3552.6944    12948.977   -1783.8179    8270.8646    310.31599    15587 
160000000   -2897.6953     3455.414    12938.473   -1863.0083    8216.1176    310.06426    15595 
161000000    -2989.614    3417.3182    12933.805   -1876.6765    8283.6087     309.9524    15591 
162000000   -2879.7596    3444.2499    12907.988    -1854.167    8178.1765    309.33371    15570 
163000000   -2980.2856    3438.7869    12982.959   -1854.3448    8273.4173    311.13034    15590 
164000000   -2867.0996    3579.0768    12977.247   -1798.0641    8244.2405    310.99345    15588 
165000000   -2914.6372    3436.5877    12959.301   -1858.8857    8210.1107     310.5634    15579 
166000000   -2829.6163    3438.9826    12817.418   -1817.6699    8086.2688    307.16324    15585 
167000000   -2881.7133    3482.3324    12929.034   -1797.8963     8161.942    309.83807    15598 
168000000   -2970.0625    3338.4992    13088.102   -1810.3453    8118.9071    313.65005    15587 
169000000   -2877.0013      3535.62    12984.176    -1811.196    8223.8173    311.15951    15600 
170000000   -2848.1279     3527.215    12941.819   -1834.2905    8209.6334    310.14445    15584 
171000000   -2871.3125    3452.1542    12857.727   -1817.8895    8141.3562    308.12922    15584 
172000000   -2859.4516    3390.7359    13015.689   -1879.9887    8130.1762    311.91471    15601 
173000000   -2904.3301    3447.9632    12992.431   -1856.6358     8208.929    311.35734    15593 
174000000   -2887.6264    3425.3484    13045.618    -1818.414    8131.3888    312.63194    15590 
175000000   -2853.6992    3509.2378    12773.331   -1784.9278    8147.8648    306.10671    15579 
176000000   -2873.5136    3452.5863    12870.052    -1921.134    8247.2339    308.42459    15594 
177000000    -2876.887    3540.8645    12965.416   -1834.9012    8252.6527    310.70993    15613 
178000000     -2811.44    3441.6866    12840.461   -1959.8184     8212.945    307.71545    15612 
179000000   -2771.3904     3448.326    12822.175    -1937.644    8157.3603    307.27723    15592 
180000000    -2909.026    3429.5173    12729.747   -1911.6342    8250.1775    305.06224    15587 
181000000   -2954.8541       3381.2    13060.909   -1870.2356    8206.2898    312.99839    15604 
182000000   -2893.0958    3278.0738    12852.127   -1939.5506    8110.7202    307.99502    15595 
183000000   -2871.0603    3484.9109    12846.212    -1898.941    8254.9122    307.85326    15596 
184000000   -2840.8041    3619.2889     12867.67   -1814.9762    8275.0692    308.36749    15588 
185000000   -2826.5217    3688.6952    12889.509   -1797.0606    8312.2774    308.89087    15591 
186000000   -2898.7269    3577.3721    13079.318   -1742.9806    8219.0796    313.43955    15582 
187000000   -2826.4127    3453.8173    12889.682   -1901.5714    8181.8014    308.89502    15601 
188000000   -2917.4681    3458.6197    13011.217    -1929.681    8305.7687    311.80752    15610 
189000000   -2804.7968    3355.7571    12862.154   -1885.0686    8045.6225    308.23532    15601 
190000000   -2805.6804    3516.2349    12922.918   -1809.0023    8130.9176    309.69149    15593 
191000000   -2847.2848    3436.3066    12741.529   -1940.6996    8224.2911    305.34458    15598 
192000000   -2812.0715    3492.9712     13029.79   -1812.5025    8117.5451    312.25264    15574 
193000000   -2924.7174     3616.544    12837.664   -1743.7465    8285.0079    307.64841    15575 
194000000   -2841.8146    3364.0787    12866.285    -1914.728    8120.6213    308.33431    15617 
195000000   -2820.2267    3452.5093    12988.564   -1871.9558    8144.6919    311.26467    15601 
196000000   -2809.5507    3643.7184    12725.995   -1724.8242    8178.0933    304.97232    15588 
197000000   -2883.5665    3441.5154    13060.974   -1873.5962    8198.6781    312.99995    15596 
198000000   -2922.5083     3431.616    12872.249   -1941.6095    8295.7338    308.47723    15604 
199000000   -2909.7106    3467.4574    13033.688    -1756.612      8133.78    312.34604    15584 
200000000   -2829.8413    3387.1761    12829.155   -1914.3226      8131.34     307.4445    15602 
201000000    -2774.493    3623.6171    12723.334   -1838.0878    8236.1979    304.90855    15589 
202000000   -2864.1958    3323.2525    12806.575   -1886.0568    8073.5051    306.90339    15584 
203000000   -2800.4057    3383.2926    12829.448   -1879.7475    8063.4458    307.45152    15588 
204000000   -2878.0714    3447.2644    12830.447   -1869.6413    8194.9771    307.47547    15595 
205000000   -2798.1391     3398.748    12764.526   -1849.3815    8046.2687     305.8957    15609 
206000000   -2848.0924    3470.1487    12881.515   -1883.9253    8202.1664    308.69928    15584 
207000000   -2872.6219    3500.4328      13027.1   -1785.0404    8158.0951    312.18816    15588 
208000000   -2923.8528     3276.626    12988.799    -1894.151    8094.6298    311.27029    15602 
209000000   -2889.6178    3357.3159    12991.355    -1883.982    8130.9157    311.33156    15605 
210000000   -2870.0109    3528.1048    12805.886   -1815.3338    8213.4495    306.88687    15586 
211000000   -2826.5291      3461.67    12962.976   -1916.9391    8205.1382    310.65145    15583 
212000000   -2867.6413     3294.512    13004.951   -1911.6246    8073.7779    311.65738    15603 
213000000   -2846.4849    3452.5421    12883.435   -1827.1278    8126.1548     308.7453    15588 
214000000   -2874.8503    3488.8716    13030.049   -1823.4445    8187.1664    312.25884    15603 
215000000   -2804.8272     3524.148    13050.159   -1864.5004    8193.4756    312.74076    15602 
216000000   -2850.4042    3363.8699     13004.28   -1859.9346    8074.2086    311.64129    15601 
217000000   -2885.5012    3276.3726    12910.915   -1892.8048    8054.6786    309.40385    15608 
218000000   -2851.3609    3595.0793    12838.638   -1800.5428    8246.9829    307.67175    15586 
219000000    -2945.177    3389.5694    12964.724   -1843.6361    8178.3825    310.69336    15585 
220000000   -2937.6227    3276.8374    12906.423   -1910.1263    8124.5865     309.2962    15595 
221000000   -3026.0594    3402.7254    12899.911   -1755.7213    8184.5061    309.14014    15592 
222000000   -3029.6163    3490.9205    12810.037   -1782.6975    8303.2342    306.98635    15577 
223000000   -2925.7592    3367.7624     12916.72   -1884.7927    8178.3143    309.54296    15577 
224000000   -2873.3666    3324.3589    12968.353     -1952.71    8150.4354    310.78032    15592 
225000000   -2938.5392     3508.131    12965.728   -1870.9456    8317.6158     310.7174    15611 
226000000   -2917.5621    3369.0122    13068.656   -1900.1176     8186.692    313.18403    15606 
227000000   -2935.8589    3364.7124    13070.517   -1897.1642    8197.7355    313.22863    15597 
228000000   -2898.5468    3449.6957    12864.455   -1833.5258    8181.7683    308.29045    15592 
229000000   -2950.8759     3394.562    12983.337    -1864.333    8209.7709     311.1394    15600 
230000000    -2918.383    3562.1911    12918.431   -1688.4412    8169.0154    309.58395    15578 
231000000   -2960.7313    3271.6769     12922.32   -1859.1729    8091.5812    309.67716    15603 
232000000   -2833.7973    3462.5305    12960.683   -1943.5044    8239.8323    310.59651    15608 
233000000   -2938.8602    3448.0003    12890.244   -1817.1747    8204.0352    308.90847    15595 
234000000   -2901.6533    3530.8874    13051.184   -1775.8618    8208.4025    312.76532    15578 
235000000   -2878.4848    3377.6081    12884.363   -1876.4606    8132.5536    308.76754    15600 
236000000   -2979.3427    3244.6442    12879.169   -1899.6866    8123.6735    308.64307    15610 
237000000   -2994.2176    3243.1414    12906.131   -1926.5978    8163.9568    309.28921    15600 
238000000   -2878.5307    3346.2994    12982.509   -1856.1402    8080.9703    311.11955    15581 
239000000   -2832.6524    3582.2849    12872.148   -1765.8369    8180.7742    308.47482    15607 
240000000   -2763.0805    3573.8797    12951.197   -1865.6785    8202.6387    310.36919    15610 
241000000   -2888.3776    3388.4192    13011.207   -1902.6454    8179.4423    311.80729    15596 
242000000   -2944.9619    3374.7592    12985.501   -1853.3956    8173.1167    311.19126    15595 
243000000   -2945.7805    3455.7305    12969.994   -1769.4371    8170.9481    310.81964    15589 
244000000   -3001.9646    3328.7485    12980.197   -1826.5779    8157.2911    311.06415    15582 
245000000   -2971.9944    3363.5954    12864.913   -1857.3167    8192.9065    308.30143    15597 
246000000   -2943.1852    3579.4209    12979.807   -1729.4713    8252.0773     311.0548    15584 
247000000   -2956.4195    3371.2842    12940.699   -1818.8171    8146.5208    310.11761    15588 
248000000   -2961.9304    3309.5998    12998.724   -1840.1402    8111.6704    311.50814    15583 
249000000   -3032.3674    3278.0274     13044.32   -1867.4629    8177.8577    312.60084    15591 
250000000   -2911.2921    3263.6583    13001.983   -1869.9068    8044.8572    311.58624    15603 
251000000   -2960.9596    3321.8205    12795.652   -1829.0187    8111.7987    306.64161    15591 
252000000   -3006.5888    3384.1566    12922.095   -1826.7252    8217.4707    309.67177    15587 
253000000   -2946.6536    3367.4949    12750.739   -1896.7263    8210.8747    305.56531    15606 
254000000   -2957.0514    3361.8101    12884.156   -1882.4272    8201.2887    308.76258    15587 
255000000   -3025.4017    3423.2232    12820.327   -1820.7751       8269.4    307.23295    15588 
256000000   -2954.3234    3411.8716    13034.425   -1777.9732    8144.1683     312.3637    15585 
257000000   -2920.4601    3509.2132    12801.193    -1771.371    8201.0442    306.77442    15582 
258000000   -2967.2999    3267.3984    12715.586   -1811.4609    8046.1592    304.72288    15584 
259000000   -2981.2818    3501.2134     13103.95   -1789.4969    8271.9921    314.02982    15580 
260000000   -2947.4702    3384.4121     12802.46   -1822.8937     8154.776    306.80477    15593 
261000000   -2964.5618    3404.9463    13010.244   -1770.2152    8139.7233    311.78421    15579 
262000000   -3032.2341    3382.1615    12787.952   -1767.1253     8181.521     306.4571    15579 
263000000   -3033.4029    3342.7056    12894.747    -1775.259    8151.3675    309.01638    15570 
264000000   -3057.0873    3126.6955    12943.057   -1879.6938    8063.4766    310.17411    15607 
265000000   -2950.5515    3160.3458    12849.508   -2010.3179    8121.2153    307.93226    15610 
266000000   -2940.7612    3283.7413    12799.298   -1797.2962    8021.7986      306.729    15594 
267000000    -3053.395     3216.818    12795.386   -1875.5456    8145.7585    306.63525    15581 
268000000   -2989.9074     3386.627    12822.669   -1818.3922    8194.9266    307.28908    15586 
269000000    -2981.856    3344.7067    13038.831   -1846.6184    8173.1811    312.46929    15601 
270000000   -3035.3223    3137.2187    13035.644   -1896.6284    8069.1694    312.39291    15592 
271000000    -3042.833    3321.0101    13153.367   -1800.4917    8164.3347    315.21409    15583 
272000000   -3011.0862    3343.1283    12876.827   -1802.8622    8157.0767    308.58695    15583 
273000000   -3019.4634    3158.7795    12987.584   -1918.8052    8097.0481    311.24119    15591 
274000000   -2983.1819    3394.7697    12906.398   -1806.9587    8184.9103     309.2956    15587 
275000000    -2996.868    3288.7784    12975.521   -1802.7908    8088.4373    310.95209    15590 
276000000   -2884.5801    3443.3381    13074.793    -1804.565    8132.4832    313.33111    15580 
277000000   -2909.6768    3337.6893    12949.219   -1852.2193    8099.5854    310.32177    15587 
278000000   -2881.7461    3485.2792    12866.532   -1823.4972    8190.5225    308.34022    15588 
279000000   -2901.7457     3513.394    12908.005   -1841.8784    8257.0181     309.3341    15603 
280000000   -2963.6675    3431.4893    12880.642    -1924.913    8320.0698    308.67836    15581 
281000000   -2971.1092    3406.6292    12807.025   -1871.8315    8249.5699    306.91416    15585 
282000000   -2922.5356    3334.9481    12969.475    -1920.467    8177.9507     310.8072    15593 
283000000   -3047.9682    3291.1347    12957.588    -1872.958    8212.0608    310.52233    15590 
284000000   -2945.7167    3147.3691    12855.873   -1994.9426    8088.0284    308.08479    15599 
285000000    -2899.359    3488.5043    13014.061   -1783.8288    8171.6921    311.87569    15592 
286000000   -2939.0739    3299.6282    13116.143   -1825.3422    8064.0444    314.32204    15589 
287000000   -2901.4206    3385.9289    12832.066   -1893.1689    8180.5185    307.51426    15594 
288000000   -3050.3164     3094.897    12851.475   -1938.1412    8083.3546    307.97939    15606 
289000000   -3023.2511    3245.1129    12879.629   -1821.6979    8090.0619    308.65408    15591 
290000000   -3031.1233    3472.0695    12969.632   -1772.7777    8275.9704    310.81097    15603 
291000000   -2969.1538    3286.4897    12940.614   -1868.1704    8123.8139    310.11557    15585 
292000000   -2994.6527     3335.773    12903.602     -1824.23    8154.6558    309.22858    15584 
293000000   -2939.4918    3405.1227    13006.724   -1792.0877    8136.7023    311.69985    15590 
294000000   -2913.5405    3336.5345    12977.786   -1862.2543    8112.3292    311.00637    15597 
295000000   -2912.0062    3350.0938    12946.755   -1867.5937    8129.6936    310.26273    15596 
296000000   -2905.8726    3576.3521    12809.556   -1709.0672     8191.292    306.97483    15577 
297000000   -2966.4911     3502.719    12956.892   -1805.1127    8274.3228    310.50566    15573 
298000000   -2963.5452    3453.0384    12801.812    -1779.852    8196.4355    306.78924    15586 
299000000   -3004.8122    3429.3716    12999.487   -1804.9156    8239.0993    311.52643    15570 
300000000   -3044.3969    3285.6953    12963.166   -1840.4036    8170.4958    310.65602    15594 
301000000   -2951.4621    3213.5064    12961.939   -1866.7942    8031.7627    310.62662    15600 
302000000   -2982.5952    3369.3832    12951.322   -1854.2624    8206.2408    310.37219    15587 
303000000   -2814.2697    3412.9185    12789.051     -1900.64    8127.8283    306.48342    15589 
304000000   -3003.0619    3442.2099    12989.723   -1741.9003    8187.1722    311.29243    15570 
305000000   -2923.7101     3444.909    12888.956   -1771.2605    8139.8796     308.8776    15568 
306000000   -2974.9434    3425.3333    12988.741   -1850.0323    8250.3089    311.26891    15576 
307000000   -2926.0858    3515.5786     12801.98    -1821.357    8263.0214    306.79327    15590 
308000000   -2979.9166    3477.5665    12725.733   -1846.5382    8304.0213    304.96606    15599 
309000000     -2911.54    3325.6006    13148.058   -1862.8351    8099.9758    315.08687    15590 
310000000   -2824.4651    3588.7936    13003.972   -1685.7543    8099.0131     311.6339    15573 
311000000   -2987.9116    3375.4715    13000.174   -1802.5689     8165.952    311.54288    15575 
312000000   -2948.5244    3558.2374    12833.494   -1788.8098    8295.5716    307.54848    15573 
313000000   -2983.8738    3304.6085    12940.695   -1847.7686    8136.2509     310.1175    15577 
314000000   -3029.0019    3340.4818    12829.403   -1839.5106    8208.9943    307.45044    15587 
315000000   -2993.7954     3280.514    12802.039   -1793.5242    8067.8336    306.79469    15602 
316000000   -2944.5381    3363.4364    12779.249   -1844.7183    8152.6928    306.24853    15576 
317000000   -3003.7388    3216.9395    12849.233   -1905.2009    8125.8792    307.92567    15605 
318000000   -2943.8885    3426.0174    12990.038   -1819.8266    8189.7325        311.3    15599 
319000000    -2936.344    3387.5171    13107.558   -1796.5143    8120.3755    314.11629    15577 
320000000   -2983.2238    3404.2276    12865.262   -1803.5651    8191.0165    308.30979    15585 
321000000   -3018.6675    3356.0269    12932.898   -1777.1316     8151.826    309.93067    15572 
322000000   -3014.9543    3475.1947    12949.528    -1751.769    8241.9181     310.3292    15566 
323000000   -2942.1536    3538.4829    12897.618   -1678.4712    8159.1077     309.0852    15545 
324000000   -2934.2001    3400.1115    12792.846   -1870.8839    8205.1955    306.57439    15585 
325000000   -2925.3923     3349.239    12836.719   -1879.4851    8154.1164    307.62577    15595 
326000000   -2969.0298    3478.4766    12931.455   -1769.9485    8217.4549    309.89608    15592 
327000000   -2968.1581    3409.3845    12816.318   -1884.7996    8262.3422    307.13688    15595 
328000000    -2874.828    3339.8509    13045.503   -1925.5371    8140.2161    312.62918    15608 
329000000     -2887.35    3449.1079      12909.6   -1790.1975    8126.6555    309.37234    15577 
330000000   -2951.3121    3313.1364    13097.155   -1916.6569    8181.1055    313.86699    15601 
331000000   -2929.5596    3397.3297    12962.173   -1829.7572    8156.6464    310.63222    15586 
332000000   -2907.3428    3295.5819    13066.004   -1859.9505    8062.8752    313.12048    15590 
333000000    -3083.424     3308.871    12968.374   -1880.8629     8273.158    310.78082    15595 
334000000   -2918.2179    3323.1648    12929.738   -1980.1903     8221.573    309.85493    15607 
335000000   -3026.5698    3286.8537    12922.696   -1882.9586    8196.3822    309.68617    15602 
336000000   -2955.2354    3405.6196    12992.082   -1873.5671    8234.4221    311.34898    15572 
337000000    -3029.007    3368.9831      12919.5   -1834.7346    8232.7247    309.60959    15591 
338000000    -3061.986    3242.6038    12862.821   -1873.6499    8178.2397     308.2513    15599 
339000000   -3002.7264    3420.7872    12936.713   -1785.3736    8208.8872    310.02207    15591 
340000000   -2993.9809    3503.1458    13013.223   -1783.3904     8280.517     311.8556    15571 
341000000   -3090.0238    3211.6673    12745.652   -1866.7988    8168.4898     305.4434    15604 
342000000   -2984.9215    3439.1201     12877.33   -1790.1284      8214.17    308.59899    15585 
343000000    -2949.708    3340.0255    12979.714   -1914.3017    8204.0353    311.05259    15607 
344000000   -2920.5846    3495.8884    12763.725   -1886.2817    8302.7547    305.87651    15591 
345000000   -3022.0579    3246.9909    13044.296   -1793.0006    8062.0494    312.60027    15597 
346000000   -2991.2308    3303.3525    12781.415   -1893.2412    8187.8245    306.30045    15585 
347000000   -3068.7126    3167.3396    12929.618   -1898.4268     8134.479    309.85205    15589 
348000000   -3078.0467    3282.0231    12997.584    -1821.832    8181.9018    311.48083    15594 
349000000   -3086.1842    3081.1817    12867.742   -1938.5118    8105.8777    308.36922    15617 
350000000   -2956.2235    3215.6357    12925.416   -1897.4579    8069.3171    309.75135    15618 
351000000   -2868.7329    3438.1931    12840.599   -1847.8328    8154.7587    307.71875    15594 
352000000   -2970.7988     3390.884    12929.876   -1795.4763    8157.1591    309.85824    15591 
353000000   -2974.6315    3287.3464    12991.443    -1853.072    8115.0499    311.33367    15591 
354000000   -2971.1496      3346.81    12733.969   -1895.8049    8213.7645    305.16342    15595 
355000000   -3048.6532    3303.8295    12913.375   -1803.5784    8156.0611    309.46279    15577 
356000000   -3156.1944    3195.2527    12850.851   -1815.3024    8166.7495    307.96445    15577 
357000000   -3043.3539    3339.2983    12997.815   -1814.4773    8197.1296    311.48637    15594 
358000000   -2997.4595    3257.0414    12958.523   -1889.4944    8143.9953    310.54476    15592 
359000000   -3124.5465    3237.2654    12939.216   -1843.4041     8205.216    310.08205    15589 
360000000   -3045.7764     3264.839    13096.631   -1833.4503    8144.0657    313.85445    15592 
361000000   -3169.0117    3106.2601    12981.117   -1850.0522     8125.324     311.0862    15597 
362000000   -2966.5961    3334.9058    12921.096   -1815.2269    8116.7288    309.64783    15612 
363000000   -2955.1157    3257.8603    12836.096   -1882.5984    8095.5744    307.61085    15596 
364000000   -3106.4727    3044.2971    12921.476   -1940.2914    8091.0612    309.65694    15609 
365000000   -3087.2608    3207.8453    12791.905   -1863.3015    8158.4076    306.55184    15593 
366000000   -3063.5571    3395.3802    12903.205   -1832.7706    8291.7079    309.21908    15598 
367000000   -3017.0796     3382.613    13009.283   -1759.2731    8158.9656    311.76119    15566 
368000000   -3079.2896    3281.3921    12841.076   -1801.6885    8162.3701     307.7302    15606 
369000000    -3012.946    3297.0652    12905.351   -1815.9005    8125.9118    309.27052    15587 
370000000    -3031.039    3306.4952    13038.228   -1798.5324    8136.0665    312.45485    15577 
371000000   -3033.4085    3187.4626    13002.214   -1789.0482    8009.9194    311.59178    15587 
372000000   -2985.6654    3356.3727     12849.83   -1838.9184    8180.9565    307.93998    15596 
373000000   -3093.8409    3123.6073    12977.605   -1941.0758     8158.524    311.00203    15599 
374000000   -2967.1142    3143.6316    13019.897   -1931.8708    8042.6166    312.01555    15607 
375000000   -2995.2181    3291.8658    12825.724   -1915.9996    8203.0835    307.36228    15608 
376000000   -3025.8438    3233.1427    12878.843   -1947.1722    8206.1587    308.63526    15610 
377000000   -3053.6765    3203.4962    12840.419   -1892.9164    8150.0892    307.71445    15606 
378000000   -2941.9052    3326.9364     12928.24   -1961.0629    8229.9045    309.81903    15640 
379000000   -2871.8864    3206.2571    12810.224   -1915.4013    7993.5448    306.99083    15602 
380000000   -3069.0755     3255.213    13106.338    -1851.014    8175.3024    314.08707    15575 
381000000   -3050.9912    3377.5635    12945.357   -1813.6746    8242.2293    310.22923    15593 
382000000   -3140.4277    3007.5844     12776.07    -1966.443    8114.4551    306.17234    15595 
383000000   -3040.5543    3143.0152    12876.009   -1885.1504    8068.7199    308.56733    15595 
384000000    -3034.281     3120.013    13048.354   -1922.0699     8076.364     312.6975    15599 
385000000   -2925.4145    3386.1685    12955.436   -1852.0536    8163.6366    310.47076    15569 
386000000   -3073.2722    3253.6799    12797.674   -1855.9216    8182.8737    306.69008    15584 
387000000   -3076.6035    3237.1195    12967.555   -1835.8276    8149.5506     310.7612    15592 
388000000   -2993.4418    3380.6423    12905.256   -1809.0832    8183.1674    309.26823    15594 
389000000   -2998.3292    3125.5298    13031.131   -1937.2169    8061.0759    312.28476    15598 
390000000    -3048.618    3312.2806    12963.325   -1828.1565    8189.0551    310.65982    15594 
391000000   -3110.0977    3260.0021    12933.961   -1807.9017    8178.0015    309.95612    15573 
392000000   -3047.5326    3214.0448     12842.26   -1846.1248    8107.7022    307.75855    15604 
393000000   -3110.9625    3241.1964    12896.699   -1820.0241    8172.1829    309.06316    15585 
394000000   -3054.4937    3471.5296    12862.712   -1723.1804    8249.2038    308.24868    15575 
395000000   -3073.1127    3396.4691    12977.369   -1678.0027    8147.5845    310.99639    15559 
396000000   -3096.6905     3285.603    12915.349   -1770.5413    8152.8348    309.51011    15588 
397000000   -3138.8543    3264.9928    12974.589   -1690.7971    8094.6441    310.92977    15584 
398000000    -3159.257    3141.5857    12843.021   -1772.4297    8073.2724    307.77681    15570 
399000000   -3135.7295    3361.8401    12972.204   -1740.2015     8237.771    310.87262    15566 
400000000   -2966.9894    3353.9149    12907.363   -1810.2308    8131.1351    309.31873    15585 
401000000   -2952.4968    3287.9682    12757.322   -1851.1718    8091.6369    305.72305    15596 
402000000   -2990.2093    3374.4417    12948.351   -1805.6007    8170.2517    310.30097    15563 
403000000   -3107.8136    3488.7975    12890.993   -1651.7583    8248.3694    308.92643    15558 
404000000   -3168.4638    3341.5693    12912.613    -1698.382     8208.415    309.44454    15582 
405000000   -3157.5083    3264.8121    13063.109   -1788.5598    8210.8801     313.0511    15593 
406000000   -3190.2165    3110.3515    12875.287   -1887.4621    8188.0301    308.55004    15591 
407000000   -3156.8981    3037.7258    13157.032   -1887.3979    8082.0219    315.30191    15599 
408000000   -3099.8184    3224.3568    12848.943   -1874.7249    8198.9001    307.91872    15587 
409000000   -3046.1536    3387.2326    12891.131   -1798.5565    8231.9427    308.92974    15581 
410000000   -3102.4492     3189.111    12991.683    -1837.308    8128.8682    311.33941    15598 
411000000    -3095.547     3166.065     12835.44   -1893.9844    8155.5964    307.59513    15590 
412000000   -3024.0681     3231.367    12880.933   -1820.8465    8076.2815    308.68534    15574 
413000000   -3141.3618    3184.1657    12834.332   -1857.7901    8183.3177    307.56858    15604 
414000000   -3105.6246     3281.434    12857.945   -1837.0009    8224.0595    308.13444    15583 
415000000   -3078.7611     3143.707    12943.487   -1884.3671    8106.8352    310.18442    15601 
416000000   -3036.1787    3211.0108     13066.53   -1839.7668    8086.9563    313.13309    15605 
417000000   -2936.3214    3115.9957    12849.517   -1995.1982    8047.5153    307.93248    15626 
418000000   -3050.6181     3455.094    12988.628    -1789.134    8294.8461    311.26619    15594 
419000000   -3164.0013    3213.2224    13068.939   -1904.4849    8281.7086    313.19082    15583 
420000000   -3014.8497     3317.385    12778.539   -1788.1417    8120.3764    306.23153    15573 
421000000    -3090.866     3235.547    12976.577   -1819.8752    8146.2882    310.97741    15596 
422000000     -3216.84    3066.4565    12814.537   -1805.1526    8088.4492     307.0942    15591 
423000000   -3199.1405    3070.4489    12836.862   -1819.7804    8089.3698    307.62921    15584 
424000000   -3250.8867    2975.4652    12917.065   -1836.9751     8063.327    309.55123    15605 
425000000   -3151.5868    3086.2577    12852.969   -1908.5594    8146.4039    308.01519    15609 
426000000   -3117.8885    3329.2794    12859.541   -1756.8061    8203.9739    308.17269    15576 
427000000    -3006.116    3385.9843    12982.641   -1810.7464    8202.8467    311.12272    15591 
428000000   -3037.7614    3292.7991    12807.527   -1824.3363    8154.8968    306.92619    15596 
429000000   -3025.6976    3287.0062    12849.098   -1871.2738    8183.9775    307.92244    15587 
430000000   -3048.0166    3405.4268    12958.623   -1804.9327    8258.3761    310.54714    15592 
431000000   -3008.6556    3383.3693    13012.255   -1826.0088    8218.0338    311.83241    15586 
432000000   -3038.2174    3310.7723    12953.273   -1769.9086    8118.8983    310.41892    15577 
433000000   -3052.3513    3127.7888    12983.877   -1844.4968    8024.6369    311.15234    15583 
434000000    -3082.353    3233.3512    12895.127   -1684.0483    7999.7526     309.0255    15582 
435000000   -3015.8193    3096.9036     12914.87   -1933.2729    8045.9957    309.49863    15591 
436000000   -3025.8994    3151.6199    13095.888   -1913.5235    8091.0427    313.83664    15591 
437000000   -3030.8252    3259.1649     13097.69   -1925.6129    8215.6031    313.87983    15609 
438000000   -3111.9962    3204.1883    13065.816   -1845.0276    8161.2121    313.11597    15601 
439000000   -3081.0963    3256.6496    12949.758   -1779.6402     8117.386     310.3347    15590 
440000000   -3067.7073    3286.5543    12893.477   -1761.6478    8115.9094    308.98594    15574 
441000000   -3149.2154    3210.9815    12894.587    -1806.219    8166.4159    309.01255    15576 
442000000   -3031.8785    3284.9275    12980.614   -1807.9429    8124.7489    311.07415    15583 
443000000   -2942.3808    3324.9041    12907.659   -1871.1743    8138.4593    309.32582    15606 
444000000   -3107.0713       3198.3    12797.672    -1789.671    8095.0423    306.69003    15593 
445000000   -3170.1989    3233.5068    12819.831   -1837.8388    8241.5446    307.22107    15603 
446000000     -3109.28    3191.6289     12929.33   -1830.2365    8131.1454    309.84514    15593 
447000000   -3021.4287    3355.1298    12902.745   -1767.8962    8144.4547    309.20805    15573 
448000000   -2959.0771    3211.6786    12739.279   -1909.2576    8080.0132    305.29067    15597 
449000000   -3020.0248    3330.3626    12926.729   -1831.5468    8181.9342    309.78282    15594 
450000000   -3054.5187    3278.4522    13020.533   -1800.4913    8133.4622    312.03078    15584 
451000000   -3075.2131    3188.0459    12878.034   -1836.8404    8100.0994    308.61586    15585 
452000000   -3091.6682    3161.2695    13053.885   -1824.6651    8077.6027    312.83005    15593 
453000000   -2954.1299    3392.7107    13044.292   -1928.1319    8274.9725    312.60016    15595 
454000000   -3070.4941    3184.0661    12778.023   -1878.7725    8133.3326    306.21915    15610 
455000000   -3000.8637    3349.2265    12874.908   -1885.3491    8235.4392    308.54097    15584 
456000000   -2945.1276    3476.4395    12890.259   -1779.2787    8200.8458    308.90883    15575 
457000000   -2986.7749    3244.1795    12824.042   -1932.3055    8163.2599    307.32197    15593 
458000000   -3067.5493    3259.9947    12746.483   -1885.3826    8212.9266    305.46332    15602 
459000000   -3171.7018    3250.8618    12911.281   -1832.0675    8254.6312    309.41263    15594 
460000000   -2947.3859    3385.3028    12781.358   -1828.3894    8161.0782    306.29907    15600 
461000000   -3043.4666    3190.9245    13016.696   -1932.9021    8167.2932    311.93883    15605 
462000000    -3091.435    3442.3427    12965.948   -1744.7697    8278.5474    310.72268    15588 
463000000    -3014.324    3246.4889    12825.156   -1836.2742    8097.0871    307.34867    15593 
464000000   -3126.8025    3216.7078    12932.829   -1795.2367     8138.747      309.929    15586 
465000000   -3134.5141    3160.6536    12978.949   -1837.5802    8132.7479    311.03425    15598 
466000000   -3172.1392    3109.2251    12980.863   -1836.3532    8117.7175    311.08013    15584 
467000000   -3115.6697    3243.6907    12964.505   -1780.3545    8139.7149    310.68811    15579 
468000000   -3065.9778    3219.2527    12998.229   -1860.6648    8145.8953    311.49629    15598 
469000000   -3041.8895    3197.5125    13028.182   -1858.3751     8097.777     312.2141    15580 
470000000   -2990.2764    3558.4325    13045.275   -1690.6131     8239.322    312.62372    15585 
471000000    -2990.469    3354.3151    13058.118   -1877.1677    8221.9518    312.93149    15592 
472000000   -3078.9437    3147.8147    12814.775   -1904.2462    8131.0047    307.09991    15612 
473000000   -2914.9516    3459.1818    12971.218   -1856.6116     8230.745    310.84898    15609 
474000000   -3014.7388    3250.0419    12919.647   -1849.1295    8113.9102     309.6131    15601 
475000000   -2951.3109    3274.8581    13012.308   -1911.6249    8137.7938    311.83367    15597 
476000000   -3089.1596    3451.1763    13026.503   -1737.5048    8277.8406    312.17386    15587 
477000000   -3007.1901    3230.3791     12902.09   -1829.7036    8067.2728    309.19236    15601 
478000000   -2991.1097    3112.0655    12928.044   -1960.9454    8064.1206    309.81432    15609 
479000000    -2953.939    3504.1324    12959.596   -1755.5801    8213.6515    310.57046    15588 
480000000   -3046.0006    3357.7073    12905.678   -1737.8718    8141.5796    309.27835    15576 
481000000     -3027.13    3430.6557    12950.661   -1847.3398    8305.1254    310.35634    15591 
482000000   -3008.2237    3252.3336    12961.545   -1923.5231    8184.0804    310.61718    15579 
483000000    -2985.828    3145.2095    12913.987    -1939.411    8070.4485    309.47746    15632 
484000000   -3118.4742    3322.6209    12840.388   -1780.7176    8221.8127    307.71371    15580 
485000000   -3142.1135    3182.5181    12862.442   -1839.7673    8164.3989    308.24221    15584 
486000000    -2935.857    3550.7666    13134.489   -1776.5646    8263.1881    314.76168    15570 
487000000    -3096.544     3224.511    12933.139   -1853.8539     8174.909    309.93643    15581 
488000000   -3120.6538    3400.7472      13148.8   -1757.2137    8278.6147    315.10465    15563 
489000000    -3153.739    3119.5295    12947.726   -1913.1648    8186.4333    310.28599    15592 
490000000   -3069.7223    3350.0244    13082.454   -1738.7991    8158.5459     313.5147    15574 
491000000   -3108.6017    3297.4778     12869.01   -1717.3348    8123.4143    308.39961    15575 
492000000   -3106.1688    3422.7728     12940.89   -1726.1397    8255.0814    310.12218    15564 
493000000   -3029.2633    3334.1592    12856.547   -1817.9748    8181.3974    308.10094    15576 
494000000   -3035.1755    3370.9342    12883.188   -1838.1272    8244.2369    308.73938    15588 
495000000   -3094.2701    3289.3754    13076.777   -1805.4099    8189.0555    313.37864    15582 
496000000   -3076.1026    3334.4284    12714.984   -1766.1494    8176.6805    304.70844    15586 
497000000   -3073.6806    3304.9483    12857.196   -1862.5347    8241.1637     308.1165    15592 
498000000   -3096.4822    3272.6093    13100.854   -1872.3547    8241.4461    313.95564    15585 
499000000   -3063.0322    3217.6351    12852.382   -1924.3059    8204.9732    308.00114    15613 
500000000   -3014.7725    3324.1008    13027.844   -1797.4684    8136.3417    312.20599    15603 
Loop time of 204560 on 28 procs for 500000000 steps with 14000 atoms

Performance: 5279.618 ns/day, 0.005 hours/ns, 2444.268 timesteps/s
99.5% CPU use with 28 MPI tasks x no OpenMP threads

MPI task timing breakdown:
Section |  min time  |  avg time  |  max time  |%varavg| %total
---------------------------------------------------------------
Pair    | 18443      | 21791      | 26889      |1176.8 | 10.65
Bond    | 6071.9     | 6856.8     | 12070      |1971.5 |  3.35
Neigh   | 56996      | 57675      | 58786      | 186.3 | 28.19
Comm    | 55798      | 66903      | 71201      |1338.8 | 32.71
Output  | 0.68658    | 0.7313     | 0.7349     |   1.0 |  0.00
Modify  | 30363      | 30581      | 30896      |  66.0 | 14.95
Other   |            | 2.075e+04  |            |       | 10.14

Nlocal:    500 ave 537 max 471 min
Histogram: 3 3 2 5 3 5 3 1 2 1
Nghost:    670.821 ave 921 max 545 min
Histogram: 4 1 5 9 5 2 1 0 0 1
Neighs:    5489.93 ave 6678 max 4190 min
Histogram: 2 3 1 1 5 6 2 4 1 3

Total # of neighbors = 153718
Ave neighs/atom = 10.9799
Ave special neighs/atom = 8.12971
Neighbor list builds = 99850379
Dangerous builds = 0
System init for write_restart ...
Total wall time: 56:49:26
