LAMMPS (5 Jun 2019)
Reading restart file ...
  restart file = 5 Jun 2019, LAMMPS = 5 Jun 2019
  restoring atom style full from restart
  orthogonal box = (-420 -420 -420) to (420 420 420)
  2 by 2 by 7 MPI processor grid
  restoring pair style lj/cut from restart
  restoring bond style hybrid from restart
  restoring angle style cosine from restart
  14000 atoms
  15641 bonds
  13600 angles
Finding 1-2 1-3 1-4 neighbors ...
  special bond factors lj:   0          1          1         
  special bond factors coul: 0          0          0         
  3 = max # of 1-2 neighbors
  6 = max # of 1-3 neighbors
  18 = max # of 1-4 neighbors
  56 = max # of special neighbors
  special bonds CPU = 0.00233532 secs
  read_restart CPU = 0.2488 secs
Finding 1-2 1-3 1-4 neighbors ...
  special bond factors lj:   0          1          1         
  special bond factors coul: 0          0          0         
  3 = max # of 1-2 neighbors
  6 = max # of 1-3 neighbors
  18 = max # of 1-4 neighbors
  39616 = # of 1-3 neighbors before angle trim
  27200 = # of 1-3 neighbors after angle trim
  56 = max # of special neighbors
  special bonds CPU = 0.00161302 secs
Neighbor list info ...
  update every 1 steps, delay 1 steps, check yes
  max neighbors/atom: 2000, page size: 100000
  master list distance cutoff = 26.9
  ghost atom cutoff = 26.9
  binsize = 13.45, bins = 63 63 63
  1 neighbor lists, perpetual/occasional/extra = 1 0 0
  (1) pair lj/cut, perpetual
      attributes: half, newton on
      pair build: half/bin/newton
      stencil: half/bin/3d/newton
      bin: standard
Setting up Verlet run ...
  Unit style    : real
  Current step  : 400000000
  Time step     : 0.1
Per MPI rank memory allocation (min/avg/max) = 1.103 | 9.806 | 16.65 Mbytes
Step Temp E_pair E_mol TotEng Press 
400000000     308.6802   -1881.1239    6209.6561    17209.251   0.32841006 
400010000    308.34602   -1838.4401    6177.9492    17206.283   0.23872146 
Loop time of 3.87343 on 28 procs for 10000 steps with 14000 atoms

Performance: 22.306 ns/day, 1.076 hours/ns, 2581.688 timesteps/s
99.6% CPU use with 28 MPI tasks x no OpenMP threads

MPI task timing breakdown:
Section |  min time  |  avg time  |  max time  |%varavg| %total
---------------------------------------------------------------
Pair    | 0.00038887 | 0.37012    | 2.0061     | 100.3 |  9.56
Bond    | 0.00055369 | 0.10891    | 0.44992    |  39.5 |  2.81
Neigh   | 0.0041823  | 0.0043544  | 0.0049485  |   0.2 |  0.11
Comm    | 0.0015645  | 1.7737     | 2.8114     |  76.6 | 45.79
Output  | 5.4619e-05 | 0.00020519 | 0.00056638 |   0.0 |  0.01
Modify  | 0.00095155 | 0.24116    | 0.96953    |  56.8 |  6.23
Other   |            | 1.375      |            |       | 35.50

Nlocal:    500 ave 2036 max 0 min
Histogram: 13 3 3 2 2 2 0 0 2 1
Nghost:    414.821 ave 964 max 0 min
Histogram: 7 3 2 3 1 4 0 1 3 4
Neighs:    5238.75 ave 25501 max 0 min
Histogram: 16 4 2 0 2 1 0 0 0 3

Total # of neighbors = 146685
Ave neighs/atom = 10.4775
Ave special neighs/atom = 7.92343
Neighbor list builds = 2
Dangerous builds = 0
4000 atoms in group rxnSites
Neighbor list info ...
  update every 1 steps, delay 1 steps, check yes
  max neighbors/atom: 2000, page size: 100000
  master list distance cutoff = 26.9
  ghost atom cutoff = 26.9
  binsize = 13.45, bins = 63 63 63
  2 neighbor lists, perpetual/occasional/extra = 1 1 0
  (1) pair lj/cut, perpetual
      attributes: half, newton on
      pair build: half/bin/newton
      stencil: half/bin/3d/newton
      bin: standard
  (2) fix bond/create/random, occasional, copy from (1)
      attributes: half, newton on
      pair build: copy
      stencil: none
      bin: none
Setting up Verlet run ...
  Unit style    : real
  Current step  : 0
  Time step     : 30
Per MPI rank memory allocation (min/avg/max) = 17.82 | 18.3 | 19.34 Mbytes
Step E_pair PotEng KinEng E_bond E_angle Temp Bonds 
       0   -1838.4401    4339.5091    12866.774   -1898.4169    8076.3661    308.34602    15641 
 1000000    -1549.748    4512.3703    13036.921   -1770.4266    7832.5448    312.42352    15621 
 2000000   -1480.7786     4607.319    12920.713   -1682.3406    7770.4381    309.63864    15618 
 3000000   -1487.5674    4523.5728    12803.923   -1771.1884    7782.3286    306.83982    15626 
 4000000   -1449.0726    4664.5938    12920.908   -1822.3278    7935.9942    309.64332    15622 
 5000000   -1467.5923    4671.3795    12881.649   -1673.9231    7812.8949    308.70251    15615 
 6000000   -1475.7723    4777.0656    12888.301   -1574.8914    7827.7293    308.86192    15590 
 7000000   -1452.2015    4558.1528     12907.65   -1912.9461    7923.3005     309.3256    15639 
 8000000   -1447.4766     4751.995    12994.906    -1678.811    7878.2827    311.41665    15605 
 9000000   -1412.2507    4735.7745    13011.719   -1717.0379    7865.0631    311.81957    15615 
10000000    -1461.214    4599.1903    12902.203   -1693.6831    7754.0874    309.19506    15596 
11000000   -1453.8253    4617.6159    13030.026   -1645.2816    7716.7228    312.25828    15609 
12000000   -1395.0651    4625.9262    12879.346   -1696.2557     7717.247     308.6473    15623 
13000000   -1420.7795    4747.1967    13006.391   -1678.2934    7846.2696    311.69187    15624 
14000000   -1403.8447    4707.2101    12831.944   -1757.5544    7868.6092    307.51134    15628 
15000000   -1389.2776    4696.4038    12853.669   -1835.0627     7920.744    308.03198    15621 
16000000   -1377.9254    4704.8093    13128.489   -1722.8103    7805.5449    314.61789    15615 
17000000     -1389.84    4550.7468     12960.02   -1781.8197    7722.4065    310.58063    15618 
18000000   -1385.3876    4650.8695    13126.532   -1665.8728    7702.1298    314.57101    15623 
19000000   -1385.0407    4663.3561    12976.153   -1741.3207    7789.7175    310.96725    15613 
20000000    -1351.121    4791.5982    13055.885   -1646.2852    7789.0043    312.87797    15613 
21000000   -1370.4359    4655.3089    12851.025    -1724.763    7750.5079    307.96861    15624 
22000000   -1395.2435    4815.5922    13005.392   -1711.8718    7922.7075    311.66795    15615 
23000000   -1336.5601    4797.6157    12927.775     -1760.18    7894.3559    309.80788    15612 
24000000   -1358.6131    4780.1907    12870.629   -1663.9378    7802.7415    308.43841    15617 
25000000   -1379.8491    4704.1675    12877.507    -1718.795    7802.8116    308.60324    15631 
26000000   -1376.6138    4793.5201    12896.222   -1699.8696    7870.0035    309.05172    15612 
27000000   -1356.7859    4766.8691    12851.475   -1673.6547    7797.3097     307.9794    15621 
28000000   -1364.6034    4738.6335        12865   -1684.5304    7787.7673    308.30353    15611 
29000000   -1337.2091    4796.8757    13083.612   -1604.8608    7738.9456    313.54246    15593 
30000000   -1354.2053    4816.4112    12855.569   -1575.6612    7746.2777    308.07751    15611 
31000000   -1341.6778    4799.2801    13004.759   -1741.6103    7882.5682    311.65276    15609 
32000000   -1379.7087    4665.1835    12943.992   -1727.8822    7772.7745    310.19651    15622 
33000000    -1384.447    4752.9899    13023.023   -1751.1197    7888.5566    312.09046    15615 
34000000   -1349.3366     4778.465    12870.461   -1662.9249    7790.7265    308.43438    15609 
35000000    -1359.884    4769.4858    13005.021   -1748.3805    7877.7503    311.65904    15621 
36000000   -1395.6581    4627.6131    12903.313   -1769.5174    7792.7886    309.22166    15617 
37000000   -1371.8396    4699.2013    12929.902   -1807.1533    7878.1941    309.85886    15621 
38000000   -1318.8126    4765.5721    12830.728   -1714.4308    7798.8154     307.4822    15601 
39000000   -1343.4179     4866.391    12916.592   -1693.5318    7903.3407    309.53989    15607 
40000000   -1393.6862    4892.1379    12936.135   -1642.3255    7928.1496    310.00822    15608 
41000000   -1400.4937    4646.9682    12858.322   -1728.0639    7775.5257    308.14347    15607 
42000000   -1364.4501    4829.5206    12881.985    -1617.321    7811.2917    308.71056    15594 
43000000    -1344.731    4765.2975    12854.311   -1718.2296    7828.2581    308.04735    15629 
44000000   -1341.1129    4760.3855     12965.88   -1693.2735    7794.7719    310.72106    15615 
45000000   -1340.6722    4826.7576    12718.787   -1658.7494    7826.1791    304.79959    15601 
46000000   -1339.3072    4644.7342    13018.651   -1808.1693    7792.2107    311.98569    15618 
47000000   -1343.7759    4805.5833    12961.755   -1740.5666    7889.9258    310.62221    15599 
48000000   -1351.7155    4737.9206    12850.236   -1637.8399     7727.476    307.94971    15601 
49000000   -1361.5191    4680.8785    12821.919   -1821.1623    7863.5599     307.2711    15612 
50000000   -1354.3206    4721.3454    12969.858   -1723.4611    7799.1271    310.81639    15603 
51000000   -1344.6475    4673.0992    13115.948    -1731.053    7748.7997    314.31736    15623 
52000000   -1344.1434    4841.2775    13007.168   -1737.6774    7923.0983     311.7105    15615 
53000000   -1333.7106    4795.2941    12966.517   -1756.1271    7885.1319    310.73631    15621 
54000000   -1342.3204    4676.2709    12920.257    -1717.008    7735.5994    309.62773    15622 
55000000   -1341.8797    4763.3337    12932.889   -1712.6826    7817.8961    309.93043    15619 
56000000   -1341.9142    4862.0178    13054.955   -1642.6761    7846.6081    312.85571    15603 
57000000   -1313.0369    4796.8323    12855.962   -1670.9551    7780.8243    308.08692    15628 
58000000    -1356.697    4891.2478    12825.032   -1669.8826    7917.8273    307.34571    15607 
59000000   -1349.2528    4576.5116    12881.156   -1802.6895    7728.4538    308.69068    15621 
60000000   -1367.0564    4678.0349    13005.262    -1822.473    7867.5643    311.66482    15629 
61000000   -1355.8578    4837.0521    12986.997   -1663.5474    7856.4574    311.22712    15611 
62000000   -1304.7418    4740.9681    12835.787   -1719.0726    7764.7825    307.60343    15619 
63000000   -1352.0656     4778.697    12989.881    -1747.053    7877.8156    311.29623    15615 
64000000   -1298.4352    4832.2425    12869.333   -1695.0555    7825.7332    308.40736    15611 
65000000   -1334.2906    4800.8479    12982.225   -1722.8258    7857.9643    311.11276    15624 
66000000   -1312.1823    4813.9076    12960.028   -1746.4151    7872.5049    310.58081    15606 
67000000   -1342.1729    4712.3294    13065.354   -1720.6928     7775.195     313.1049    15614 
68000000   -1325.0223    4672.7342     13055.79   -1753.6568    7751.4133    312.87571    15594 
69000000   -1341.0362    4927.1051    12984.868   -1681.4212    7949.5625    311.17609    15613 
70000000   -1329.5909     4828.675    12882.236   -1696.5361    7854.8019    308.71657    15625 
71000000   -1338.0114      4621.14    13070.892   -1818.7164    7777.8678    313.23762    15622 
72000000   -1341.5289    4678.2309    13047.765   -1753.2789    7773.0386    312.68339    15620 
73000000   -1313.8573     4806.485    13088.416    -1743.951    7864.2933    313.65756    15618 
74000000   -1322.0411    4929.3759    13047.043   -1560.3223    7811.7393    312.66608    15602 
75000000   -1337.3168    4838.2874    12923.144    -1728.517    7904.1212     309.6969    15617 
76000000   -1348.0354    4905.4574    12927.012   -1754.5315    8008.0243    309.78959    15609 
77000000   -1321.7585     4887.832    13075.694   -1722.1189    7931.7094     313.3527    15622 
78000000   -1294.8976    4827.6822    13042.914   -1775.6812     7898.261    312.56713    15631 
79000000   -1326.3865    4893.8393     12947.68   -1684.1848    7904.4107     310.2849    15625 
80000000   -1326.0396    4799.4562    12963.232   -1784.7201    7910.2159    310.65761    15623 
81000000   -1286.3466    4757.7676    13039.195   -1811.8869    7856.0011    312.47802    15616 
82000000   -1312.2228    4825.4526    12936.386   -1638.5228    7776.1982    310.01425    15619 
83000000   -1284.6005    4832.2923    12817.155   -1640.6211    7757.5139    307.15693    15614 
84000000   -1306.9049     4640.201    12879.076   -1824.2483    7771.3542    308.64085    15623 
85000000   -1314.7992      4895.24    12881.311   -1738.7162    7948.7554    308.69439    15614 
86000000   -1302.5372    4848.1486    12859.256   -1723.0037    7873.6895    308.16585    15628 
87000000    -1280.556    4912.4954    12904.962   -1720.1471    7913.1985    309.26118    15614 
88000000   -1267.2144    4712.8805    12915.824   -1754.1103    7734.2052     309.5215    15610 
89000000   -1317.1276    4730.7575    12933.371   -1725.3494    7773.2346      309.942    15621 
90000000   -1257.2673    4840.2193    12907.231    -1764.504    7861.9906    309.31557    15617 
91000000   -1243.3066    4825.7899    13061.059    -1863.282    7932.3785    313.00198    15622 
92000000   -1267.5975    4943.8603    13056.138   -1636.0531    7847.5108    312.88404    15604 
93000000   -1286.1286    4952.6007    12894.959   -1698.2801    7937.0094    309.02147    15604 
94000000   -1327.5145    4848.3949    12825.631    -1722.474    7898.3834    307.36006    15616 
95000000   -1262.7181    4797.1342    12952.917   -1745.8247     7805.677    310.41041    15614 
96000000   -1298.0677    4795.5421    12954.424   -1699.4852     7793.095    310.44652    15620 
97000000   -1298.3681    4816.6575    13001.161   -1742.2041    7857.2296    311.56654    15612 
98000000   -1248.0841    4843.5338    12979.077   -1764.9836    7856.6015    311.03732    15613 
99000000   -1252.0165     4887.343    12881.049   -1633.4924    7772.8519    308.68812    15610 
100000000   -1255.4268    4920.1412    13107.919   -1701.3568    7876.9247    314.12496    15607 
101000000   -1267.7844    4807.4305    12890.743    -1725.635    7800.8499    308.92043    15609 
102000000    -1280.461    4868.7997    12931.451   -1671.6622    7820.9228    309.89597    15614 
103000000   -1274.9303    4797.5062    12897.641   -1727.9205    7800.3569    309.08575    15609 
104000000    -1303.988    4885.9429    13027.195   -1774.9832     7964.914    312.19043    15602 
105000000   -1283.3096    4887.6997    13010.329   -1570.1873    7741.1966    311.78625    15616 
106000000   -1288.6883    4792.4643    13005.345   -1812.7935    7893.9462    311.66681    15620 
107000000   -1290.2453    4817.1846    12989.167   -1757.4031     7864.833    311.27912    15607 
108000000    -1295.273    4699.7174    12937.523   -1837.8355     7832.826     310.0415    15617 
109000000   -1281.8573    4749.8335    12844.746   -1745.1344    7776.8251    307.81813    15625 
110000000   -1267.0929    4778.9292    12843.241   -1765.1178    7811.1399    307.78208    15605 
111000000   -1267.0859    4736.4013    12870.224   -1779.7418     7783.229    308.42871    15617 
112000000   -1249.1969    4740.3028    12995.791   -1768.1528    7757.6525    311.43785    15616 
113000000   -1280.1743    4856.2391    13049.531   -1743.7387    7880.1522    312.72572    15617 
114000000   -1293.3352    5006.6435    12994.311   -1692.6887    7992.6673    311.40239    15619 
115000000   -1292.0745    4745.5926    13042.956   -1855.9569    7893.6239    312.56815    15630 
116000000   -1259.9584     4743.772    12952.146   -1793.3446    7797.0749    310.39193    15618 
117000000   -1316.4751    4778.5929     12715.97   -1760.8455    7855.9135    304.73209    15624 
118000000    -1310.227    4907.1035    12970.048   -1692.0924    7909.4228    310.82093    15609 
119000000   -1242.0099    4831.9562     12740.67   -1704.3578    7778.3239      305.324    15617 
120000000   -1306.4319      4647.77    12910.299   -1811.5011     7765.703    309.38909    15625 
121000000   -1284.0098    4819.5924    12982.246   -1706.0195    7809.6217    311.11327    15600 
122000000   -1261.4288    4782.6974    12974.206   -1726.6406    7770.7669    310.92058    15614 
123000000   -1274.9654    5028.9171    12854.334   -1584.9286    7888.8112     308.0479    15604 
124000000   -1303.0134    4881.1292    12875.242   -1718.7641    7902.9067    308.54896    15628 
125000000   -1258.5855    4866.4806    12865.732   -1681.8361    7806.9023    308.32105    15618 
126000000   -1288.6286    4917.9287    12839.231   -1709.1852    7915.7425    307.68598    15617 
127000000   -1249.1157    4741.0894    12880.531   -1707.1705    7697.3756    308.67572    15605 
128000000   -1263.8873    4742.8472    12724.733   -1739.5972    7746.3318    304.94207    15601 
129000000   -1306.7318    4906.6156    12827.611   -1619.5275    7832.8749     307.4075    15606 
130000000   -1252.4537    4776.8114    12974.488   -1765.2219     7794.487    310.92734    15620 
131000000   -1291.8262    4753.3829    12839.917   -1748.7722    7793.9813    307.70242    15612 
132000000    -1295.349    4698.7729    12958.124   -1782.2363    7776.3581    310.53518    15613 
133000000   -1303.9509    4895.0859     12964.44   -1741.2106    7940.2474    310.68655    15615 
134000000   -1264.4086    4793.2704    12982.192   -1757.1499    7814.8289    311.11195    15618 
135000000   -1253.2095    4665.3147    12980.564   -1844.6127    7763.1369    311.07294    15625 
136000000   -1243.6296    4806.6901    12901.398    -1676.502    7726.8217    309.17578    15622 
137000000   -1317.9216    4767.3442     12921.36   -1717.3084    7802.5742    309.65415    15611 
138000000   -1260.2435    4768.6417    12801.693   -1790.2403    7819.1255     306.7864    15627 
139000000   -1265.8456    4928.8354    12901.331   -1626.8261    7821.5071    309.17416    15624 
140000000   -1274.2906     4871.305    12921.386   -1671.2239    7816.8196    309.65478    15612 
141000000   -1296.2901     4872.277    12883.228   -1671.7191    7840.2862    308.74034    15632 
142000000   -1324.3047    4701.1102    12935.177   -1811.9081     7837.323    309.98528    15604 
143000000   -1299.2558    4887.2286    12848.825   -1652.9216    7839.4061     307.9159    15605 
144000000   -1250.0574    4895.7995    12891.959   -1662.2564    7808.1133    308.94957    15593 
145000000    -1239.618    4874.5773    12886.307   -1814.5148    7928.7101    308.81412    15621 
146000000   -1281.0129    4693.5169      13078.9   -1687.8438    7662.3736    313.42954    15613 
147000000   -1283.4276    4796.3453    12848.072   -1676.5041     7756.277    307.89784    15614 
148000000   -1262.1729    4772.9656    12945.998   -1764.3517    7799.4902    310.24459    15622 
149000000   -1272.0105    4812.7984    12928.447   -1741.7663    7826.5752    309.82399    15608 
150000000   -1286.0267    4861.9215    12885.982   -1675.1593    7823.1075    308.80633    15607 
151000000   -1294.6169    4747.0279    13001.078   -1728.9017    7770.5465    311.56456    15617 
152000000   -1330.4468    4922.8273    12876.753   -1651.4019     7904.676    308.58517    15605 
153000000   -1272.0325    4711.2972    12810.058   -1721.7203      7705.05    306.98685    15619 
154000000   -1281.2017    4729.4042    13033.347   -1794.6416    7805.2475    312.33788    15615 
155000000   -1254.8449    4873.9428    12945.266   -1709.9369    7838.7246    310.22705    15615 
156000000   -1268.1481    4840.3029    12849.833   -1725.6934    7834.1444    307.94004    15622 
157000000   -1284.2266    4851.2339    12900.998   -1632.2201    7767.6805     309.1662    15609 
158000000   -1261.1405    5022.9441    12922.709   -1738.3007    8022.3853    309.68648    15601 
159000000   -1247.8907    4971.1543    12936.331    -1680.743     7899.788    310.01292    15602 
160000000   -1286.2057    4871.7106     12932.25   -1677.6965    7835.6127    309.91514    15612 
161000000   -1265.2171    4847.5855    13005.703   -1680.6564     7793.459     311.6754    15611 
162000000   -1289.4476    4965.7231    12905.906   -1666.4635    7921.6342     309.2838    15601 
163000000   -1291.8505    4988.1929    12910.965   -1679.0526     7959.096    309.40505    15605 
164000000   -1307.2483    4857.1717    13099.402   -1678.2969    7842.7169    313.92085    15610 
165000000   -1253.1548     4878.089    13049.402   -1650.7976    7782.0414    312.72262    15605 
166000000   -1292.0183    4824.7448    12827.512    -1715.424    7832.1871    307.40512    15622 
167000000   -1299.8203    4985.1942    12919.812   -1720.7123    8005.7268    309.61706    15613 
168000000   -1318.6903    4699.1382    12965.589   -1788.1824     7806.011    310.71407    15622 
169000000   -1303.8792    4850.1115    12964.037   -1717.9506    7871.9413     310.6769    15621 
170000000    -1312.563    4988.4047    13039.623   -1611.0529    7912.0206    312.48826    15616 
171000000   -1293.0531    5048.4953    12945.092   -1574.1228    7915.6713    310.22289    15618 
172000000   -1289.5112    4806.7944    12888.202   -1707.0898    7803.3954    308.85955    15618 
173000000   -1274.6308    4920.2018    12998.451   -1702.6768    7897.5095    311.50161    15613 
174000000   -1302.2895    4837.4463     12864.32   -1698.4925    7838.2283    308.28721    15617 
175000000   -1243.3474    4862.8157     13028.06   -1737.7238    7843.8868    312.21117    15621 
176000000   -1250.7545    4889.2056    12865.311   -1709.7956    7849.7557    308.31098    15617 
177000000   -1276.6468    4739.8268    12909.211   -1790.2433    7806.7169    309.36302    15619 
178000000   -1306.0229    4844.2572    12988.023   -1752.0681    7902.3482    311.25171    15614 
179000000   -1272.1543    4990.6117    13040.009    -1707.934    7970.6999    312.49752    15598 
180000000   -1251.2186    4839.2243    12820.596   -1778.6303    7869.0732    307.23938    15614 
181000000   -1278.9505    4756.7081    12875.259   -1676.7889    7712.4475    308.54937    15617 
182000000   -1247.7576    4857.3491    12944.566   -1722.8412     7827.948    310.21028    15623 
183000000   -1263.0112    4881.5359    13136.746   -1654.3381    7798.8852    314.81576    15619 
184000000   -1290.6709    4934.8066    12908.868   -1678.6167    7904.0942    309.35478    15611 
185000000   -1264.7506    4812.2447    13135.876   -1723.3019    7800.2972    314.79493    15635 
186000000   -1305.4386     4786.799    13048.077   -1729.8198    7822.0574    312.69087    15625 
187000000    -1270.461    4969.6125    13015.303   -1671.6583    7911.7317    311.90545    15608 
188000000    -1257.991    5061.0179    12889.854   -1628.2843    7947.2932    308.89913    15609 
189000000   -1266.2931    4941.5401    12992.943   -1683.6003    7891.4335    311.36962    15617 
190000000   -1247.0813     4877.844    12943.504   -1679.8689    7804.7942    310.18482    15604 
191000000   -1262.2472    4908.3462    12987.073   -1587.6345    7758.2279    311.22893    15613 
192000000    -1261.118    4850.4746     12897.85   -1667.1472    7778.7398    309.09074    15609 
193000000   -1315.7439    4790.9745    12849.836   -1763.2016    7869.9201    307.94011    15607 
194000000   -1291.4957     4832.273    12979.727   -1775.0248    7898.7935    311.05289    15620 
195000000   -1291.1747    4923.3586    12892.464   -1751.1007    7965.6341    308.96168    15608 
196000000    -1283.421    4811.8921     13234.16   -1720.1438    7815.4568    317.15025    15626 
197000000   -1248.3028    5007.8982    13013.859   -1664.6106    7920.8116    311.87085    15625 
198000000   -1288.6435    4792.4995    12964.341   -1671.4766    7752.6196    310.68418    15619 
199000000   -1338.5739    4817.4985    12941.204   -1735.8325    7891.9048    310.12971    15608 
200000000   -1330.8432    5025.0135    13159.554   -1622.7595    7978.6162    315.36235    15598 
201000000   -1251.1409    4742.1924    12817.328   -1767.6467    7760.9801    307.16108    15629 
202000000   -1283.4541    4884.8551    12989.222   -1757.1563    7925.4655    311.28045    15602 
203000000   -1272.7672    4937.6985    13129.437   -1656.0424    7866.5081    314.64063    15615 
204000000   -1268.3438    4822.1722    12959.882   -1727.4935    7818.0095    310.57733    15606 
205000000   -1259.0883     4868.083    12816.758   -1712.6892    7839.8605    307.14743    15616 
206000000   -1256.1562    5009.2083    13027.918   -1587.1068    7852.4713    312.20776    15613 
207000000   -1292.6269    4840.2105    12846.334   -1723.2128    7856.0502     307.8562    15598 
208000000   -1263.3136    4898.3383    12982.884   -1674.3477    7835.9996    311.12855    15612 
209000000   -1248.0363    4994.3744    12862.994   -1723.4322     7965.843    308.25544    15623 
210000000   -1292.5627    4859.5385    12973.541   -1745.7154    7897.8165    310.90465    15621 
211000000   -1282.3204    4786.0975    13022.425    -1726.486    7794.9039    312.07614    15611 
212000000   -1281.3387     4910.518    12949.213   -1685.5245    7877.3812    310.32164    15617 
213000000   -1238.7721    4839.7423    12891.098   -1663.2909    7741.8053    308.92895    15602 
214000000   -1217.2645    4954.6857     12954.97   -1752.7131    7924.6634     310.4596    15612 
215000000   -1253.0689    4784.8076    12806.128   -1731.6334    7769.5099    306.89267    15603 
216000000   -1235.7599    4953.8275    12941.148   -1713.8807     7903.468    310.12837    15621 
217000000   -1211.5719    4915.4811    12951.126   -1754.9185    7881.9714    310.36749    15622 
218000000   -1251.0276    4791.0921    13048.578   -1706.3502    7748.4698    312.70288    15622 
219000000   -1213.8917    4890.4763    12928.189   -1699.9912    7804.3592    309.81781    15607 
220000000   -1227.1652    4813.0659    13030.655   -1735.8678    7776.0989    312.27337    15615 
221000000   -1237.1778    4821.6103     12954.71   -1679.3052    7738.0933    310.45337    15597 
222000000   -1203.2166    4902.9488    12910.523   -1746.4476     7852.613    309.39445    15615 
223000000   -1228.4175    5118.8084    12807.257   -1656.7452    8003.9711    306.91974    15605 
224000000   -1247.5236    4989.9927    12929.703   -1652.0048    7889.5211    309.85408    15595 
225000000   -1231.2304    4784.4956    12853.768   -1813.6182    7829.3442    308.03435    15624 
226000000   -1259.2303     4874.202    13021.164   -1656.4379    7789.8702    312.04591    15603 
227000000   -1224.3617    4912.3643    13056.823   -1759.9026    7896.6286    312.90047    15616 
228000000   -1241.1789    4830.2242    12931.926   -1768.4281    7839.8312    309.90735    15629 
229000000    -1244.167    4764.9057    13143.864   -1621.5093     7630.582    314.98634    15606 
230000000   -1260.6047    5029.0859    12986.684   -1607.4748    7897.1654    311.21962    15607 
231000000   -1224.1771     4867.286    12949.013    -1728.219    7819.6821    310.31685    15624 
232000000   -1242.2916    4701.8125    12963.195   -1726.4719     7670.576    310.65671    15622 
233000000    -1280.915    4786.9182    13071.806   -1698.2892    7766.1223    313.25953    15615 
234000000   -1245.4772    5045.5156    12927.797   -1609.3298    7900.3226    309.80842    15620 
235000000   -1278.8813    4910.9667    12976.147   -1659.1577    7849.0057    310.96709    15610 
236000000   -1243.6009    4883.9214    13065.148   -1683.8034    7811.3258    313.09996    15610 
237000000   -1230.8403     5025.546    12965.907   -1586.2725    7842.6588    310.72169    15620 
238000000   -1215.2627    4885.7405    12839.573   -1734.1316    7835.1347    307.69417    15622 
239000000   -1268.9689    4838.0182    12883.834   -1779.9211    7886.9083    308.75487    15617 
240000000   -1230.3397    5008.7286     12907.83    -1670.267    7909.3353     309.3299    15618 
241000000   -1265.7333    4907.8992    12915.256   -1696.0595     7869.692    309.50788    15627 
242000000   -1225.1802    4825.0469    13084.734   -1752.9032    7803.1303    313.56934    15606 
243000000   -1260.2827    4892.7299    13012.932   -1672.5304     7825.543    311.84864    15604 
244000000    -1198.675    4981.4768    12987.234   -1579.1937    7759.3455     311.2328    15611 
245000000   -1240.8198    4871.3246    12921.864   -1696.4402    7808.5846    309.66624    15610 
246000000   -1227.5849    4950.5104    12820.619   -1746.3556    7924.4509    307.23994    15630 
247000000   -1245.3828    4797.3762    12928.951   -1709.3315    7752.0905    309.83608    15616 
248000000   -1251.9603    4776.9075     12911.45   -1706.6216    7735.4895    309.41666    15618 
249000000   -1255.3807    4850.5998    12948.258    -1668.648    7774.6285    310.29874    15603 
250000000   -1267.5084    4906.8745    12781.294   -1621.7037    7796.0867    306.29755    15605 
251000000   -1233.6318    4895.4955    13004.481   -1685.5745    7814.7018    311.64612    15606 
252000000   -1247.3455    4724.6328    12871.278   -1776.0627     7748.041    308.45397    15621 
253000000   -1257.4796    4994.0989    13080.717   -1617.2989    7868.8774    313.47307    15605 
254000000   -1288.0544     4821.242    13044.839   -1742.2684    7851.5648    312.61327    15616 
255000000   -1235.4969    4670.1625    12831.454   -1838.7256    7744.3849     307.4996    15621 
256000000   -1245.9905     4830.953    12789.267   -1753.5546     7830.498    306.48862    15615 
257000000    -1247.495    4736.3481    12911.377   -1806.4321    7790.2752    309.41491    15620 
258000000   -1263.8382    4909.6164    13052.606   -1701.3953    7874.8499    312.79941    15628 
259000000   -1230.7826    4861.1561    12863.017   -1706.5048    7798.4435    308.25599    15607 
260000000   -1239.2683    4948.4565    13015.229   -1652.5446    7840.2695    311.90369    15595 
261000000   -1256.6889    4805.7871    12991.169    -1699.335    7761.8109     311.3271    15607 
262000000   -1229.1249    4919.3117    12891.409   -1674.1116    7822.5482     308.9364    15636 
263000000   -1250.1252    4761.0736    12961.419   -1767.8689    7779.0677    310.61414    15623 
264000000   -1241.0488    4989.0052    12942.086   -1637.9577    7868.0118    310.15084    15613 
265000000   -1199.4173    5013.0074    12900.647   -1529.0732    7741.4979    309.15777    15607 
266000000   -1230.7753    4874.1637    12891.905   -1796.8452    7901.7842    308.94829    15607 
267000000   -1207.7002    5068.1151    12973.842   -1587.3431    7863.1585    310.91186    15596 
268000000    -1210.552    5045.9157    13029.097    -1646.695    7903.1627    312.23603    15614 
269000000    -1229.561    4854.6742    12790.766   -1695.5283    7779.7636    306.52453    15626 
270000000   -1291.5738    4971.0268    12875.022   -1644.7449    7907.3456    308.54368    15603 
271000000   -1251.4147    4979.8895    12963.436   -1623.7269    7855.0311    310.66249    15613 
272000000    -1248.558    4869.9007    12895.455   -1748.4238    7866.8824    309.03335    15614 
273000000   -1215.5213    4752.5602    12923.687   -1800.1828    7768.2643    309.70993    15622 
274000000   -1238.3955    4866.3019    12931.697   -1640.4356     7745.133    309.90187    15608 
275000000   -1229.1129    4869.0107    12983.458   -1636.9578    7735.0815    311.14231    15594 
276000000   -1203.7732    4828.2355    12895.884   -1723.6741    7755.6828    309.04364    15611 
277000000   -1245.7749    4782.4976    12965.298   -1765.7948    7794.0673    310.70711    15607 
278000000   -1220.7808    4883.0651    12928.514   -1716.5094    7820.3553     309.8256    15610 
279000000   -1237.2022    4994.0987    12961.585   -1688.8947    7920.1956    310.61813    15607 
280000000   -1247.2996    4816.7106    13064.028   -1796.3488     7860.359    313.07313    15616 
281000000   -1216.7089    4780.8915     12972.76   -1781.3457    7778.9462    310.88594    15622 
282000000   -1214.1469    4925.3871    12903.901   -1732.0764    7871.6103    309.23576    15619 
283000000   -1213.6362    4916.1745    12784.615   -1696.8891    7826.6998    306.37712    15616 
284000000    -1230.362     4911.037    12989.251    -1658.191      7799.59    311.28113    15595 
285000000    -1231.397    4947.7828    12907.349   -1670.6963    7849.8761    309.31838    15603 
286000000   -1270.1425    5035.6087    12857.897   -1571.9949    7877.7461    308.13329    15601 
287000000   -1232.5199    5003.9784    13046.158   -1696.2236     7932.722    312.64487    15617 
288000000   -1235.2753    4838.5919    13006.866   -1709.2016    7783.0688    311.70325    15612 
289000000   -1222.5408    4855.6995    13044.657   -1681.7183    7759.9586     312.6089    15606 
290000000   -1245.9235    4837.3956    12867.049    -1677.191      7760.51    308.35261    15612 
291000000   -1214.0136    4907.2317    12754.951   -1707.1346      7828.38    305.66625    15615 
292000000    -1265.048    4973.8381    12955.499   -1620.4428    7859.3289    310.47229    15615 
293000000   -1275.0709    4805.7341    12848.101    -1723.733     7804.538    307.89854    15612 
294000000   -1227.2019     5035.417    12817.099   -1691.8591     7954.478    307.15559    15598 
295000000   -1237.4807    4924.6968    13027.702   -1698.8226    7861.0001    312.20259    15610 
296000000   -1254.8411    4909.1456    12813.455   -1733.6381    7897.6248    307.06827    15608 
297000000   -1214.6732      4905.39    12945.077   -1751.5989    7871.6622    310.22252    15613 
298000000    -1240.414    4915.7947    12938.814   -1688.8692    7845.0779    310.07243    15614 
299000000   -1229.7188    4971.3955    12892.087   -1611.5816    7812.6959    308.95265    15615 
300000000    -1214.253    4874.5882    13022.606   -1724.3481    7813.1894    312.08046    15624 
301000000   -1209.0233    4851.7762    12927.329   -1728.6685     7789.468     309.7972    15604 
302000000   -1178.0294    4939.5594    13064.153   -1681.1829    7798.7717    313.07611    15618 
303000000   -1245.5617    4888.4423    12931.382   -1691.3259    7825.3299    309.89432    15619 
304000000   -1251.4122    4788.7104    12728.812   -1737.4626    7777.5852    305.03984    15608 
305000000   -1264.1582    4975.8178    12991.769   -1647.7386    7887.7146    311.34148    15618 
306000000   -1210.7292    4760.3324    12963.909   -1726.7406    7697.8022    310.67382    15625 
307000000    -1211.779    4878.7548    12895.193     -1671.86    7762.3937    309.02709    15623 
308000000   -1240.8162    4930.1617    12867.873   -1736.9909    7907.9688    308.37237    15629 
309000000    -1198.325     4977.881    12913.898    -1622.957     7799.163    309.47532    15604 
310000000   -1228.7698    4895.3821    13101.802   -1682.8247    7806.9766    313.97836    15611 
311000000   -1241.3481    4780.3068    12996.133   -1829.1232    7850.7782    311.44605    15618 
312000000   -1200.0223    4935.3837    12753.575   -1725.1793    7860.5852    305.63327    15614 
313000000   -1225.4195    4859.7275    12764.178   -1769.2961    7854.4431    305.88735    15612 
314000000   -1213.8209    4752.6223    12962.028   -1864.2263    7830.6694    310.62873    15608 
315000000   -1188.3024    4906.8684    12938.572    -1728.105    7823.2759    310.06663    15605 
316000000   -1224.3119    5002.7397    12978.974   -1660.7195     7887.771    311.03485    15613 
317000000   -1208.7405    4973.0234    12869.941   -1682.3917    7864.1555    308.42192    15614 
318000000    -1242.662    4907.7109    12962.811   -1717.5871      7867.96    310.64751    15616 
319000000   -1231.0778    4949.5907    12887.565   -1721.9161    7902.5845    308.84428    15619 
320000000   -1264.4432    4907.7274    13002.736   -1774.4997    7946.6703     311.6043    15623 
321000000   -1216.7516    4861.5565    12903.202    -1640.699    7719.0071    309.21901    15616 
322000000   -1225.6613     5009.365    13013.882   -1694.2175    7929.2438     311.8714    15612 
323000000   -1242.3191    5158.9767    12967.681   -1563.2216    7964.5174    310.76422    15607 
324000000   -1247.1951    4878.5414    13104.531      -1694.3    7820.0366    314.04377    15604 
325000000   -1249.0521    4884.8472    12792.432   -1788.2227     7922.122    306.56446    15620 
326000000   -1253.5727     4877.644    12957.132   -1640.3562    7771.5729    310.51141    15620 
327000000   -1243.6986    4968.6321    13039.947   -1708.8665    7921.1972    312.49602    15617 
328000000   -1219.9123    4871.4001    12933.745   -1857.9548    7949.2672    309.95096    15617 
329000000   -1222.6739    4807.2453    12742.416   -1758.4316    7788.3508    305.36586    15619 
330000000   -1238.9288    5033.2248    12841.332   -1744.8748    8017.0284    307.73631    15619 
331000000   -1209.8217    5022.5865     12883.63    -1615.267    7847.6752    308.74997    15614 
332000000   -1237.1893    5073.4559    12959.292   -1668.0339    7978.6791    310.56317    15604 
333000000   -1225.0545    4958.2209    13077.882   -1700.9796    7884.2549    313.40514    15602 
334000000   -1228.9779    4829.1371    12770.998   -1777.5422    7835.6572    306.05081    15611 
335000000   -1207.8528    4941.9248    13007.818   -1699.7569    7849.5345    311.72607    15635 
336000000   -1212.0463    5092.5947    12940.452   -1637.8695    7942.5105    310.11167    15607 
337000000   -1187.8829     4990.002    12992.292   -1647.7994    7825.6843    311.35401    15612 
338000000   -1197.6976    4980.0461     12983.35   -1672.9555    7850.6992    311.13972    15614 
339000000   -1196.2761    4772.0235    12918.194   -1639.9278    7608.2274    309.57829    15599 
340000000   -1230.3603    4960.1613    12990.541   -1697.2635     7887.785    311.31205    15615 
341000000   -1253.5422    4688.0363    12895.958   -1756.2122    7697.7906     309.0454    15611 
342000000   -1185.3033    4990.6379    12911.887   -1722.7976    7898.7388    309.42713    15622 
343000000    -1226.149     4814.257    13068.787   -1693.3547    7733.7606    313.18716    15617 
344000000   -1234.6077    5014.1651    12958.025   -1719.3691    7968.1419    310.53282    15606 
345000000   -1203.3605    5017.9148    12972.134   -1693.9293    7915.2045    310.87094    15613 
346000000    -1203.774    5030.3184    12859.533   -1629.1023    7863.1947    308.17249    15612 
347000000   -1196.2295    5030.8736     12947.23   -1660.2312    7887.3344     310.2741    15618 
348000000   -1208.1326    5003.8996    12847.501   -1718.7673    7930.7995    307.88416    15613 
349000000   -1260.3511    4968.2522    12851.472   -1651.4285    7880.0318    307.97932    15623 
350000000   -1206.8145    4961.3724    12941.497   -1698.0286    7866.2156    310.13672    15618 
351000000   -1207.2816    4901.5695    12993.296   -1688.8289      7797.68    311.37807    15606 
352000000   -1192.1972     4902.567    13006.403    -1733.254    7828.0183    311.69218    15609 
353000000   -1226.9444    4859.6229    12908.942   -1702.6279    7789.1952    309.35656    15605 
354000000   -1209.5864    4850.6618    12955.494   -1764.6838     7824.932    310.47217    15616 
355000000   -1216.7702    4983.4805    12887.724   -1709.5419    7909.7926    308.84809    15598 
356000000   -1243.0742    4910.8574    12964.152    -1714.569    7868.5006    310.67963    15609 
357000000   -1238.0741    4959.9958    12866.731   -1654.7346    7852.8045    308.34499    15593 
358000000    -1214.674    4997.5617    13010.597   -1655.7477    7867.9833    311.79269    15607 
359000000   -1249.3915    5104.8905      13083.1   -1546.3055    7900.5875    313.53019    15579 
360000000    -1241.346    5063.2196    12922.898   -1581.6001    7886.1657    309.69102    15585 
361000000   -1240.4654    4903.5015    12884.434   -1718.2935    7862.2604    308.76924    15621 
362000000   -1237.8394    4991.8494    12988.647   -1608.4511    7838.1399    311.26665    15594 
363000000   -1240.3885     4780.578    12941.262    -1817.673    7838.6395     310.1311    15625 
364000000    -1225.493    5001.6273    13000.796   -1674.6004    7901.7206    311.55779    15604 
365000000   -1216.4911    4976.9915    12843.042   -1736.9216    7930.4042     307.7773    15607 
366000000   -1237.7762     4770.973    12853.915   -1706.8281    7715.5773    308.03788    15618 
367000000   -1221.4092    5035.0492    12933.407   -1657.5257    7913.9841    309.94285    15607 
368000000   -1219.0979    4915.4979     12723.48   -1684.9831    7819.5788    304.91206    15614 
369000000   -1213.3219    4926.0723     12938.11   -1609.1768     7748.571    310.05556    15608 
370000000    -1204.426    4874.3761    13031.482   -1765.1937    7843.9958    312.29317    15619 
371000000   -1206.7021    4968.7924    13127.137   -1722.5161    7898.0106    314.58549    15616 
372000000   -1233.6085    4962.9939    12794.299    -1738.155    7934.7575     306.6092    15598 
373000000   -1208.7178     4989.512    12989.638   -1662.8228    7861.0526    311.29041    15614 
374000000   -1222.8056    5028.7825     12954.32   -1718.4508    7970.0389    310.44404    15606 
375000000   -1222.6787    4996.6682    13029.742   -1636.2595    7855.6063    312.25147    15606 
376000000   -1179.6606    4951.2929    12935.199   -1671.4114    7802.3649     309.9858    15610 
377000000   -1191.6482    5002.2884    13046.076   -1692.0894    7886.0261     312.6429    15617 
378000000    -1223.347     4912.806    12933.232   -1738.2534    7874.4064    309.93867    15630 
379000000   -1229.3116    4771.8664    12897.766   -1827.0366    7828.2147    309.08874    15629 
380000000    -1218.734    4861.8988    12982.565   -1632.7696    7713.4024     311.1209    15615 
381000000   -1227.0388     4981.867    12953.463   -1698.7256    7907.6315    310.42349    15598 
382000000   -1263.3155    4853.2349    12791.147   -1709.9181    7826.4685    306.53366    15616 
383000000   -1224.8409    4919.1383    12867.448   -1651.4088     7795.388    308.36217    15613 
384000000   -1217.0109    4962.6084     13154.74   -1612.4178    7792.0371    315.24698    15606 
385000000   -1196.7632    5145.5185    12914.976   -1590.2251    7932.5068    309.50117    15610 
386000000   -1230.9838     4916.668    12900.579   -1688.5185    7836.1702    309.15615    15616 
387000000   -1259.2623    4936.3049    13019.688   -1700.2149     7895.782    312.01054    15609 
388000000   -1218.7302    5043.2143    12991.942   -1690.8931    7952.8376    311.34563    15611 
389000000   -1216.3651     5109.384    12878.587   -1722.3839    8048.1329    308.62912    15629 
390000000   -1201.8484    4879.9775    12970.777   -1781.6433    7863.4692     310.8384    15623 
391000000   -1183.6251    4946.6369    12985.234   -1791.4243    7921.6863    311.18485    15627 
392000000   -1172.5088    4937.0522    12876.841   -1757.0355    7866.5964    308.58729    15608 
393000000   -1183.2859    4842.7698    12804.907   -1859.6594    7885.7151    306.86342    15620 
394000000   -1205.5368    5022.1894    12980.351    -1751.626    7979.3522    311.06785    15632 
395000000   -1173.4522    4897.1231    12792.105   -1785.4033    7855.9786    306.55661    15611 
396000000   -1199.5312    5000.6252    12915.139   -1688.8843    7889.0407    309.50506    15610 
397000000    -1167.394    4953.2643    12854.329   -1693.7337     7814.392    308.04778    15605 
398000000   -1243.2303    4949.9593    12940.137   -1731.5034     7924.693    310.10413    15610 
399000000   -1189.8863    4973.5169    13071.711   -1722.8768      7886.28    313.25725    15607 
400000000   -1178.0617    5088.4533     12861.79   -1618.6195    7885.1344    308.22658    15600 
Loop time of 91896.3 on 28 procs for 400000000 steps with 14000 atoms

Performance: 11282.284 ns/day, 0.002 hours/ns, 4352.733 timesteps/s
99.6% CPU use with 28 MPI tasks x no OpenMP threads

MPI task timing breakdown:
Section |  min time  |  avg time  |  max time  |%varavg| %total
---------------------------------------------------------------
Pair    | 8665.1     | 11433      | 14835      |1745.3 | 12.44
Bond    | 4351.3     | 5199.3     | 8131.9     |1565.4 |  5.66
Neigh   | 19751      | 20021      | 20318      | 109.4 | 21.79
Comm    | 27585      | 33627      | 37779      |1418.1 | 36.59
Output  | 0.59401    | 0.59499    | 0.59547    |   0.0 |  0.00
Modify  | 17048      | 17256      | 17463      | 108.4 | 18.78
Other   |            | 4359       |            |       |  4.74

Nlocal:    500 ave 526 max 476 min
Histogram: 1 2 4 3 5 5 1 3 2 2
Nghost:    548.214 ave 873 max 304 min
Histogram: 1 2 5 4 8 3 2 0 2 1
Neighs:    3551.93 ave 5714 max 1699 min
Histogram: 1 4 4 5 3 4 1 1 3 2

Total # of neighbors = 99454
Ave neighs/atom = 7.10386
Ave special neighs/atom = 8.27114
Neighbor list builds = 36965396
Dangerous builds = 0
System init for write_restart ...
Total wall time: 25:31:40
