LAMMPS (5 Jun 2019)
Reading restart file ...
  restart file = 5 Jun 2019, LAMMPS = 5 Jun 2019
  restoring atom style full from restart
  orthogonal box = (-420 -420 -420) to (420 420 420)
  2 by 2 by 7 MPI processor grid
  restoring pair style lj/cut from restart
  restoring bond style hybrid from restart
  restoring angle style cosine from restart
  14000 atoms
  15631 bonds
  13600 angles
Finding 1-2 1-3 1-4 neighbors ...
  special bond factors lj:   0          1          1         
  special bond factors coul: 0          0          0         
  3 = max # of 1-2 neighbors
  6 = max # of 1-3 neighbors
  18 = max # of 1-4 neighbors
  56 = max # of special neighbors
  special bonds CPU = 0.401417 secs
  read_restart CPU = 0.753118 secs
Finding 1-2 1-3 1-4 neighbors ...
  special bond factors lj:   0          1          1         
  special bond factors coul: 0          0          0         
  3 = max # of 1-2 neighbors
  6 = max # of 1-3 neighbors
  18 = max # of 1-4 neighbors
  39372 = # of 1-3 neighbors before angle trim
  27200 = # of 1-3 neighbors after angle trim
  56 = max # of special neighbors
  special bonds CPU = 0.00138083 secs
Neighbor list info ...
  update every 1 steps, delay 1 steps, check yes
  max neighbors/atom: 2000, page size: 100000
  master list distance cutoff = 26.9
  ghost atom cutoff = 26.9
  binsize = 13.45, bins = 63 63 63
  1 neighbor lists, perpetual/occasional/extra = 1 0 0
  (1) pair lj/cut, perpetual
      attributes: half, newton on
      pair build: half/bin/newton
      stencil: half/bin/3d/newton
      bin: standard
Setting up Verlet run ...
  Unit style    : real
  Current step  : 400000000
  Time step     : 0.1
Per MPI rank memory allocation (min/avg/max) = 1.107 | 11.35 | 16.62 Mbytes
Step Temp E_pair E_mol TotEng Press 
400000000    311.18568   -1941.5435    6198.8344    17242.559  0.059692948 
400010000    307.47202   -1903.3503    6176.0248    17102.978   0.11992594 
Loop time of 3.6908 on 28 procs for 10000 steps with 14000 atoms

Performance: 23.410 ns/day, 1.025 hours/ns, 2709.442 timesteps/s
99.6% CPU use with 28 MPI tasks x no OpenMP threads

MPI task timing breakdown:
Section |  min time  |  avg time  |  max time  |%varavg| %total
---------------------------------------------------------------
Pair    | 0.00043036 | 0.37196    | 1.7945     |  87.0 | 10.08
Bond    | 0.0007169  | 0.11185    | 0.37371    |  32.8 |  3.03
Neigh   | 0.0037331  | 0.0038418  | 0.003976   |   0.1 |  0.10
Comm    | 0.40315    | 1.6251     | 2.5261     |  54.8 | 44.03
Output  | 0.00010048 | 0.00024967 | 0.00051738 |   0.0 |  0.01
Modify  | 0.001405   | 0.24634    | 0.78936    |  46.7 |  6.67
Other   |            | 1.331      |            |       | 36.08

Nlocal:    500 ave 1611 max 0 min
Histogram: 8 3 7 3 1 0 2 2 0 2
Nghost:    516.107 ave 1026 max 37 min
Histogram: 7 1 1 1 2 4 5 1 3 3
Neighs:    5357.61 ave 22839 max 0 min
Histogram: 13 7 1 1 0 0 3 0 2 1

Total # of neighbors = 150013
Ave neighs/atom = 10.7152
Ave special neighs/atom = 7.86329
Neighbor list builds = 2
Dangerous builds = 0
4000 atoms in group rxnSites
Neighbor list info ...
  update every 1 steps, delay 1 steps, check yes
  max neighbors/atom: 2000, page size: 100000
  master list distance cutoff = 26.9
  ghost atom cutoff = 26.9
  binsize = 13.45, bins = 63 63 63
  2 neighbor lists, perpetual/occasional/extra = 1 1 0
  (1) pair lj/cut, perpetual
      attributes: half, newton on
      pair build: half/bin/newton
      stencil: half/bin/3d/newton
      bin: standard
  (2) fix bond/create/random, occasional, copy from (1)
      attributes: half, newton on
      pair build: copy
      stencil: none
      bin: none
Setting up Verlet run ...
  Unit style    : real
  Current step  : 0
  Time step     : 30
Per MPI rank memory allocation (min/avg/max) = 17.81 | 18.32 | 19.16 Mbytes
Step E_pair PotEng KinEng E_bond E_angle Temp Bonds 
       0   -1903.3503    4272.6745    12830.303   -1732.8335    7908.8584    307.47202    15631 
 1000000   -1592.1037    4387.1509    13129.958   -1710.7095    7689.9641    314.65311    15611 
 2000000   -1568.1914     4468.735     12946.64   -1788.3491    7825.2756    310.25997    15625 
 3000000    -1536.832    4512.7695     12901.62   -1766.7237    7816.3252     309.1811    15629 
 4000000   -1543.8572    4606.0485    12809.164   -1757.2748    7907.1805    306.96542    15619 
 5000000   -1457.2808    4482.5391    12981.445   -1731.9748    7671.7947    311.09405    15627 
 6000000   -1473.8243    4691.3637    12965.199   -1725.6959    7890.8838    310.70473    15621 
 7000000   -1404.0873     4577.379    13075.941   -1805.1201    7786.5864    313.35861    15631 
 8000000   -1411.0209    4733.3848    12951.932   -1708.1194     7852.525    310.38679    15614 
 9000000   -1404.4134    4634.8804    12897.779   -1737.7783    7777.0721    309.08906    15619 
10000000   -1386.2799    4572.5413    13005.153   -1803.1561    7761.9773    311.66221    15621 
11000000   -1387.9665    4695.8687    12788.085   -1657.0366    7740.8717    306.46028    15619 
12000000   -1424.6663    4686.5568    12918.714   -1651.9312    7763.1543    309.59074    15609 
13000000   -1439.0725      4528.53    12940.861   -1785.5566    7753.1591    310.12149    15615 
14000000   -1417.6061    4419.1736    12988.752   -1827.9065    7664.6863    311.26917    15640 
15000000   -1395.2678    4627.4468    12980.735   -1722.3387    7745.0533    311.07704    15614 
16000000   -1349.1235    4520.7237    13049.867   -1737.4792    7607.3264    312.73376    15633 
17000000   -1403.0998    4704.7967    12969.906   -1645.7692    7753.6656    310.81754    15619 
18000000   -1390.2415    4751.8574    12945.417   -1609.0042     7751.103    310.23068    15606 
19000000   -1359.0267    4678.6889    12913.549   -1703.7749    7741.4906    309.46696    15615 
20000000   -1367.1533    4723.6943    13033.223   -1743.7332    7834.5808    312.33491    15623 
21000000   -1378.8183    4694.4894    12834.503   -1816.5678    7889.8754    307.57266    15631 
22000000   -1380.4026    4666.8596    12741.445    -1786.457    7833.7191    305.34257    15609 
23000000   -1384.3882    4690.5932    12868.511   -1708.2168    7783.1981    308.38765    15616 
24000000   -1395.6662    4739.6371    12943.114   -1756.7217     7892.025    310.17548    15629 
25000000   -1393.9449    4781.5437    12964.313   -1701.0125    7876.5012     310.6835    15613 
26000000   -1397.5618    4722.6112     12935.15   -1702.3136    7822.4866    309.98462    15614 
27000000   -1373.4675    4790.3266    12849.117   -1658.0701    7821.8641    307.92289    15601 
28000000    -1395.885    4541.1281    12939.351   -1764.5053    7701.5184    310.08531    15631 
29000000   -1376.9892    4775.8916    12987.423   -1669.5138    7822.3946    311.23732    15615 
30000000   -1387.1676    4609.5814    13085.765   -1748.5316    7745.2806    313.59404    15613 
31000000   -1372.1957    4658.2098    13167.114   -1759.4219    7789.8274    315.54352    15629 
32000000   -1397.4934    4721.6137    12858.803   -1712.9357    7832.0427    308.15501    15616 
33000000   -1403.3722     4538.349    12852.782   -1772.3731    7714.0944     308.0107    15624 
34000000   -1358.2828     4707.595    12988.745   -1715.6737    7781.5514    311.26901    15631 
35000000   -1349.6719    4826.3716    13057.029   -1655.4346    7831.4781     312.9054    15613 
36000000   -1380.9163    4713.8646    13011.427   -1747.0086    7841.7895    311.81256    15627 
37000000   -1364.3523    4818.4798    13126.269   -1655.6875    7838.5195     314.5647    15619 
38000000   -1397.8655    4712.8044    12909.611   -1738.4886    7849.1585     309.3726    15619 
39000000   -1401.5876    4735.9091    12912.281   -1689.2072    7826.7039    309.43657    15607 
40000000     -1366.28    4640.8411    13081.155    -1675.382     7682.503    313.48357    15609 
41000000   -1366.1602    4890.1775    12947.034   -1626.1906    7882.5284    310.26942    15598 
42000000     -1392.33    4743.8459    12970.542   -1711.0479    7847.2238    310.83278    15619 
43000000    -1358.269    4717.6637    12810.783   -1681.0574    7756.9901    307.00423    15613 
44000000   -1360.1346    4858.2436    12796.424   -1586.7071    7805.0853    306.66013    15607 
45000000   -1355.8392     4786.626    12835.961   -1729.6059     7872.071     307.6076    15627 
46000000   -1353.7553    4733.1721    12957.424   -1752.4543    7839.3818    310.51841    15615 
47000000   -1368.8699     4622.254    12823.036   -1717.0279    7708.1518    307.29787    15620 
48000000   -1325.4395    4764.3901    12842.964   -1718.6054     7808.435    307.77543    15619 
49000000   -1406.3234    4972.8585    12997.624   -1621.6984    8000.8802    311.48179    15636 
50000000   -1399.4281    4569.6012    12897.017   -1810.4349    7779.4642    309.07078    15613 
51000000   -1381.0336     4842.207    12946.773   -1657.5225     7880.763    310.26318    15598 
52000000   -1378.6415    4716.3064     12925.43   -1761.0928    7856.0406    309.75169    15624 
53000000   -1405.0267    4625.9004    12922.515   -1738.9403    7769.8674    309.68183    15635 
54000000   -1357.7329    4726.4674    12941.634   -1670.8301    7755.0304    310.14002    15613 
55000000   -1407.0553    4751.3656    13058.636   -1660.1829    7818.6037     312.9439    15608 
56000000   -1390.5235    4669.7141     12913.92   -1718.6003    7778.8379    309.47586    15604 
57000000   -1346.2498    4670.5538     12770.42   -1731.7473    7748.5508    306.03694    15613 
58000000   -1410.0803    4759.2781    12985.356   -1619.5258    7788.8841     311.1878    15595 
59000000   -1388.6687    4652.7519    12956.304    -1752.306    7793.7266    310.49157    15630 
60000000   -1368.5718    4682.4339    12879.671   -1786.6529    7837.6585    308.65509    15622 
61000000   -1379.8377    4719.0257    12890.887   -1693.3899    7792.2532    308.92388    15615 
62000000   -1342.2862    4760.7344    12960.841   -1717.6176    7820.6382    310.60029    15602 
63000000   -1341.8382    4791.7801    13021.046   -1702.4417      7836.06    312.04307    15616 
64000000   -1389.8247    4697.1084    12880.441   -1703.4383    7790.3714    308.67356    15634 
65000000   -1374.7157    4713.2096    12785.736   -1708.5376    7796.4628    306.40399    15613 
66000000   -1381.5856    4783.5882     12798.91   -1732.6385    7897.8123    306.71969    15614 
67000000   -1345.8283    4848.9956    13022.184   -1692.1222    7886.9462    312.07035    15618 
68000000   -1326.8232    4606.1542     13094.39   -1766.1063    7699.0837    313.80075    15616 
69000000   -1320.2454    4688.6825    12961.229   -1675.2415    7684.1694     310.6096    15630 
70000000   -1331.3358    4699.1646    12963.711   -1757.8939    7788.3943    310.66907    15619 
71000000   -1367.2061    4814.2921    12737.269   -1704.6967    7886.1949     305.2425    15604 
72000000   -1368.0236    4620.7013    12956.939   -1777.0254    7765.7503    310.50679    15621 
73000000   -1351.7488    4612.5169    12997.345    -1871.199    7835.4647     311.4751    15625 
74000000   -1360.6261    4568.6682      13027.1   -1757.9169    7687.2112    312.18817    15623 
75000000   -1361.6344    4607.0428     12937.18   -1809.4507    7778.1278    310.03328    15607 
76000000   -1310.9476    4619.2059    12941.253   -1773.4735    7703.6271    310.13089    15616 
77000000   -1312.8739    4711.9233    13020.025   -1749.2471    7774.0444    312.01862    15612 
78000000   -1329.8587    4722.8462    12885.018   -1677.0717    7729.7766    308.78323    15608 
79000000    -1334.924    4747.8386    12931.401   -1706.4125    7789.1751    309.89478    15616 
80000000   -1337.0479    4805.0238    12882.324   -1730.5947    7872.6665    308.71868    15621 
81000000   -1333.1857    4679.6146     12975.52   -1846.9143    7859.7146    310.95208    15615 
82000000   -1316.9411    4819.8159    12838.189   -1673.7506    7810.5076    307.66101    15611 
83000000    -1312.929    4814.7652    12929.627     -1683.74    7811.4342    309.85228    15620 
84000000   -1292.9771     4802.477    12938.946   -1697.5154    7792.9695     310.0756    15617 
85000000   -1337.8629    4764.4417    12976.328    -1716.609    7818.9135    310.97145    15613 
86000000   -1279.0884    4861.9249    13096.719   -1636.8868       7777.9    313.85655    15607 
87000000   -1337.8586    4767.0596      12877.2   -1666.0725    7770.9906    308.59587    15604 
88000000   -1373.2263     4810.427    12784.395   -1716.0048    7899.6581    306.37186    15625 
89000000   -1359.3798    4778.5387    13021.583   -1740.9202    7878.8387    312.05595    15616 
90000000   -1397.5512    4702.2306    12849.945   -1732.4125    7832.1943    307.94274    15617 
91000000   -1374.2639    4722.9668    13003.021   -1746.0749    7843.3057    311.61113    15621 
92000000   -1312.8125    4683.2795    12919.571   -1787.1286    7783.2206    309.61128    15627 
93000000   -1363.4133    4815.1336    12803.439   -1688.3514    7866.8983    306.82822    15624 
94000000   -1325.8124    4793.1411    12826.319   -1637.9071    7756.8606    307.37654    15613 
95000000   -1322.2825     4681.452    13059.123   -1740.6292    7744.3637    312.95558    15614 
96000000   -1285.9694    4833.3004    12947.978   -1704.1824    7823.4522    310.29204    15607 
97000000   -1332.5531    4908.8504    12875.523   -1614.7882    7856.1917     308.5557    15614 
98000000   -1316.7703     4802.858    12894.411    -1670.007    7789.6354    309.00834    15606 
99000000   -1316.1651    4910.0202    12990.315   -1622.5035    7848.6888    311.30663    15615 
100000000   -1334.9767     4778.417    12844.792   -1773.7774    7887.1711    307.81923    15610 
101000000   -1352.5317    4742.3208    13058.479   -1745.2899    7840.1424    312.94015    15634 
102000000   -1344.8253    4618.0225    13013.677   -1878.8369    7841.6846    311.86649    15632 
103000000   -1341.4889    4625.1971     12974.93   -1763.9599    7730.6459    310.93794    15631 
104000000   -1301.7304     4793.474    12832.186   -1781.9836     7877.188    307.51715    15619 
105000000   -1320.6686    4831.4627    13245.343    -1714.864    7866.9953    317.41825    15613 
106000000   -1321.4921    4905.5262    13041.532   -1684.0391    7911.0575    312.53403    15620 
107000000   -1317.0354    4929.0984    13050.848   -1662.0499    7908.1838    312.75726    15611 
108000000   -1319.0988    4998.2125    12876.104   -1666.0009    7983.3122    308.56961    15623 
109000000   -1351.1066    4823.3009    13048.174   -1723.7727    7898.1802    312.69318    15605 
110000000   -1341.4127    4748.2364    12801.186   -1760.4435    7850.0926    306.77423    15627 
111000000   -1340.3811    4759.8163    12808.526   -1783.0006     7883.198    306.95014    15610 
112000000   -1300.7845    4913.7272    13129.637    -1663.806    7878.3177    314.64541    15601 
113000000   -1321.1287    4798.0426    12698.022   -1715.6667     7834.838    304.30196    15631 
114000000   -1305.6244    4870.4205    13006.381   -1648.8526    7824.8975    311.69165    15622 
115000000   -1314.4476    4730.2739     13126.64   -1721.0777    7765.7992     314.5736    15613 
116000000   -1325.4197    4803.8159    12907.515   -1669.3291    7798.5646    309.32237    15608 
117000000   -1352.5303    4708.2939    12902.941   -1705.1175    7765.9417    309.21274    15622 
118000000   -1337.7806    4789.0303    12962.273   -1724.1218    7850.9328    310.63461    15617 
119000000   -1359.1583    4790.3943    12864.389   -1735.3799    7884.9326    308.28888    15617 
120000000   -1334.7265     4793.368    13060.221    -1743.362    7871.4564     312.9819    15623 
121000000   -1342.2038    4926.4119     12854.43   -1615.5453     7884.161    308.05022    15614 
122000000   -1331.8159    4697.7518    12914.876   -1839.4711    7869.0388    309.49876    15627 
123000000   -1337.6969     4738.803     13002.69    -1751.025    7827.5249     311.6032    15618 
124000000   -1313.9813    4705.4729     12870.53   -1810.9703    7830.4246    308.43605    15628 
125000000   -1291.1247    4669.4943    12959.693   -1766.8185    7727.4374    310.57279    15621 
126000000   -1306.0256    4705.9385    13026.632     -1895.01     7906.974    312.17695    15620 
127000000   -1331.9239    4848.5556    13073.235   -1605.5543    7786.0338    313.29378    15614 
128000000    -1299.948    4678.2134    12916.324    -1840.668    7818.8294    309.53348    15640 
129000000   -1311.1313     4961.927     12977.94   -1594.9842    7868.0424    311.01007    15609 
130000000   -1328.6871    4833.9311    12965.643   -1698.0812    7860.6995    310.71537    15626 
131000000    -1316.343     4955.782    13074.102   -1651.8859    7924.0109    313.31455    15616 
132000000    -1350.124    4678.7721    12937.492   -1695.2618    7724.1579    310.04074    15625 
133000000     -1303.51    4525.9512    12873.032   -1816.3845    7645.8456    308.49601    15621 
134000000   -1325.9104    4630.8986    12915.161   -1829.9971    7786.8061    309.50559    15624 
135000000   -1322.7408      4572.21    13074.233   -1857.9451    7752.8959    313.31768    15631 
136000000   -1290.3084    4836.6147    12838.767   -1717.6489    7844.5719    307.67485    15617 
137000000   -1294.0205    4824.2859    13053.513   -1695.0587    7813.3652    312.82113    15609 
138000000   -1315.5759    4913.4034    12915.948   -1657.9727     7886.952    309.52445    15614 
139000000   -1332.9035     4835.858    12880.942   -1681.4573    7850.2188    308.68555    15611 
140000000   -1317.4736    4744.1579    12961.715   -1690.1779    7751.8094    310.62125    15615 
141000000   -1363.4709    4652.0945    12957.471   -1695.9114    7711.4767    310.51953    15624 
142000000   -1313.2441    4736.6543    13002.487   -1810.2235    7860.1219    311.59832    15623 
143000000   -1321.3244    4741.7518    13025.504   -1809.3989    7872.4751    312.14992    15616 
144000000   -1340.2179    4753.4169    13022.255   -1749.9033    7843.5381    312.07204    15617 
145000000   -1345.7943    4912.5637    12894.728   -1651.6398    7909.9978    309.01593    15630 
146000000    -1328.896    4718.2635    12945.766   -1849.6353    7896.7948    310.23903    15626 
147000000   -1335.3483    4704.1223    12797.845   -1823.6882    7863.1588    306.69417    15630 
148000000   -1360.7311    4670.6342    12935.506   -1751.5969    7782.9622    309.99316    15629 
149000000   -1346.8062    4820.6123    12884.625   -1754.5902    7922.0087    308.77381    15623 
150000000   -1323.1672     4929.977    13031.502   -1598.5504    7851.6946    312.29365    15608 
151000000   -1355.5198    4745.5731    13055.403   -1652.7052    7753.7982    312.86642    15605 
152000000   -1332.4819    4909.7862    13024.046   -1585.1446    7827.4127    312.11499    15600 
153000000   -1338.3858    4723.8973    12933.667   -1790.2868    7852.5699    309.94908    15635 
154000000   -1369.2329    4809.8045    12897.982   -1733.9153    7912.9527    309.09391    15614 
155000000   -1352.4589    4702.7287    12986.574    -1715.466    7770.6536    311.21699    15610 
156000000   -1300.8673    4644.8619    12864.213   -1732.7049    7678.4341    308.28464    15609 
157000000   -1298.8148    4731.3663    12934.227   -1858.9459     7889.127    309.96251    15617 
158000000   -1319.2285    4784.9045    13032.481   -1694.9347    7799.0676    312.31711    15618 
159000000   -1320.2122    4829.1115    12936.694   -1700.2346    7849.5582    310.02162    15602 
160000000   -1316.5928    4786.1487    12970.989   -1692.1718    7794.9132    310.84349    15632 
161000000   -1317.9126    4731.5132    12923.913   -1746.9452    7796.3709    309.71535    15627 
162000000    -1335.899    4726.0867    12898.936    -1796.411    7858.3967    309.11677    15624 
163000000   -1341.4161    4851.5834    12893.955   -1650.1555     7843.155    308.99741    15629 
164000000    -1318.015     4809.071    12994.513   -1663.3764    7790.4625    311.40724    15593 
165000000   -1366.2725    4802.6603    13009.316   -1657.9457    7826.8785    311.76198    15601 
166000000   -1313.8598    4600.7212     12816.01   -1759.8298    7674.4109    307.12949    15622 
167000000   -1326.0717    4713.4493    12920.898   -1694.4373    7733.9583    309.64308    15626 
168000000   -1339.9443    4698.6164    13031.142   -1787.4163    7825.9769    312.28503    15636 
169000000   -1360.9596    4754.6818    12896.521   -1653.8214    7769.4629     309.0589    15629 
170000000   -1371.1093     4690.438     13049.07   -1710.1055    7771.6528    312.71466    15625 
171000000   -1407.4716    4736.3201    13092.373    -1725.804    7869.5957    313.75241    15603 
172000000   -1335.1028    4702.6568    12981.447   -1777.9901    7815.7497     311.0941    15618 
173000000   -1372.6231    4655.0747    12910.272   -1749.2977    7776.9955    309.38844    15605 
174000000   -1332.9722    4819.8941    13005.056   -1708.4831    7861.3494     311.6599    15627 
175000000   -1358.9533    4665.2012    12860.983   -1822.2379    7846.3924    308.20726    15637 
176000000   -1336.8232    4747.8804     12848.79   -1699.7288    7784.4325    307.91504    15623 
177000000   -1336.2033    4700.3988    13005.728    -1764.905    7801.5072      311.676    15621 
178000000   -1343.1364    4632.7788    13094.515   -1797.4416    7773.3568    313.80373    15622 
179000000   -1327.9872    4641.6133    12924.479   -1724.0462    7693.6467    309.72891    15621 
180000000   -1324.2595    4813.8039    12876.452   -1747.6739    7885.7373    308.57795    15619 
181000000   -1338.7406    4799.3698    12959.822   -1742.8353    7880.9458    310.57587    15622 
182000000   -1321.2847    4582.8106    12906.492   -1818.2009    7722.2962    309.29785    15630 
183000000   -1351.2781    4691.0935    13069.689   -1813.6041    7855.9757     313.2088    15626 
184000000   -1333.0961    4984.6341    13001.203   -1661.8272    7979.5574    311.56755    15620 
185000000    -1343.221    4698.0853    13003.214   -1836.8189    7878.1252    311.61574    15625 
186000000   -1307.1974    4747.7994    13016.573   -1755.2846    7810.2814     311.9359    15621 
187000000   -1342.8646    4782.2352     12810.61   -1707.8813     7832.981    307.00008    15605 
188000000   -1326.8762    4667.1295    12898.826   -1742.1186    7736.1243    309.11415    15612 
189000000   -1307.2264    4765.8041    12846.713   -1703.4967    7776.5273    307.86529    15626 
190000000   -1358.8589    4784.2771    13014.527   -1798.9706    7942.1066    311.88685    15620 
191000000   -1330.1044     4864.091     12916.83    -1613.264    7807.4595     309.5456    15616 
192000000   -1325.7871    4694.2664    13101.544   -1869.5856    7889.6391    313.97217    15640 
193000000     -1327.89    4848.3067    12879.029   -1644.3484    7820.5451    308.63971    15613 
194000000   -1306.2056    4927.4138    12851.746   -1562.3452    7795.9647    307.98589    15620 
195000000   -1358.5522    4770.4991    12957.768   -1808.9086    7937.9599    310.52666    15618 
196000000   -1327.6365    4874.0832    12812.115   -1706.2081    7907.9278    307.03616    15620 
197000000    -1334.248    4818.1287    13081.899   -1665.2812    7817.6578    313.50138    15599 
198000000   -1330.9021    4804.8729    12914.985   -1663.2742    7799.0492    309.50137    15619 
199000000   -1309.1971    4770.9046    12949.707   -1775.9883    7856.0901    310.33347    15614 
200000000   -1336.1143    4742.4796    12988.163    -1768.927    7847.5209    311.25507    15622 
201000000   -1303.3152    4779.3297    12969.577   -1731.0017    7813.6466    310.80965    15603 
202000000   -1343.7203    4769.5841    12860.767   -1816.9531    7930.2576    308.20207    15618 
203000000   -1344.2981    4837.1245    12961.715    -1653.898    7835.3205    310.62125    15603 
204000000   -1323.6609    4985.2018    13005.436   -1648.0588    7956.9215    311.66899    15611 
205000000   -1316.5903    4927.0551    13036.511   -1641.8107    7885.4561    312.41369    15612 
206000000   -1346.3212    4775.4594    12927.649   -1745.4652    7867.2459    309.80486    15622 
207000000   -1341.6626    4727.6075    13012.596    -1713.062    7782.3321    311.84058    15635 
208000000   -1321.0311    4705.4462    13024.344   -1687.9195    7714.3968    312.12211    15617 
209000000   -1329.5784    4667.1765    12870.105   -1835.2447    7831.9995    308.42585    15621 
210000000   -1302.9753    4928.0192    12996.555   -1698.2204     7929.215    311.45618    15618 
211000000   -1319.0262    4921.4504    12811.593   -1700.5761    7941.0527    307.02364    15628 
212000000     -1342.78    4810.7517     13083.67   -1708.1688    7861.7005    313.54383    15624 
213000000   -1335.3749    4826.4956     12901.61   -1704.9654    7866.8359    309.18085    15621 
214000000   -1313.3593    4846.3335    12845.953   -1657.0295    7816.7224    307.84706    15611 
215000000   -1294.9467    4914.1401    12956.727   -1668.4447    7877.5315    310.50171    15609 
216000000   -1293.9208     4802.784    13038.264   -1724.6226    7821.3274     312.4557    15621 
217000000   -1290.5868    4701.7133    13009.055   -1724.8139     7717.114    311.75573    15613 
218000000    -1289.133    4848.4541     12957.35    -1676.643    7814.2301    310.51663    15605 
219000000   -1298.4743    4774.8475    12964.719   -1721.1689    7794.4908    310.69322    15628 
220000000    -1295.126     4840.031     12945.25   -1642.1433    7777.3004    310.22666    15603 
221000000   -1267.4146    4948.0866    12874.477   -1664.1363    7879.6375    308.53062    15610 
222000000   -1284.0406    4964.3096    12929.328   -1585.3037     7833.654    309.84511    15605 
223000000   -1307.1284    4865.6235    12991.168   -1708.9121    7881.6641    311.32706    15608 
224000000   -1325.7345    5025.7288    12869.941   -1617.9372    7969.4004    308.42192    15604 
225000000   -1327.1067    4735.8118    12963.799   -1733.2103    7796.1287    310.67118    15610 
226000000   -1282.4428    4795.1713    12909.297   -1807.4061    7885.0202    309.36507    15622 
227000000   -1277.1304    4873.9674    12960.184   -1748.5617    7899.6595    310.58455    15602 
228000000   -1330.2957    4825.2985    12845.531   -1712.9881    7868.5824    307.83695    15619 
229000000   -1302.2703     4640.808    13063.652   -1799.1878    7742.2662     313.0641    15624 
230000000   -1272.4728    4965.9193      13007.2   -1607.9631    7846.3552    311.71127    15610 
231000000   -1286.8684    4832.4962    12861.754   -1790.2296    7909.5942    308.22572    15626 
232000000   -1302.5685    4721.2981    12986.861   -1704.8335    7728.7002    311.22385    15613 
233000000   -1305.2919    4967.0124    12979.299   -1631.0341    7903.3384    311.04264    15610 
234000000   -1288.4304    4634.0686    12846.162   -1784.6655    7707.1645    307.85206    15611 
235000000   -1277.4214     4896.531    13124.419   -1714.4203    7888.3727    314.52037    15617 
236000000   -1271.2392    4796.6486    12827.732   -1745.5036    7813.3914    307.41041    15605 
237000000   -1293.8667    4622.9821    13117.211   -1776.5884    7693.4371    314.34763    15616 
238000000   -1288.8742    4970.2906    13020.899   -1537.3605    7796.5253    312.03956    15601 
239000000   -1280.6442    4731.6637    12941.109   -1787.2611     7799.569    310.12742    15624 
240000000   -1298.9876    4814.4712    12951.238   -1667.4277    7780.8865    310.37017    15613 
241000000   -1264.6265    4823.9326    13042.881    -1721.715    7810.2741    312.56635    15602 
242000000   -1289.7786    4903.5322    13048.815   -1627.3184    7820.6292    312.70856    15601 
243000000   -1267.1367    4823.1646    12899.156   -1801.3766    7891.6779    309.12205    15621 
244000000   -1271.0141     4721.419    13004.981   -1886.8881    7879.3211     311.6581    15613 
245000000   -1270.2887     4802.091     12968.53   -1768.4331    7840.8128    310.78456    15622 
246000000   -1300.2776    4866.2789    12890.897   -1736.3268    7902.8833    308.92412    15616 
247000000   -1280.5837    4832.3733    13048.681    -1724.426     7837.383    312.70533    15621 
248000000   -1297.0301     4978.051    12965.958   -1651.4724    7926.5536    310.72292    15606 
249000000   -1337.8106    4748.8707     12988.41   -1788.4358    7875.1171    311.26097    15620 
250000000   -1300.5632    4823.0378    12780.203   -1716.3776    7839.9786     306.2714    15616 
251000000   -1277.6413    4738.0929    12838.485   -1776.9844    7792.7186    307.66809    15622 
252000000   -1291.7495    4732.7341    12994.091    -1732.578    7757.0615    311.39713    15616 
253000000   -1294.5886    4719.0723    13086.465    -1818.656     7832.317    313.61081    15626 
254000000   -1266.2014    4842.6791    12861.739   -1775.0073    7883.8878    308.22535    15614 
255000000   -1273.6386    4826.8569    12979.227   -1732.8414     7833.337    311.04091    15617 
256000000   -1209.5129    4967.3412    12807.011   -1647.1997    7824.0537    306.91383    15608 
257000000   -1284.9996    4873.7273    12987.781    -1741.763    7900.4899     311.2459    15619 
258000000   -1264.8134    4763.0631    12944.276     -1711.66    7739.5365    310.20333    15622 
259000000   -1274.8819    4972.2962     12976.58   -1611.7154    7858.8936    310.97748    15612 
260000000   -1232.4762     4696.312    13036.387   -1782.8671    7711.6552    312.41071    15614 
261000000   -1235.3519    4861.9191    12877.874   -1714.6441    7811.9152    308.61203    15606 
262000000   -1306.1724    4805.9403    12983.137   -1710.1735    7822.2863    311.13461    15612 
263000000   -1277.1684    4829.3222    12936.361    -1746.941    7853.4316    310.01365    15626 
264000000   -1244.4748     4943.587    12855.689   -1615.0914    7803.1532    308.08038    15612 
265000000   -1267.2545    4885.7381    12914.048   -1709.2497    7862.2423    309.47891    15616 
266000000   -1308.3195    4821.5989    12879.922   -1598.0267    7727.9452    308.66111    15611 
267000000   -1264.6561    4889.5817    12968.029   -1718.7214    7872.9591    310.77255    15606 
268000000   -1279.3025    4867.0678    12878.241   -1715.6229    7861.9932    308.62083    15624 
269000000   -1287.4071     4678.036     13014.18   -1774.8155    7740.2586    311.87854    15621 
270000000   -1288.0666     4672.079    13142.199   -1830.3874     7790.533    314.94647    15623 
271000000   -1256.9651    4788.4462    13039.085   -1790.0883    7835.4996    312.47537    15611 
272000000   -1304.3229    4779.1617    12877.392   -1802.8237    7886.3083    308.60048    15621 
273000000   -1269.0499    4895.2343    12874.712   -1692.3215    7856.6057    308.53627    15622 
274000000   -1264.9845    4827.7928    12990.909   -1782.1741    7874.9514    311.32085    15618 
275000000   -1306.5294    5024.4925     12865.33   -1624.6517    7955.6737    308.31142    15615 
276000000   -1254.9868    4872.1032    12957.744   -1672.4018    7799.4918    310.52607    15607 
277000000   -1285.4754    4780.6308    12777.259   -1775.2406    7841.3468    306.20085    15616 
278000000   -1261.1156    5050.0126    13049.063    -1655.591    7966.7192    312.71449    15608 
279000000   -1279.4141    4807.8881    12960.489   -1667.7825    7755.0846    310.59186    15614 
280000000   -1270.5651    4847.8902    12932.291   -1763.2194    7881.6747    309.91612    15622 
281000000   -1322.7614     4795.463    12906.147   -1764.6004    7882.8248    309.28958    15624 
282000000   -1295.1915    4765.5349    12949.525   -1787.1772    7847.9036    310.32912    15628 
283000000   -1260.1804    4772.3613    12830.342   -1791.2199    7823.7616    307.47295    15604 
284000000   -1299.5943    4851.7685    12956.763    -1767.632    7918.9949    310.50258    15635 
285000000   -1244.0626     4961.179    12847.469   -1726.7591    7932.0007    307.88338    15628 
286000000   -1253.8869    4938.3558     12943.86   -1677.2552    7869.4979    310.19335    15620 
287000000   -1266.4582    4991.9147    13036.373   -1733.9894    7992.3624    312.41039    15611 
288000000   -1262.0614    4868.7912    13030.736   -1779.2982    7910.1508     312.2753    15610 
289000000   -1256.1401    4886.9112    12966.417   -1659.8005    7802.8518    310.73392    15602 
290000000   -1261.3563    4764.2975    12808.685   -1724.8324    7750.4863    306.95394    15601 
291000000   -1261.8785    4843.0141    12757.834   -1654.4228    7759.3154    305.73534    15612 
292000000   -1253.7455    4740.4243    13016.309   -1761.2739    7755.4438    311.92957    15628 
293000000   -1296.5109    4894.5271    12940.134   -1716.0082    7907.0462    310.10407    15624 
294000000   -1248.9586    4792.9297    12847.117   -1730.4074    7772.2956    307.87496    15614 
295000000   -1273.0524    4903.0135    12991.051   -1700.2953    7876.3612    311.32427    15610 
296000000   -1281.5924    4733.4818    13117.312   -1770.1885    7785.2626    314.35005    15631 
297000000   -1289.5463    4861.2685     12714.49   -1691.5199    7842.3347    304.69661    15617 
298000000   -1278.0074    4966.7113    13021.725   -1655.0346    7899.7533    312.05936    15635 
299000000   -1302.2172    5001.0039    12943.919   -1640.1864    7943.4074    310.19476    15620 
300000000    -1329.941    4650.3484    12838.193    -1845.218    7825.5073     307.6611    15619 
301000000   -1293.8327    4850.6298    12932.886   -1775.9912    7920.4536    309.93037    15634 
302000000    -1291.601    4977.3644     12969.68   -1645.7697    7914.7351    310.81212    15612 
303000000   -1300.5218    4731.7482    12908.386   -1841.4543    7873.7243    309.34323    15622 
304000000   -1264.3787    4854.4209    12945.214   -1789.1415    7907.9411     310.2258    15622 
305000000   -1276.8947    4763.3456    12886.209   -1667.9164    7708.1566    308.81177    15622 
306000000   -1262.8045    4693.0656    13034.957   -1756.0574    7711.9276    312.37644    15627 
307000000   -1281.9617    4896.0511    12916.366   -1726.4192     7904.432    309.53447    15617 
308000000    -1324.398    4808.5374    12930.298   -1720.5656    7853.5011    309.86835    15612 
309000000   -1294.3483    4795.0666    12969.555    -1750.665    7840.0799    310.80912    15618 
310000000   -1327.3207    4771.1554    12882.911   -1842.8852    7941.3613    308.73275    15639 
311000000   -1272.5616    4933.9645     12972.21   -1754.5986    7961.1247    310.87274    15620 
312000000   -1297.4178    4776.4865    13043.472   -1693.4313    7767.3356    312.58052    15622 
313000000   -1286.3061    4801.1763    12821.023   -1704.5656     7792.048    307.24963    15620 
314000000   -1312.6287    4788.3253    12798.971   -1720.0577    7821.0116    306.72116    15618 
315000000    -1304.324    4734.8631    12943.566   -1698.2945    7737.4816    310.18632    15615 
316000000   -1257.9531     4834.754    12972.418   -1689.5519     7782.259    310.87774    15608 
317000000   -1274.2391    4814.8268    12826.754    -1735.735     7824.801    307.38697    15623 
318000000   -1292.7947    4911.7913    13002.319   -1610.8691    7815.4551    311.59429    15600 
319000000   -1237.2743     4829.334     12996.29   -1715.2497     7781.858    311.44983    15621 
320000000    -1222.779    4768.7878    12837.637   -1686.5988    7678.1656    307.64776    15620 
321000000   -1227.8581    4773.1524    12939.894   -1707.7386    7708.7491    310.09832    15625 
322000000   -1269.7424    4710.7022    12837.508   -1834.4867    7814.9313    307.64469    15617 
323000000     -1265.82    4955.6723    12895.015   -1688.7849    7910.2772    309.02281    15626 
324000000   -1247.6855     4836.829     12954.99   -1721.4553    7805.9698    310.46008    15623 
325000000    -1246.429    4822.6421    13004.923   -1742.6326    7811.7037    311.65671    15622 
326000000   -1271.8039    4862.9794    12949.567   -1724.7941    7859.5774    310.33012    15615 
327000000   -1238.5263    4879.4956    13004.378   -1748.5273    7866.5492    311.64364    15614 
328000000    -1252.932    4759.3909    12946.005   -1799.6413    7811.9642    310.24477    15631 
329000000   -1244.3875    4725.4579    12840.422   -1747.4572    7717.3026     307.7145    15616 
330000000   -1236.3602    4977.4169    12899.247   -1660.8517    7874.6288    309.12423    15601 
331000000   -1240.2481    4757.2271    12925.566   -1824.2202    7821.6954    309.75495    15623 
332000000   -1240.7375    4866.4778    12879.961   -1736.0074    7843.2227    308.66204    15615 
333000000   -1253.4077    4991.8358    13045.113   -1687.5762    7932.8197    312.61984    15625 
334000000   -1280.8419    4877.8923    12910.525   -1736.7005    7895.4347     309.3945    15616 
335000000   -1248.1049    4975.8895    12728.565   -1588.5798    7812.5743    305.03392    15587 
336000000   -1276.2829    4794.6608    12959.554   -1711.1298    7782.0734    310.56945    15630 
337000000   -1277.9675    4828.6086    13084.195   -1729.1971    7835.7732    313.55641    15616 
338000000    -1248.113    4994.0889    12923.329   -1595.4099    7837.6119    309.70135    15604 
339000000   -1230.2157    4660.5859    13190.211    -1823.894    7714.6956    316.09705    15626 
340000000   -1262.6564    4856.8751    12974.968    -1694.509    7814.0405    310.93885    15621 
341000000   -1222.1657    4948.3911    12906.384   -1716.3483    7886.9051    309.29527    15617 
342000000   -1255.2164    4895.9457    12912.756   -1699.4827    7850.6449    309.44797    15617 
343000000   -1245.3467    4816.6279    12998.314   -1732.5533     7794.528    311.49831    15617 
344000000   -1264.2537    4853.9287     12848.56   -1696.5846     7814.767    307.90954    15622 
345000000   -1232.1384     4951.539    12893.383   -1746.0909    7929.7683    308.98369    15609 
346000000   -1223.6055    4968.9008     12913.61   -1680.4982    7873.0045    309.46843    15609 
347000000   -1258.9353    4911.5877     12962.98   -1713.1248    7883.6478    310.65156    15608 
348000000   -1258.5101    4878.9877    12971.478   -1731.8666    7869.3645     310.8552    15612 
349000000   -1226.7731    4752.9908    12874.402   -1803.5269    7783.2908    308.52882    15624 
350000000   -1272.5997    4797.8873    13061.326   -1740.9051    7811.3921    313.00838    15621 
351000000   -1272.4514    4762.3608    12984.633   -1838.5522    7873.3644    311.17046    15626 
352000000    -1245.969    4777.5183    12812.901   -1862.4553    7885.9426    307.05498    15617 
353000000   -1232.8422    4799.8105      12946.9   -1810.6561    7843.3089     310.2662    15627 
354000000   -1251.8686    4957.7374    12991.602   -1655.9009    7865.5069    311.33747    15605 
355000000   -1284.4868    4854.5926    12825.217   -1766.0609    7905.1403    307.35013    15614 
356000000    -1243.755    4920.2833    12911.066   -1762.1801    7926.2185    309.40747    15604 
357000000   -1238.3359    4897.0247    12854.628   -1732.7007    7868.0613    308.05497    15608 
358000000   -1267.7895    4855.2473    13125.652   -1667.3721    7790.4089    314.54992    15607 
359000000   -1274.4187    4785.8222    13029.535   -1794.4353    7854.6761    312.24653    15622 
360000000   -1259.0514    4902.8396    13045.369   -1790.5021    7952.3931    312.62598    15614 
361000000   -1261.5352     4908.699    12830.963   -1638.3551    7808.5893    307.48784    15632 
362000000   -1223.3303    4808.0164    13043.075   -1778.5543    7809.9011    312.57099    15624 
363000000    -1239.383    5054.7029    12930.056   -1649.3495    7943.4354    309.86256    15600 
364000000   -1234.2241    4970.6088    12895.968    -1665.329    7870.1619    309.04564    15610 
365000000   -1203.1213    4941.7083    12946.364   -1691.1646    7835.9942    310.25337    15622 
366000000    -1225.705    5010.7969    12987.596   -1644.7341    7881.2361    311.24147    15603 
367000000   -1254.7035      4941.52    12948.452   -1773.9277    7970.1511     310.3034    15609 
368000000   -1256.9964    4790.9643    13072.057    -1740.766    7788.7268    313.26554    15602 
369000000   -1228.6922    4835.7206    12903.792    -1722.131    7786.5438    309.23315    15622 
370000000   -1235.0575      4985.18    13061.358   -1604.2792    7824.5167    313.00914    15587 
371000000   -1237.6197     4650.915    12882.391   -1810.9217    7699.4565    308.72028    15623 
372000000   -1197.4332    4911.8391    12941.765   -1720.2989    7829.5712    310.14315    15615 
373000000   -1240.6599    4842.7213    12879.729   -1636.9085    7720.2897    308.65649    15609 
374000000   -1249.2191    4951.4824    12903.976   -1692.0556    7892.7571    309.23755    15611 
375000000   -1266.9644    4825.4152    12942.729   -1784.2023    7876.5819    310.16625    15620 
376000000   -1233.9777    4915.3149    13016.053    -1770.186    7919.4786    311.92342    15622 
377000000   -1230.1419    4870.8521    12906.769   -1799.5614    7900.5555    309.30449    15623 
378000000   -1208.5943    4791.3534    13007.067   -1829.9862    7829.9339    311.70808    15604 
379000000   -1234.8383    4979.3865    12859.875   -1632.8209    7847.0457     308.1807    15604 
380000000   -1221.1319    4930.7516    13109.821    -1733.018    7884.9014    314.17054    15617 
381000000   -1251.3185    4812.1658    12979.103   -1787.3927     7850.877    311.03794    15634 
382000000   -1209.1044    4860.4433      12837.3   -1843.5497    7913.0975     307.6397    15629 
383000000   -1263.1102    4711.9719    12750.196   -1834.1963    7809.2784     305.5523    15629 
384000000   -1220.5319    4880.3622    12981.509   -1709.8846    7810.7787    311.09561    15620 
385000000   -1226.3565    4847.8314    12934.823   -1702.4617    7776.6496     309.9768    15605 
386000000    -1254.894    4944.4165    12984.458   -1693.6719    7892.9824    311.16627    15621 
387000000   -1235.4144    4831.1999    13026.209   -1695.7419    7762.3562    312.16682    15606 
388000000   -1259.2271    4894.3479    12977.294   -1707.8069    7861.3818    310.99459    15619 
389000000   -1243.8992    4780.1197    12965.086   -1772.1394    7796.1582    310.70203    15611 
390000000   -1243.0868    4992.5928     12900.83   -1655.3585    7891.0382    309.16216    15625 
391000000   -1267.6501    4634.1322    12918.642   -1858.1682    7759.9504    309.58903    15619 
392000000   -1192.4459    4896.1676    13195.937     -1792.03    7880.6435    316.23426    15615 
393000000   -1253.5997    4862.6834    12984.209   -1723.7797    7840.0627     311.1603    15627 
394000000   -1239.1539    4829.4771     12972.26   -1760.0875    7828.7185    310.87395    15628 
395000000   -1233.1968    4831.5154    12854.014   -1698.9297     7763.642    308.04023    15612 
396000000   -1248.0269    4752.6275    12974.598   -1853.2768    7853.9312    310.92998    15628 
397000000   -1257.4464    4908.0397    13041.545   -1680.6314    7846.1175    312.53433    15624 
398000000   -1221.2125    4889.6812    13047.027   -1691.8297    7802.7234    312.66571    15620 
399000000   -1217.0377    4880.4249    12812.502   -1704.3012    7801.7639    307.04543    15605 
400000000   -1241.3237    4938.5711    12910.519   -1672.9234    7852.8182    309.39435    15603 
Loop time of 103726 on 28 procs for 400000000 steps with 14000 atoms

Performance: 9995.598 ns/day, 0.002 hours/ns, 3856.326 timesteps/s
99.6% CPU use with 28 MPI tasks x no OpenMP threads

MPI task timing breakdown:
Section |  min time  |  avg time  |  max time  |%varavg| %total
---------------------------------------------------------------
Pair    | 6438.3     | 12239      | 18189      |2593.4 | 11.80
Bond    | 4391.6     | 5955.8     | 9735.2     |2843.9 |  5.74
Neigh   | 21388      | 21614      | 21952      | 101.7 | 20.84
Comm    | 26622      | 36511      | 43844      |2079.2 | 35.20
Output  | 0.6547     | 0.65551    | 0.65632    |   0.1 |  0.00
Modify  | 18904      | 19025      | 19214      |  66.2 | 18.34
Other   |            | 8381       |            |       |  8.08

Nlocal:    500 ave 542 max 450 min
Histogram: 1 0 5 4 2 3 3 5 4 1
Nghost:    588.5 ave 891 max 421 min
Histogram: 3 4 4 8 3 1 4 0 0 1
Neighs:    3770.71 ave 5881 max 2372 min
Histogram: 3 6 4 2 4 3 0 2 1 3

Total # of neighbors = 105580
Ave neighs/atom = 7.54143
Ave special neighs/atom = 8.40157
Neighbor list builds = 36973779
Dangerous builds = 0
System init for write_restart ...
Total wall time: 28:48:51
