LAMMPS (5 Jun 2019)
Reading data file ...
  orthogonal box = (-420 -420 -420) to (420 420 420)
  2 by 2 by 7 MPI processor grid
  reading atoms ...
  14000 atoms
  scanning bonds ...
  51 = max bonds/atom
  scanning angles ...
  1 = max angles/atom
  reading bonds ...
  13800 bonds
  reading angles ...
  13600 angles
Finding 1-2 1-3 1-4 neighbors ...
  special bond factors lj:   0          0          0         
  special bond factors coul: 0          0          0         
  2 = max # of 1-2 neighbors
  2 = max # of 1-3 neighbors
  4 = max # of 1-4 neighbors
  56 = max # of special neighbors
  special bonds CPU = 0.555396 secs
  read_data CPU = 0.599896 secs
Finding 1-2 1-3 1-4 neighbors ...
  special bond factors lj:   1          1          1         
  special bond factors coul: 0          0          0         
  2 = max # of 1-2 neighbors
  2 = max # of 1-3 neighbors
  4 = max # of 1-4 neighbors
  56 = max # of special neighbors
  special bonds CPU = 0.000595418 secs
WARNING: Using 'neigh_modify every 1 delay 0 check yes' setting during minimization (../min.cpp:168)
Neighbor list info ...
  update every 1 steps, delay 0 steps, check yes
  max neighbors/atom: 2000, page size: 100000
  master list distance cutoff = 26.9
  ghost atom cutoff = 26.9
  binsize = 13.45, bins = 63 63 63
  1 neighbor lists, perpetual/occasional/extra = 1 0 0
  (1) pair lj/cut, perpetual
      attributes: half, newton on
      pair build: half/bin/newton
      stencil: half/bin/3d/newton
      bin: standard
Setting up cg style minimization ...
  Unit style    : real
  Current step  : 0
Per MPI rank memory allocation (min/avg/max) = 1.164 | 13.81 | 17.68 Mbytes
Step Temp E_pair E_mol TotEng Press 
       0            0 2.4262116e+12      2649600 2.4262142e+12 1.1227655e+09 
    7035            0   -6144.0854    5742.4468   -401.63854  -0.02117856 
Loop time of 2.58905 on 28 procs for 7035 steps with 14000 atoms

99.5% CPU use with 28 MPI tasks x no OpenMP threads

Minimization stats:
  Stopping criterion = energy tolerance
  Energy initial, next-to-last, final = 
     2.42621421633e+12     -401.614938723     -401.638544729
  Force two-norm initial, final = 2.10957e+10 0.584999
  Force max component initial, final = 1.04817e+09 0.0848794
  Final line search alpha, max atom move = 0.948135 0.0804771
  Iterations, force evaluations = 7035 9919

MPI task timing breakdown:
Section |  min time  |  avg time  |  max time  |%varavg| %total
---------------------------------------------------------------
Pair    | 0.16314    | 0.52781    | 0.98052    |  32.2 | 20.39
Bond    | 0.047234   | 0.13116    | 0.22343    |  12.4 |  5.07
Neigh   | 0.26877    | 0.27415    | 0.28033    |   0.5 | 10.59
Comm    | 0.4469     | 0.87613    | 1.3867     |  29.1 | 33.84
Output  | 0          | 0          | 0          |   0.0 |  0.00
Modify  | 0          | 0          | 0          |   0.0 |  0.00
Other   |            | 0.7798     |            |       | 30.12

Nlocal:    500 ave 824 max 176 min
Histogram: 2 2 4 3 3 2 5 4 0 3
Nghost:    338.464 ave 536 max 168 min
Histogram: 3 4 2 2 3 6 2 2 2 2
Neighs:    5465.89 ave 9884 max 1749 min
Histogram: 2 7 2 3 1 3 2 3 3 2

Total # of neighbors = 153045
Ave neighs/atom = 10.9318
Ave special neighs/atom = 5.82857
Neighbor list builds = 571
Dangerous builds = 0
Setting up Verlet run ...
  Unit style    : real
  Current step  : 7035
  Time step     : 0.1
Per MPI rank memory allocation (min/avg/max) = 1.128 | 14 | 16.55 Mbytes
Step Temp E_pair E_mol TotEng Press 
    7035            0   -6144.0854    5742.4468   -401.63854  -0.02117856 
   17035    215.80949   -4879.1093     9474.664    13600.931   -1.1204147 
Loop time of 1.83548 on 28 procs for 10000 steps with 14000 atoms

Performance: 47.072 ns/day, 0.510 hours/ns, 5448.161 timesteps/s
99.6% CPU use with 28 MPI tasks x no OpenMP threads

MPI task timing breakdown:
Section |  min time  |  avg time  |  max time  |%varavg| %total
---------------------------------------------------------------
Pair    | 0.088522   | 0.32946    | 0.64408    |  29.8 | 17.95
Bond    | 0.039223   | 0.11268    | 0.19535    |  12.0 |  6.14
Neigh   | 0.0022193  | 0.0022804  | 0.0023636  |   0.1 |  0.12
Comm    | 0.42943    | 0.76671    | 1.1133     |  23.3 | 41.77
Output  | 8.2902e-05 | 0.00010929 | 0.00014732 |   0.0 |  0.01
Modify  | 0.092266   | 0.26286    | 0.47693    |  18.3 | 14.32
Other   |            | 0.3614     |            |       | 19.69

Nlocal:    500 ave 825 max 173 min
Histogram: 2 2 4 3 3 2 4 5 0 3
Nghost:    339.893 ave 544 max 168 min
Histogram: 3 4 2 3 2 7 1 2 2 2
Neighs:    5460.36 ave 9806 max 1693 min
Histogram: 2 5 4 3 1 3 2 3 2 3

Total # of neighbors = 152890
Ave neighs/atom = 10.9207
Ave special neighs/atom = 5.82857
Neighbor list builds = 4
Dangerous builds = 0
4000 atoms in group rxnSites
Neighbor list info ...
  update every 1 steps, delay 1 steps, check yes
  max neighbors/atom: 2000, page size: 100000
  master list distance cutoff = 26.9
  ghost atom cutoff = 26.9
  binsize = 13.45, bins = 63 63 63
  2 neighbor lists, perpetual/occasional/extra = 1 1 0
  (1) pair lj/cut, perpetual
      attributes: half, newton on
      pair build: half/bin/newton
      stencil: half/bin/3d/newton
      bin: standard
  (2) fix bond/create/random, occasional, copy from (1)
      attributes: half, newton on
      pair build: copy
      stencil: none
      bin: none
Setting up Verlet run ...
  Unit style    : real
  Current step  : 0
  Time step     : 25
Per MPI rank memory allocation (min/avg/max) = 17.88 | 18.29 | 18.88 Mbytes
Step E_pair PotEng KinEng E_bond E_angle Temp Bonds 
       0   -4879.1093    4595.5547    9005.3761    3126.7797    6347.8843    215.80949    13800 
 1000000   -2088.2693    6741.1291    12906.626     343.0376    8486.3608    309.30105    14926 
 2000000   -2405.4384    6092.2251    12848.443    -1.440311    8499.1038    307.90673    15044 
 3000000   -2523.5033    5695.4108    13016.356   -361.79474    8580.7089     311.9307    15132 
 4000000   -2700.6855    5219.6955    12801.303   -413.48406    8333.8651    306.77705    15158 
 5000000   -2762.2307    5295.4936    12915.401   -522.67447    8580.3988    309.51134    15194 
 6000000   -2829.6299    5085.3314    12910.807   -626.83746    8541.7988    309.40125    15214 
 7000000   -3010.6026    4690.0252    13037.017   -779.02104    8479.6488    312.42583    15281 
 8000000   -2933.4775    4904.3227    13053.277   -609.12421    8446.9244    312.81548    15244 
 9000000   -3090.6565    4554.6118    13158.201   -787.96342    8433.2317    315.32993    15271 
10000000   -3047.4792     4566.154    12886.938   -826.56511    8440.1983    308.82924    15267 
11000000   -3069.1937    4493.7909    12856.206   -892.84027    8455.8248    308.09278    15284 
12000000   -3165.7665    4367.0739    12948.801   -902.95125    8435.7917    310.31177    15297 
13000000   -3150.3202    4611.9945    13141.031   -690.89751    8453.2122    314.91846    15287 
14000000    -3258.506    4296.0092    12941.624    -855.4069    8409.9222    310.13978    15311 
15000000   -3277.6654    4540.9299    13024.106   -717.56774    8536.1631    312.11642    15296 
16000000    -3303.297    4250.9422    12935.381   -878.09059    8432.3298    309.99016    15309 
17000000   -3326.5869    4145.4462    12860.949    -923.7517    8395.7849    308.20643    15321 
18000000   -3343.5822    3946.5967    12923.371   -1034.3432     8324.522    309.70235    15338 
19000000   -3316.8614     3938.397    12907.067   -925.52114    8180.7796    309.31162    15322 
20000000   -3400.3711     4085.718    12872.438   -1012.6237    8498.7127    308.48177    15310 
21000000    -3514.863    3831.9488    13060.398   -997.89445    8344.7062    312.98614    15342 
22000000   -3489.6942    3871.0021    13003.002   -1063.1985    8423.8948    311.61067    15350 
23000000   -3482.7306    3849.9593    12994.594   -1040.8454    8373.5352    311.40916    15354 
24000000   -3598.6708    3855.3932    12916.064   -1038.2493    8492.3133    309.52723    15331 
25000000   -3522.0963    3803.6253    12855.674   -998.80906    8324.5306    308.08002    15340 
26000000   -3620.9021     3615.268    12786.629   -1108.3197    8344.4898    306.42538    15359 
27000000   -3651.0971    3408.3702    13020.716    -1213.463    8272.9303    312.03518    15364 
28000000   -3585.9608    3715.4991     12960.53   -1009.1247    8310.5845    310.59283    15349 
29000000   -3657.2092    3546.8901    12856.556   -1116.8102    8320.9095    308.10116    15366 
30000000   -3635.8339    3614.5763    12941.163   -1142.3508     8392.761    310.12872    15371 
31000000   -3625.8245    3595.9091    12822.747   -1040.8386    8262.5722    307.29093    15350 
32000000    -3615.712    3622.3985    13010.562   -1108.7824     8346.893    311.79183    15356 
33000000   -3657.7365    3533.6628    13091.186   -1149.7175    8341.1168    313.72394    15367 
34000000   -3600.5841    3649.2225    12901.864   -1140.1961    8390.0026    309.18694    15372 
35000000    -3516.905     3867.206    12776.317   -1039.3821    8423.4931    306.17827    15348 
36000000   -3638.4201    3725.5663    13069.232   -929.15977    8293.1462    313.19783    15351 
37000000   -3718.3395    3551.6253    12997.656   -1035.2931    8305.2579    311.48254    15360 
38000000   -3672.4875     3588.046    12852.616   -1030.6328    8291.1664    308.00673    15333 
39000000   -3654.5064    3689.7394    13019.212   -986.22405    8330.4699    311.99912    15332 
40000000   -3651.9418    3589.4102    12861.819   -1093.0427    8334.3946    308.22729    15360 
41000000    -3676.851    3623.1611    13006.628   -1096.5873    8396.5994    311.69757    15347 
42000000   -3783.3082    3561.9081    12883.281   -1121.0986    8466.3149     308.7416    15376 
43000000   -3696.0514    3489.5206    13014.616   -1091.3137    8276.8856      311.889    15355 
44000000   -3762.6321    3362.0222    12968.937   -1250.0547     8374.709     310.7943    15383 
45000000   -3662.3859    3563.9468    13001.548   -1073.9786    8300.3114    311.57582    15348 
46000000   -3736.1521     3475.816    12890.906   -1087.3582    8299.3263    308.92433    15358 
47000000    -3741.968    3468.9617    12968.897   -1051.7272     8262.657    310.79337    15350 
48000000   -3720.1814    3372.7488    12866.497   -1117.1964    8210.1266    308.33938    15370 
49000000   -3640.0301    3774.2508    12975.031   -909.44784    8323.7287    310.94034    15341 
50000000   -3715.3369    3734.3633    12982.312   -953.94914    8403.6493    311.11483    15337 
51000000   -3774.8406     3339.609     13009.72    -1204.669    8319.1185    311.77166    15393 
52000000   -3758.6089     3418.659    12792.097   -1100.1438    8277.4117    306.55643    15360 
53000000   -3742.7769    3449.2633    12920.202   -1139.8265    8331.8667    309.62639    15364 
54000000   -3862.8786    3488.8877        12956   -1052.4825    8404.2488    310.48428    15368 
55000000   -3837.3229    3465.1792    13062.368   -1103.9601    8406.4622    313.03334    15366 
56000000   -3843.7456    3479.4158    12896.868   -1060.9623    8384.1237    309.06721    15359 
57000000   -3702.2691    3723.2126        12793   -936.25392    8361.7356    306.57808    15347 
58000000   -3759.1813    3419.6767    12830.946   -1159.3219    8338.1798    307.48742    15370 
59000000   -3837.2623    3400.5425    12853.486   -1185.3611    8423.1659    308.02758    15375 
60000000   -3819.4628    3493.4305    12793.047   -1040.5739    8353.4672     306.5792    15354 
61000000   -3766.2122     3431.313    13014.725   -1172.5284    8370.0535    311.89161    15376 
62000000   -3675.9233    3468.0223      13321.3   -1049.0269    8192.9724    319.23852    15350 
63000000   -3920.1296    3320.4636    12893.984   -1095.6198     8336.213     308.9981    15383 
64000000   -3795.0429     3318.479    12941.603   -1198.8121     8312.334    310.13928    15389 
65000000   -3707.7028    3421.2658    12814.627   -1141.6249    8270.5935    307.09636    15353 
66000000   -3738.7649    3549.0421    13029.343   -1150.9189    8438.7258    312.24191    15374 
67000000   -3863.2612     3391.365    13034.884   -1065.8656    8320.4918    312.37471    15360 
68000000   -3755.5473    3359.3731    13044.914   -1147.4841    8262.4045    312.61507    15370 
69000000   -3741.8435    3486.6123    13039.602    -1065.325    8293.7808    312.48776    15351 
70000000   -3736.4261    3270.0166    13041.527   -1178.4254    8184.8682    312.53389    15360 
71000000   -3784.2129    3599.7796    13040.245   -1061.1182    8445.1107    312.50319    15350 
72000000   -3674.7605    3514.1983    12774.994   -994.41621     8183.375    306.14657    15340 
73000000   -3828.4105    3331.1371    12923.223   -1206.0239    8365.5716     309.6988    15388 
74000000   -3831.5605    3452.8075    12778.611   -1109.4968    8393.8648    306.23325    15370 
75000000   -3786.8224    3392.2591    12945.386   -1130.7826    8309.8641    310.22992    15366 
76000000   -3778.2778    3480.4491    13004.101   -1052.2361     8310.963    311.63699    15353 
77000000   -3720.7813    3608.5302    12893.546   -1033.1972    8362.5087     308.9876    15355 
78000000   -3819.0257    3508.5859    12907.763   -993.04349    8320.6551     309.3283    15355 
79000000   -3827.8017    3311.0526    12780.796   -1133.3982    8272.2524    306.28561    15360 
80000000   -3837.5721    3305.8251    12996.707   -1149.9939    8293.3911    311.45981    15385 
81000000   -3784.8366     3379.026    12895.661   -1072.6299    8236.4925    309.03829    15355 
82000000   -3809.0893    3368.0894    12887.242   -1149.0476    8326.2263    308.83653    15360 
83000000   -3886.4994    3196.1911    12975.428    -1164.558    8247.2485    310.94987    15367 
84000000   -3675.8513    3876.3192    12843.015    -784.6223    8336.7928    307.77666    15310 
85000000   -3768.1416    3529.3729    12937.641   -1000.5006    8298.0151    310.04432    15358 
86000000   -3819.5505    3282.6269    13007.542   -1052.2928    8154.4703    311.71945    15360 
87000000   -3748.5946     3399.176    12956.781   -1132.9727    8280.7433    310.50299    15370 
88000000   -3790.6812    3426.5543    12864.729   -1092.4847    8309.7202    308.29701    15372 
89000000   -3599.9549    3825.5898    12911.554   -1016.8466    8442.3914    309.41915    15336 
90000000   -3890.6793    3304.0712    13099.805   -1089.9406    8284.6911    313.93051    15370 
91000000   -3782.6927    3500.2633    12984.876   -987.61062    8270.5666    311.17628    15341 
92000000   -3851.9106    3285.2413     12926.49   -1110.3683    8247.5201    309.77709    15361 
93000000   -3862.2916    3390.7871    13068.364   -1046.5761    8299.6548    313.17703    15353 
94000000   -3848.3356    3220.0484    12874.928   -1114.1392    8182.5232    308.54143    15342 
95000000   -3855.4906    3174.8173    12790.131    -1185.399    8215.7069    306.50931    15386 
96000000   -3789.0149    3519.1418    12878.286   -1041.3907    8349.5474    308.62192    15341 
97000000   -3804.4594    3320.6576    13069.485   -1089.2015    8214.3185    313.20389    15373 
98000000   -3843.7992    3255.6401    12971.324   -1166.3432    8265.7825    310.85151    15377 
99000000   -3733.2903    3498.5581     12913.26   -1150.2831    8382.1314    309.46003    15365 
100000000   -3716.0594    3567.8394    13062.929   -1051.1743     8335.073    313.04678    15361 
101000000    -3767.271    3465.0596    12891.948   -1099.1981    8331.5287    308.94932    15354 
102000000    -3827.443    3590.6889    12898.467   -976.76985    8394.9018    309.10554    15346 
103000000   -3759.4213    3352.0569    12947.084   -1068.7895    8180.2677    310.27062    15360 
104000000   -3801.4396    3571.3192    13073.248   -1012.9898    8385.7486    313.29408    15352 
105000000   -3862.8493    3382.2386    13095.961   -1083.0808    8328.1687    313.83838    15376 
106000000   -3732.5373    3588.8933    12910.531   -1150.2009    8471.6315    309.39465    15358 
107000000   -3808.8729    3239.4064    12911.818   -1206.1117    8254.3911     309.4255    15378 
108000000   -3732.8329    3423.4695     13079.45   -1075.2601    8231.5626     313.4427    15358 
109000000   -3875.0433    3304.9471    12918.793   -1113.1473    8293.1378    309.59264    15386 
110000000   -3858.7129    3360.6229    12997.973   -1229.5903    8448.9261    311.49016    15385 
111000000     -3895.13    3198.7184     12978.43   -1164.7529    8258.6014    311.02181    15379 
112000000   -3869.1036    3347.3623    12857.062   -1101.4803    8317.9462    308.11328    15364 
113000000   -3820.6452    3260.8985    12829.915   -1256.4137    8337.9574    307.46273    15391 
114000000   -3895.8508     3366.397    12925.499   -1159.2857    8421.5335    309.75335    15371 
115000000   -3890.9554     3268.646    12991.105   -1048.8311    8208.4325    311.32557    15368 
116000000   -3767.5501    3426.8444    12790.774   -1151.0593    8345.4538    306.52472    15360 
117000000   -3884.3302     3317.298    12837.797   -1167.9884    8369.6166     307.6516    15372 
118000000   -3853.6294    3207.7653    13066.175    -1185.813    8247.2076    313.12458    15387 
119000000   -3906.6322    3458.5672    12816.913   -1048.7058    8413.9052    307.15113    15367 
120000000    -3801.404    3326.6667    13045.114   -1117.1034    8245.1741    312.61985    15384 
121000000   -3880.4991    3305.6301    12995.533   -1083.8092    8269.9384    311.43168    15379 
122000000   -3864.5163    3325.3443    12977.367     -1184.69    8374.5505    310.99634    15389 
123000000   -3782.7166     3339.184    13070.639   -1169.8394      8291.74    313.23155    15371 
124000000   -3906.6594    3198.8238    12828.287   -1186.1793    8291.6624     307.4237    15395 
125000000   -3841.7379    3211.9528    12900.586   -1271.7732    8325.4639    309.15633    15387 
126000000   -3940.5763    3368.1128     13098.67   -1152.2431    8460.9322     313.9033    15375 
127000000   -3791.1382    3463.7011    12928.137   -1151.9951    8406.8344    309.81655    15376 
128000000   -3839.7605    3306.4372    13063.226   -1110.6835    8256.8813    313.05389    15369 
129000000   -3827.9643    3431.8377    12892.646   -1122.6024    8382.4044    308.96603    15375 
130000000   -3905.5228    3383.6596    12942.072   -1073.3485    8362.5309    310.15051    15351 
131000000    -3954.442     3195.418    12928.235   -1125.9815    8275.8415    309.81892    15388 
132000000   -3884.8471    3284.2411    12833.737   -1140.6481    8309.7363    307.55431    15384 
133000000   -4037.5345    3181.1545    12927.387   -1171.1708    8389.8598    309.79858    15395 
134000000   -3950.7115    3149.8168    12977.296   -1173.5446    8274.0728    310.99463    15404 
135000000   -3778.4195     3257.699    12890.078   -1144.3207    8180.4392    308.90449    15378 
136000000   -3887.1209    3164.4995    12977.182   -1212.6988    8264.3192     310.9919    15409 
137000000   -3978.9431    3126.0448    13112.435   -1150.7336    8255.7215    314.23317    15374 
138000000   -3883.5994    3263.9499    12916.681   -1097.5193    8245.0686    309.54204    15384 
139000000   -3840.8262    3280.3183    12971.159   -1065.3449    8186.4893    310.84757    15364 
140000000    -3899.635     3096.559    12768.254   -1194.1908    8190.3848    305.98503    15381 
141000000   -3952.0243     3208.097    12986.728   -1147.9519    8308.0732    311.22067    15384 
142000000   -4021.5508    3077.5807    12924.319   -1257.8261    8356.9576    309.72506    15404 
143000000   -3815.3449    3279.1975     13052.56   -1154.7438    8249.2862    312.79829    15373 
144000000    -3818.462    3392.2011    12997.907   -1060.8321    8271.4952    311.48856    15354 
145000000   -3884.5269    3339.0762    12884.883   -1052.6704    8276.2734       308.78    15357 
146000000   -3838.9379    3346.4184    12971.579   -1150.4596    8335.8159    310.85764    15374 
147000000   -3893.1119    3276.7384    13031.992   -1122.2864    8292.1367    312.30539    15377 
148000000   -3790.3418    3428.2978    12757.911   -1108.7118    8327.3514    305.73718    15364 
149000000   -3855.7248     3355.994    13025.948   -1114.3471    8326.0659    312.16055    15374 
150000000   -3856.1265    3383.8585    12999.147   -1097.1163    8337.1013    311.51828    15376 
151000000   -3866.0152    3402.8884    12946.189   -1023.1183     8292.022    310.24916    15357 
152000000   -3880.7042    3344.9776    12875.747   -1133.4739    8359.1557    308.56105    15383 
153000000   -3810.5413    3022.7484    12993.504   -1316.1265    8149.4162    311.38304    15393 
154000000   -3881.0085    3242.3251    13005.709   -1098.0661    8221.3997    311.67553    15384 
155000000   -3897.5138    3209.0479    13015.937   -1164.9271    8271.4887    311.92065    15365 
156000000   -3907.1707    3259.2423    12959.925   -1121.7821    8288.1952    310.57834    15381 
157000000   -3932.7166    3168.8822    12947.778   -1227.8309    8329.4297    310.28725    15389 
158000000   -3886.1002     3171.873    12942.191    -1192.071    8250.0442    310.15336    15369 
159000000   -3833.0149    3227.3951    12927.091   -1262.6248    8323.0347    309.79148    15391 
160000000   -3906.2012    3265.2738    12970.978   -1129.7308    8301.2058    310.84322    15370 
161000000   -3729.6835     3543.003    12821.484   -1036.8327    8309.5192    307.26067    15370 
162000000    -3808.436    3448.7259    12963.562   -1094.3972    8351.5591     310.6655    15370 
163000000   -3855.0958    3503.5891    12912.773   -1016.6211     8375.306    309.44837    15339 
164000000   -3924.8758    3160.9323    12859.662   -1167.5583    8253.3664    308.17559    15380 
165000000   -3895.6512    3272.1737    12902.274   -1176.7761    8344.6011    309.19676    15370 
166000000   -3954.0809    3362.8266    12880.901   -996.56469    8313.4722    308.68458    15367 
167000000   -3824.2373    3425.0228    13138.191   -1154.0682    8403.3282    314.85039    15353 
168000000   -3884.4429    3362.5922    12902.536   -1046.1022    8293.1373    309.20304    15370 
169000000   -3772.4444    3403.4176    12998.614   -1080.3503    8256.2123    311.50552    15356 
170000000   -3931.7602     3160.297    12863.839   -1228.4815    8320.5387    308.27569    15398 
171000000   -3870.2566    3188.1313    12879.877    -1161.286    8219.6739    308.66003    15403 
172000000   -3831.7486    3424.1052    12949.466   -1041.4226    8297.2764    310.32771    15353 
173000000   -3846.9801    3197.5918    12809.215   -1157.9069    8202.4788    306.96664    15379 
174000000   -3901.9853    3192.7336    13055.954   -1222.6669    8317.3858    312.87964    15376 
175000000   -3969.9133    3175.3051    12992.088   -1093.6263    8238.8447    311.34912    15348 
176000000   -3904.3871    3276.9845     12826.95   -1170.5894    8351.9609    307.39165    15383 
177000000   -3858.5065    3380.0646    12769.721   -1120.8716    8359.4427     306.0202    15386 
178000000    -3872.647    3197.0797    13033.448   -1112.8549    8182.5815    312.34029    15385 
179000000    -3938.043    3219.6595    12862.566   -1202.4114     8360.114    308.24518    15386 
180000000   -4011.1593     2981.162    12838.754   -1216.0164    8208.3377    307.67455    15400 
181000000    -3787.984    3265.9155    13104.364   -1135.0133    8188.9127    314.03975    15387 
182000000   -3875.1826    3154.4009    12986.974   -1147.9268    8177.5103    311.22656    15384 
183000000   -3879.5948      3196.82    12784.831   -1097.2182     8173.633    306.38231    15373 
184000000   -3968.6671    2995.9995    12880.524   -1370.4921    8335.1587    308.67555    15429 
185000000   -3905.8579    3131.0543    12780.231   -1319.5121    8356.4244    306.27208    15411 
186000000   -3917.1313    3156.5992    13019.962   -1246.4175     8320.148    312.01709    15383 
187000000   -3830.4249    3109.0477    12839.787   -1259.3964     8198.869     307.6993    15400 
188000000   -3863.6074    3109.5739    12930.043    -1280.092    8253.2733    309.86225    15413 
189000000   -3934.0504    3032.1071    12932.202   -1156.4141    8122.5717    309.91397    15396 
190000000   -3889.4822    3225.2261    12925.271   -1135.6748    8250.3832    309.74789    15393 
191000000   -3960.0583      3286.29    13068.514   -1037.7066     8284.055    313.18062    15376 
192000000   -3901.0316     3165.427    12946.777   -1157.5815    8224.0401    310.26326    15382 
193000000    -3921.817    3186.5262    12868.674   -1151.9604    8260.3037    308.39155    15388 
194000000   -4007.6804    3071.9668    13109.295   -1238.4474    8318.0947    314.15793    15387 
195000000   -3958.1831     3035.588    12980.733   -1213.2487    8207.0198    311.07701    15397 
196000000   -3957.6749    3193.8283    12776.038   -1099.2982    8250.8014    306.17159    15378 
197000000    -3985.787    3132.8718     12843.94   -1153.6638    8272.3226    307.79883    15396 
198000000   -3882.8275    3172.4153    12936.823   -1135.1153    8190.3581    310.02471    15376 
199000000   -3977.0452    3075.8017    12949.003   -1237.8837    8290.7306     310.3166    15403 
200000000   -3932.7712    2985.8622    12860.522   -1232.0856     8150.719    308.19619    15403 
201000000   -3877.7091      3073.13    13064.839   -1301.0134    8251.8525    313.09256    15405 
202000000   -3888.5877    3261.1072    12912.944   -1207.3239    8357.0188    309.45246    15403 
203000000   -3918.4159    3415.9535    12934.129   -1022.7228    8357.0921    309.96016    15399 
204000000   -3989.5044    3077.3407    13038.425   -1155.3246    8222.1697    312.45956    15417 
205000000   -3856.6827    3265.3956    13050.628   -1158.4356    8280.5139    312.75199    15381 
206000000   -3778.8335    3260.8975    12992.917   -1144.4737    8184.2048    311.36899    15376 
207000000   -3883.6223    3127.3626    12887.689   -1255.9301    8266.9151    308.84724    15391 
208000000   -3764.8802    3286.2651    12714.206   -1231.3282    8282.4735    304.68982    15393 
209000000   -3887.7393    3179.1578    12908.432    -1179.688    8246.5851    309.34433    15397 
210000000   -3908.8271    3207.5993    12735.601    -1223.009    8339.4354    305.20252    15394 
211000000     -3926.27    3133.8882    12926.052   -1187.9153    8248.0735    309.76659    15383 
212000000   -3938.4325    3088.0728    12900.964   -1239.3614    8265.8667    309.16537    15411 
213000000   -4004.2801    3027.6028    13033.001   -1307.4285    8339.3113    312.32957    15447 
214000000   -3910.0632    3277.9613    12805.482   -1086.6443    8274.6688    306.87719    15379 
215000000   -4011.4379    2928.5075    13050.365   -1189.5438    8129.4893     312.7457    15405 
216000000   -3932.0707    3167.1068    12922.663   -1197.8726      8297.05    309.68537    15400 
217000000   -3941.0862    3239.1188     12829.86   -1179.7579    8359.9629     307.4614    15401 
218000000   -4083.3422    3040.3059    12876.452   -1211.1203    8334.7684    308.57797    15412 
219000000   -3969.1404    3095.3672     12859.88   -1205.7314    8270.2389    308.18082    15408 
220000000   -3947.3864    3050.7572    13045.687   -1288.7534    8286.8969     312.6336    15415 
221000000   -4016.5746    2804.9006    13092.384   -1429.7325    8251.2076    313.75267    15428 
222000000   -4002.1231    2955.0969    12882.631   -1263.9377    8221.1577    308.72603    15422 
223000000   -3889.9486    2953.8198    12942.972   -1330.8768    8174.6452    310.17208    15417 
224000000   -4046.5743    2840.1566    12955.236   -1375.0497    8261.7806    310.46598    15439 
225000000   -4005.4863    2865.6465    12832.585   -1334.6637    8205.7966     307.5267    15437 
226000000   -3946.6516    2951.6147    12906.141   -1241.1559    8139.4222    309.28944    15394 
227000000   -3877.2174    3267.1167    13041.827   -1226.4176    8370.7517    312.54108    15408 
228000000   -3937.8613    3120.6386    13002.829    -1221.623    8280.1228    311.60651    15396 
229000000   -3945.3804    3049.7446    13013.151   -1256.4367    8251.5617    311.85389    15409 
230000000   -3893.6276    3158.7237     12876.64   -1299.9004    8352.2517    308.58246    15422 
231000000   -3969.3224    3192.9181    12896.699   -1143.9399    8306.1804    309.06317    15400 
232000000   -3886.5049    3097.4282     12795.29   -1229.6552    8213.5882    306.63296    15416 
233000000   -3998.9817    3050.5024    12948.446   -1227.7723    8277.2564    310.30327    15392 
234000000   -4003.0056    2912.0332    12936.737   -1327.0976    8242.1364    310.02265    15418 
235000000   -3972.4463    3081.0292    13005.284   -1215.1756    8268.6511    311.66534    15419 
236000000   -4015.3408    2981.1597    12987.437   -1267.3399    8263.8404    311.23766    15413 
237000000   -4010.0677    3177.3195    12854.091   -1261.6673    8449.0545    308.04208    15414 
238000000    -4023.979    3162.1906    12863.679   -1248.1369    8434.3065    308.27185    15423 
239000000   -3929.6623    3035.5644    12721.629   -1295.1746    8260.4013    304.86769    15417 
240000000   -3927.0733    3254.2308    12670.287   -1218.7486    8400.0527     303.6373    15419 
241000000   -3958.7834     2980.126    13051.929   -1346.8642    8285.7737    312.78317    15407 
242000000    -3947.955    3026.1002    13015.654   -1193.4702    8167.5254    311.91387    15418 
243000000   -3945.1948    3244.9153    12966.225   -1170.2325    8360.3426    310.72932    15404 
244000000   -4000.7584     2986.457    12945.992   -1294.3124    8281.5278    310.24446    15422 
245000000   -3997.3656    3018.4368    12852.381   -1277.7932    8293.5956     308.0011    15425 
246000000   -4054.9415    2764.9526    12940.252   -1346.3857    8166.2798     310.1069    15447 
247000000   -4074.8576    2912.3143    12958.844   -1345.5187    8332.6907    310.55244    15426 
248000000   -3999.6895    3106.5909    12842.191   -1207.1628    8313.4432    307.75692    15425 
249000000   -3952.7096    3131.3854    12936.844   -1344.4725    8428.5675    310.02522    15412 
250000000   -3930.2397    3147.0186     12861.11   -1242.9904    8320.2488    308.21029    15429 
251000000   -4001.4246    2917.7425    12889.795   -1316.4702    8235.6373    308.89772    15401 
252000000   -4051.4209    2929.7627    12924.739   -1269.5632    8250.7468    309.73513    15400 
253000000   -3923.0477    3101.4494    12861.272   -1173.1426    8197.6397    308.21417    15398 
254000000   -4044.0906    2875.0406    12960.645   -1243.4389      8162.57    310.59561    15413 
255000000   -3945.1485    3253.0746    12920.013   -1105.4948    8303.7179    309.62188    15403 
256000000   -4031.9633    2823.1511    12941.161   -1359.3191    8214.4335    310.12868    15410 
257000000   -3965.2976    3061.8272    12966.127   -1285.7691    8312.8938    310.72698    15410 
258000000   -4026.6443    2892.7325     13027.21   -1311.7809    8231.1576     312.1908    15430 
259000000   -3998.8066    2862.1006    12984.216   -1350.5145    8211.4217    311.16046    15423 
260000000   -3977.7415    3003.2099    13004.631   -1205.2908    8186.2423    311.64971    15396 
261000000   -3938.3247    2987.8952    13068.681   -1293.5694    8219.7893    313.18464    15408 
262000000   -4028.0555    2913.2217     12869.28   -1378.2189    8319.4962    308.40607    15444 
263000000   -4063.4961    2965.2243    12989.235   -1246.7401    8275.4605    311.28074    15415 
264000000   -3955.7712    3047.8546    13003.741   -1228.7643      8232.39    311.62838    15405 
265000000   -3941.6405     2961.001    13006.619   -1257.5688    8160.2103    311.69734    15404 
266000000   -3936.0798    3262.6558    13051.845    -1270.704    8469.4396    312.78115    15414 
267000000   -3934.3057    3061.9264    13068.378   -1170.4165    8166.6486    313.17737    15390 
268000000   -3953.8243    2978.3093    12930.435   -1255.2202    8187.3538    309.87164    15417 
269000000   -3977.3925    3179.1038    12980.276   -1177.3903    8333.8867    311.06604    15390 
270000000   -3959.4107    3002.5283    12881.197   -1296.1649    8258.1039    308.69166    15430 
271000000   -3910.3217    3156.9937    13049.653   -1194.3051    8261.6205    312.72863    15403 
272000000   -3894.7231    3128.2328    12840.646   -1288.8783    8311.8341    307.71989    15392 
273000000   -3975.4541    3106.2724     12932.25    -1239.078    8320.8044    309.91513    15414 
274000000   -3978.3967    3037.0384    12946.119   -1293.6853    8309.1203     310.2475    15414 
275000000   -4067.5985    2866.8443    12819.643   -1379.3392    8313.7821    307.21656    15431 
276000000   -4052.5249    2881.4366    12890.026   -1314.2448    8248.2063    308.90326    15423 
277000000   -3989.9323    3200.4237     12725.31   -1132.8642    8323.2201    304.95591    15387 
278000000   -4021.8302    3203.9996    12938.062   -1108.8861    8334.7159     310.0544    15406 
279000000    -4053.982     2934.706    13078.534   -1301.4952    8290.1833    313.42076    15432 
280000000   -3993.8062    2964.9356    12890.814   -1375.0272     8333.769    308.92214    15424 
281000000   -3978.6839    2999.5837    12788.839   -1247.2875    8225.5551    306.47835    15416 
282000000   -4038.8667    2957.1553     12959.07   -1282.2128    8278.2348    310.55787    15435 
283000000   -3977.8871    3029.8282    12976.591   -1255.3573    8263.0726    310.97773    15428 
284000000   -3910.7485     3135.798    12870.701   -1234.7065     8281.253    308.44013    15404 
285000000   -4036.3378    3132.9804    12901.625   -1182.0709    8351.3891    309.18122    15411 
286000000   -3936.0785    3140.4599    12822.641   -1129.4672    8206.0056    307.28841    15379 
287000000   -3910.9079    3082.1829    13005.443    -1221.697    8214.7878    311.66915    15393 
288000000   -3929.3917    2901.1751    13143.851   -1396.2785    8226.8454    314.98604    15430 
289000000   -3962.0053    2947.1953    12855.307   -1304.1876    8213.3882    308.07122    15417 
290000000   -3991.8788    3048.5854     12963.94   -1198.2788     8238.743    310.67456    15413 
291000000   -3931.0654    3210.6513    13005.547   -1259.1645    8400.8812    311.67166    15420 
292000000   -3917.4403    2954.5391    12901.306   -1369.7257    8241.7051    309.17357    15414 
293000000   -4014.6955    2887.5697    12944.389   -1362.8254    8265.0906    310.20604    15433 
294000000   -3959.4572    2818.7941    12825.553   -1360.4913    8138.7426     307.3582    15428 
295000000   -3976.0968     3024.521    12971.167    -1245.184    8245.8017    310.84774    15395 
296000000   -3997.6335    3148.8491    12990.519   -1304.3938    8450.8765    311.31152    15417 
297000000   -3967.1349     3116.303    12819.079    -1146.334    8229.7719    307.20303    15420 
298000000   -3973.2103    3125.3424    12979.666   -1212.8808    8311.4336    311.05143    15413 
299000000   -3974.0364    2969.5057    12857.652   -1310.2476    8253.7896    308.12743    15407 
300000000   -4079.0135    3057.8626    12940.241   -1138.8449     8275.721    310.10662    15412 
301000000   -3936.6954    3189.2567    12982.698   -1184.1943    8310.1465    311.12408    15404 
302000000   -3975.6763    3067.8078    12945.431   -1266.7052    8310.1893      310.231    15431 
303000000   -3936.6961    3131.8231    13062.378   -1210.7703    8279.2895    313.03358    15412 
304000000   -4098.5117    2888.5636    12915.263   -1291.6414    8278.7168    309.50803    15414 
305000000   -4050.8603    2838.9412    12819.125   -1316.1972    8205.9986    307.20414    15429 
306000000   -3978.5269     2960.842    13043.085   -1319.3179    8258.6868    312.57124    15412 
307000000   -4027.0139    3081.7055    13070.528    -1157.018    8265.7374    313.22889    15391 
308000000   -3926.4412    3109.2287    13010.059   -1218.0613    8253.7312    311.77979    15406 
309000000   -4011.8564    2999.5703    12923.965   -1293.7187    8305.1453    309.71658    15422 
310000000   -4013.6071    3088.4971     12832.71    -1239.389    8341.4931    307.52971    15410 
311000000   -3999.9526    3014.0927    12993.558   -1215.9219    8229.9672    311.38434    15394 
312000000     -3985.25    3114.0909    12995.472   -1248.8617    8348.2026    311.43022    15429 
313000000   -4040.7408    2987.7189    12833.715   -1256.9459    8285.4057    307.55378    15416 
314000000   -3943.5293    2973.4779    12904.183   -1281.3361    8198.3433    309.24251    15420 
315000000   -3900.0278    3208.9194      13111.3   -1202.4861    8311.4333    314.20598    15408 
316000000   -3982.9537      3067.12    12885.728    -1201.712    8251.7857    308.80026    15399 
317000000   -4061.4524    2845.3719    12896.074     -1336.27    8243.0943    309.04818    15434 
318000000    -3985.807    3236.2645    12858.772   -1094.8578    8316.9292    308.15426    15378 
319000000   -3882.8837     3087.197    12910.291   -1238.8478    8208.9285    309.38889    15402 
320000000   -3971.1399    3071.3934     12886.94   -1234.9428    8277.4761     308.8293    15408 
321000000   -4040.1953    3215.8881    12953.523   -1182.6318    8438.7152    310.42494    15422 
322000000   -3894.6391    3084.6027    12991.416   -1218.6737    8197.9156    311.33302    15421 
323000000   -4002.1874    2972.6477     12892.24   -1333.0713    8307.9064    308.95631    15425 
324000000   -3956.0029    3057.2347    12758.041   -1225.9141    8239.1516     305.7403    15420 
325000000   -3999.8023    2876.1409    12818.866   -1300.4364    8176.3795    307.19794    15418 
326000000   -3900.9948    3061.5637    12929.852   -1255.9499    8218.5085    309.85765    15410 
327000000   -4041.6696    2964.7853    12759.491   -1295.3863    8301.8412    305.77505    15419 
328000000   -3997.1165    3133.7434    12945.511   -1245.1009    8375.9608    310.23291    15414 
329000000    -3947.179    3056.2736    12886.497   -1233.6014    8237.0541    308.81869    15421 
330000000   -4021.6845    2949.0723    12903.285   -1240.5389    8211.2957    309.22099    15409 
331000000   -3891.9334    3092.4339    12781.026   -1210.7221    8195.0894    306.29111    15405 
332000000   -4024.5345    2937.1401    12899.341    -1342.559    8304.2335    309.12648    15414 
333000000   -4032.0101     3004.823    12987.679   -1188.6143    8225.4475    311.24346    15399 
334000000   -3884.8927     3075.391    12867.735   -1272.2622    8232.5459    308.36907    15408 
335000000   -3995.9257    2952.3652    12940.057   -1344.6377    8292.9286    310.10221    15431 
336000000   -3994.8159    3167.1148    12981.028   -1177.9787    8339.9093    311.08407    15404 
337000000   -3889.1643    2980.4708    13042.412    -1330.236    8199.8711     312.5551    15421 
338000000   -4050.9943    3031.3521    13052.715   -1269.2878    8351.6342    312.80202    15392 
339000000   -4006.7314    3111.9777    13021.597   -1140.1369     8258.846    312.05628    15408 
340000000   -3991.5054     3088.913    13012.227   -1223.5125    8303.9309    311.83173    15397 
341000000   -3952.6584     3136.504    12911.268   -1183.9417     8273.104     309.4123    15404 
342000000   -4122.1436    2846.3415    12899.595   -1287.8303    8256.3154    309.13256    15421 
343000000   -4009.7963     2899.487    12757.256   -1401.1887     8310.472    305.72147    15430 
344000000   -4049.0049    2883.0103    13133.667   -1360.4805    8292.4958    314.74199    15412 
345000000   -3907.6918    3053.5223    12959.317   -1253.0778    8214.2918    310.56377    15406 
346000000   -3925.7955    3001.4311    13061.539   -1209.6857    8136.9123    313.01348    15400 
347000000   -4008.8807      2998.03    12962.901   -1210.7304    8217.6412    310.64968    15407 
348000000   -4035.2602    2941.9686    12935.037   -1252.9641    8230.1929    309.98191    15410 
349000000   -4024.1475    3098.4475    12923.626   -1215.5612    8338.1562    309.70846    15412 
350000000   -3986.6675    2844.4337    12851.728   -1307.3728    8138.4741    307.98546    15447 
351000000   -4104.7766    2915.4181    12970.713   -1306.1308    8326.3254    310.83687    15425 
352000000   -4096.5131     2932.207    12884.091    -1276.326    8305.0461    308.76102    15420 
353000000   -3955.1389    3079.7857    12987.909   -1330.4113    8365.3359    311.24897    15421 
354000000   -4052.7314    2838.2888    12965.491   -1336.0402    8227.0604    310.71173    15431 
355000000   -4031.3013    3078.6687    12889.323   -1155.4262    8265.3961    308.88641    15390 
356000000   -3961.4751    2996.5938    12881.462   -1268.6247    8226.6936    308.69802    15412 
357000000   -4010.2881     2984.672    12856.168   -1310.9043    8305.8644    308.09187    15431 
358000000   -3958.3451    3017.6692    12858.653   -1151.1566    8127.1709    308.15142    15394 
359000000   -3917.7972    3193.5246      12965.1   -1173.6513    8284.9732    310.70237    15413 
360000000   -3888.2574    3155.2229    12902.269   -1191.6929    8235.1731    309.19665    15394 
361000000   -3854.0308    3236.2078     13031.45   -1221.4913    8311.7299    312.29241    15403 
362000000   -3980.5105    3015.6876     13071.18    -1236.715    8232.9131    313.24451    15404 
363000000     -3929.15    3090.7813    12854.463   -1204.0545    8223.9857      308.051    15402 
364000000   -3979.5359    2982.3399    12935.283   -1301.8099    8263.6857    309.98781    15420 
365000000   -4092.5333    3074.6389    12998.436   -1288.5217    8455.6939    311.50123    15435 
366000000   -3839.9862    3025.9575    12842.246   -1280.7304    8146.6742    307.75823    15415 
367000000   -3850.3746    3201.9025     12900.26   -1227.8832    8280.1602    309.14852    15409 
368000000   -4017.2845    2980.1393    13006.163   -1248.2235    8245.6473    311.68643    15424 
369000000   -4015.0037    3015.8468    12903.676   -1240.7006    8271.5511    309.23038    15423 
370000000   -4000.5486    3051.5379    12845.232   -1277.3013    8329.3878    307.82979    15414 
371000000   -3969.9551    2983.8407    12850.877   -1292.6084    8246.4042    307.96506    15411 
372000000   -3863.7457    3429.4746    12880.032   -1102.7344    8395.9547    308.66376    15394 
373000000   -3978.8752    3068.4875    12769.954   -1170.8591    8218.2218    306.02577    15406 
374000000   -4034.6371    2881.4861    13076.513   -1273.6697    8189.7929    313.37233    15427 
375000000   -3893.3637    3304.0644    12998.097   -1100.2575    8297.6855    311.49312    15390 
376000000   -3930.1135    3241.1907     12965.22      -1139.7    8311.0043    310.70524    15406 
377000000   -3970.8803    3068.0888    12901.815   -1167.9806    8206.9498    309.18576    15408 
378000000   -3971.6947    3047.5526     12759.32    -1188.858    8208.1053    305.77095    15412 
379000000   -4001.1116    2879.7544    12920.791   -1273.6241    8154.4901    309.64051    15434 
380000000   -3996.4392    2992.1989    12832.414   -1340.3508    8328.9889     307.5226    15436 
381000000   -4013.3821    2947.0375    12885.868   -1301.1156    8261.5351    308.80361    15427 
382000000   -3937.4305    3054.3924    12795.572   -1297.8231    8289.6459    306.63971    15419 
383000000    -3891.489    3157.4623    12755.339   -1193.1702    8242.1215    305.67553    15406 
384000000   -3946.7103    3021.9102    12880.175   -1211.2783    8179.8988    308.66718    15410 
385000000   -4018.6106    2907.2718    13054.642   -1321.9232    8247.8056    312.84819    15433 
386000000   -3948.4695    3006.6996    12921.477   -1282.8783    8238.0475    309.65696    15435 
387000000   -3911.8169    3165.7685    12966.742   -1272.7471    8350.3325    310.74172    15414 
388000000   -3880.8307    3167.1456    13002.735   -1250.3772    8298.3535    311.60426    15412 
389000000    -4010.317    3054.8515    12929.543   -1199.9821    8265.1505    309.85025    15402 
390000000     -3986.82    3023.4749    13013.745   -1317.2927    8327.5876    311.86812    15411 
391000000   -3986.4021    3122.9366    12854.964   -1225.8537    8335.1924    308.06301    15405 
392000000   -3974.9341    3106.8181    12957.703   -1229.2146    8310.9668     310.5251    15420 
393000000   -3923.0095    3150.6296    12867.906   -1174.1855    8247.8246    308.37317    15394 
394000000    -3909.773    3119.6927     13058.83   -1244.3635    8273.8292    312.94856    15420 
395000000   -4005.2712    3007.0028     13011.07    -1205.295     8217.569    311.80402    15406 
396000000   -3977.0759    2946.6608    12936.376   -1303.6745    8227.4112    310.01401    15404 
397000000   -4005.7272     3038.307    12861.259   -1299.5509    8343.5851    308.21386    15420 
398000000   -4117.8985    2862.1519    13010.905   -1308.7741    8288.8245    311.80006    15428 
399000000   -4049.2737     3048.237    12917.735    -1290.917    8388.4277    309.56729    15411 
400000000   -3971.7793    3015.1561     12964.86   -1229.1478    8216.0832    310.69662    15398 
401000000   -3887.9836    3001.4591    12861.558    -1304.224    8193.6667    308.22103    15422 
402000000   -3983.7844    2978.1292    12991.999   -1328.9642    8290.8779    311.34698    15411 
403000000   -3901.5522    3044.6771    12919.009   -1251.4477    8197.6769    309.59782    15396 
404000000   -4044.5297    2854.6455     12954.32   -1322.2215    8221.3967    310.44402    15429 
405000000   -3938.1161     2942.574    13022.431   -1336.0826    8216.7727    312.07628    15417 
406000000   -4043.4884    2880.1783    13084.894   -1305.0808    8228.7475    313.57317    15420 
407000000    -4026.816    2915.2198    13105.452   -1339.5958    8281.6315    314.06583    15431 
408000000   -4012.6879    2982.3893    12994.678   -1272.6274    8267.7046    311.41118    15414 
409000000    -4070.845    2897.1722    12925.977   -1223.1498     8191.167     309.7648    15412 
410000000   -4098.9712    2930.4414     12946.38   -1225.9469    8255.3595    310.25375    15412 
411000000   -4017.3686    2961.2218    12748.886   -1222.9482    8201.5386     305.5209    15407 
412000000   -3973.4179    3082.7863     12932.15   -1228.0617    8284.2659    309.91272    15408 
413000000   -4032.1786    2941.6331    13081.892   -1307.0097    8280.8214    313.50122    15427 
414000000   -3962.2684     3118.676    12866.978    -1195.657    8276.6014    308.35091    15399 
415000000   -4148.0093    2798.8608     12849.53   -1338.5214    8285.3915    307.93279    15418 
416000000    -4024.711    3083.9172    13006.092   -1303.6892    8412.3174    311.68471    15416 
417000000   -4064.2599    2940.9708    13062.608   -1300.3465    8305.5772    313.03908    15417 
418000000    -3985.551    3021.1109    12900.211   -1182.8103    8189.4723    309.14732    15408 
419000000   -3834.8042    3254.3559     12895.89   -1211.8831    8301.0432    309.04379    15402 
420000000   -3918.2758    2974.9319    12865.591   -1198.0423    8091.2501    308.31768    15417 
421000000    -4063.987    2897.0915    12826.468   -1260.6109    8221.6893    307.38011    15415 
422000000   -3933.9367    3133.0385    12791.135   -1286.1962    8353.1713    306.53337    15414 
423000000   -4050.0727    2897.7876    12878.934   -1294.7077    8242.5681    308.63744    15418 
424000000   -4011.0889    3043.2612    13024.585   -1190.4312    8244.7814     312.1279    15420 
425000000   -3998.6309    3025.0098    13004.331   -1245.5326    8269.1733    311.64252    15431 
426000000    -3895.208    3047.8571    13019.387   -1177.4892    8120.5543    312.00332    15402 
427000000   -4054.6589    2850.8733    12714.728     -1263.01    8168.5422    304.70233    15401 
428000000   -3929.5119    3030.0191    13015.126   -1319.7994    8279.3304    311.90121    15399 
429000000    -4075.555    2744.7924    12993.477   -1408.2734    8228.6207     311.3824    15433 
430000000   -3949.3192    2827.8478    12980.893   -1341.7617    8118.9287    311.08083    15423 
431000000   -3990.9608    2966.2762    12962.898   -1279.4005    8236.6374     310.6496    15422 
432000000   -4012.9124    2995.9197    13007.369   -1214.3893    8223.2214    311.71533    15413 
433000000   -3950.8007    3137.7383    12783.224   -1219.7786    8308.3176    306.34379    15405 
434000000   -4024.7955    2989.6779    12920.756   -1273.9725    8288.4458    309.63969    15409 
435000000   -4010.5014    2800.2221    12992.369   -1436.6851    8247.4086    311.35585    15433 
436000000   -3948.2378    3201.7983    12965.183    -1185.209    8335.2452    310.70436    15392 
437000000   -3929.2552    3080.8555    12959.837   -1333.4005    8343.5112    310.57624    15428 
438000000   -3989.9622    3132.8043    13012.496   -1203.5135    8326.2801    311.83818    15395 
439000000    -3906.903    3183.2481    12986.887   -1160.8536    8251.0047    311.22448    15397 
440000000   -4020.5001    2958.0295    12809.538   -1308.3491    8286.8786    306.97439    15395 
441000000   -4068.8233    2965.5543     12826.61   -1234.7591    8269.1368    307.38352    15430 
442000000   -3981.5594    3079.6884    12803.912   -1219.0116    8280.2594    306.83956    15411 
443000000   -4054.9867    3073.5522    12971.855    -1144.141    8272.6798    310.86424    15411 
444000000   -4014.0659    2940.2351    12978.925   -1219.3025    8173.6034    311.03367    15394 
445000000   -4025.8317    2901.3238    13037.675   -1274.0295    8201.1849    312.44158    15415 
446000000   -3940.7438    3132.0415    13067.104   -1125.2842    8198.0695    313.14685    15401 
447000000   -3964.5568    3120.1567    12972.471   -1185.1766      8269.89    310.87901    15398 
448000000    -3915.239    3082.4109    12844.499   -1201.5677    8199.2177    307.81223    15404 
449000000   -3992.6879    2951.3191    12879.662   -1249.9762    8193.9832    308.65488    15420 
450000000   -3968.1361    3105.6775     13006.51   -1270.7326    8344.5462    311.69472    15416 
451000000   -3988.5557    3011.6732    12920.682   -1276.9373    8277.1663     309.6379    15408 
452000000   -4032.3363    2986.7671    12783.855   -1253.4167    8272.5201    306.35892    15416 
453000000     -3947.47    3174.3246    12830.149   -1077.6033     8199.398    307.46833    15401 
454000000   -3960.4018    2963.1441    12960.227   -1296.1113    8219.6572    310.58559    15422 
455000000   -4060.5228    3081.4661    12791.367   -1165.5213    8307.5102    306.53892    15421 
456000000   -3891.3225    3005.5906    12918.535   -1309.8593    8206.7724    309.58645    15428 
457000000   -3901.2498    3128.4261    12947.364   -1210.0691    8239.7449    310.27732    15390 
458000000   -3942.5199    3142.3424    12970.831   -1207.4724    8292.3346    310.83971    15410 
459000000   -3898.9294    3250.6733    12970.845    -1163.927    8313.5298    310.84003    15396 
460000000   -4027.0999    3012.4249     12834.85   -1251.4324    8290.9572    307.58098    15409 
461000000   -4000.6216    3013.9091    13033.387   -1245.9158    8260.4465    312.33882    15421 
462000000   -3993.6969    2898.1716    12780.818    -1306.423    8198.2915    306.28612    15425 
463000000   -4011.7303    2950.8301    12827.297   -1256.6605    8219.2209    307.39999    15422 
464000000   -4075.7198    2901.9451    12929.671   -1262.6494    8240.3143    309.85333    15412 
465000000   -4120.3237    2882.4056     12875.11   -1352.7801    8355.5094     308.5458    15426 
466000000   -4080.3724    2872.3091    12799.462   -1247.5683    8200.2498    306.73294    15393 
467000000   -4036.4379    2922.7054    13063.512   -1275.1548    8234.2981    313.06076    15422 
468000000   -4082.1233    2978.7571    12861.591   -1260.5453    8321.4257    308.22181    15400 
469000000   -3973.0779    2932.6834     13068.02   -1348.6687      8254.43    313.16879    15409 
470000000   -4101.1436    2965.2343    13151.931   -1221.1294    8287.5072    315.17967    15396 
471000000     -4065.29    3097.2717    12968.677   -1159.4824     8322.044    310.78809    15406 
472000000   -4000.4158    3199.5104    12901.852   -1161.3842    8361.3104    309.18666    15394 
473000000   -3961.8187    3010.9917    12946.097   -1303.0482    8275.8585    310.24698    15430 
474000000   -4126.6712    2991.9787    13006.667   -1206.6103    8325.2602     311.6985    15422 
475000000   -3933.8468    3152.6307    12836.656   -1165.7562    8252.2337    307.62426    15420 
476000000   -3962.1398    3187.2012     12949.48   -1106.8371    8256.1781    310.32803    15386 
477000000   -3935.4245    3078.8089    13029.543   -1258.6586     8272.892    312.24671    15422 
478000000   -3931.7624    3029.3033    12996.825   -1244.6258    8205.6915    311.46264    15417 
479000000   -4088.2489    2774.5758    12944.155   -1286.0658    8148.8905    310.20042    15407 
480000000    -4083.282    2855.1495    12759.028   -1302.3233    8240.7548    305.76394    15425 
481000000   -4094.6117    2813.2241    12779.358   -1339.8079    8247.6437    306.25114    15438 
482000000   -4025.6464    2991.9683    12873.781   -1231.8966    8249.5113    308.51394    15423 
483000000   -4055.3919    3098.6816    12856.031   -1254.3747    8408.4482    308.08857    15437 
484000000   -3992.3823    2982.9571    12979.202    -1245.083    8220.4224    311.04031    15422 
485000000   -3985.7771    2975.5429    12940.483    -1309.241     8270.561    310.11242    15417 
486000000   -3918.4903    3144.1836    12980.549   -1164.7615    8227.4355     311.0726    15410 
487000000   -3930.0435    3141.8024    13054.682   -1262.8842      8334.73    312.84914    15428 
488000000    -4032.458     2928.233    12911.122   -1280.0936    8240.7845     309.4088    15398 
489000000   -4013.2857    3068.8618    13007.391   -1321.1583    8403.3057    311.71584    15429 
490000000   -4058.0891    2809.8189     13038.27   -1308.8655    8176.7735    312.45585    15421 
491000000   -4044.5899    2940.7951    12919.743    -1253.443     8238.828     309.6154    15401 
492000000   -4008.1277    3077.4543    12890.977   -1177.4666    8263.0485    308.92605    15425 
493000000   -4041.2602    2879.8539    12908.137   -1391.5705    8312.6846    309.33728    15445 
494000000   -3959.8392    3143.8132    12970.823    -1159.421    8263.0735    310.83951    15409 
495000000   -3930.3163    3117.0506    12930.306   -1232.4635    8279.8304    309.86854    15401 
496000000   -3973.0894    3108.9384      12835.3   -1254.7579    8336.7857    307.59176    15407 
497000000   -3989.6262    2991.0293     12761.82   -1320.3613    8301.0168    305.83086    15435 
498000000   -3942.5417    3057.1342    13027.359    -1269.257    8268.9329    312.19437    15411 
499000000   -4036.8355    2871.8337    12979.766   -1425.1068     8333.776    311.05381    15437 
500000000   -3879.5236     3141.589    12830.267   -1251.9083     8273.021    307.47115    15418 
Loop time of 220859 on 28 procs for 500000000 steps with 14000 atoms

Performance: 4889.991 ns/day, 0.005 hours/ns, 2263.885 timesteps/s
99.5% CPU use with 28 MPI tasks x no OpenMP threads

MPI task timing breakdown:
Section |  min time  |  avg time  |  max time  |%varavg| %total
---------------------------------------------------------------
Pair    | 25474      | 30263      | 33389      |1070.4 | 13.70
Bond    | 6192.2     | 6889.8     | 12559      |1891.0 |  3.12
Neigh   | 69809      | 70669      | 71839      | 205.7 | 32.00
Comm    | 55233      | 65405      | 73723      |1402.9 | 29.61
Output  | 0.72484    | 0.7685     | 0.77224    |   1.0 |  0.00
Modify  | 29964      | 30294      | 30988      | 135.5 | 13.72
Other   |            | 1.734e+04  |            |       |  7.85

Nlocal:    500 ave 537 max 457 min
Histogram: 3 1 1 3 3 4 3 6 2 2
Nghost:    810.429 ave 1085 max 566 min
Histogram: 2 4 4 3 3 2 2 2 4 2
Neighs:    7055.25 ave 8921 max 5871 min
Histogram: 4 5 4 2 3 4 3 1 1 1

Total # of neighbors = 197547
Ave neighs/atom = 14.1105
Ave special neighs/atom = 8.81129
Neighbor list builds = 99874232
Dangerous builds = 0
System init for write_restart ...
Total wall time: 61:21:05
