LAMMPS (5 Jun 2019)
Reading data file ...
  orthogonal box = (-420 -420 -420) to (420 420 420)
  2 by 2 by 7 MPI processor grid
  reading atoms ...
  14000 atoms
  scanning bonds ...
  51 = max bonds/atom
  scanning angles ...
  1 = max angles/atom
  reading bonds ...
  13800 bonds
  reading angles ...
  13600 angles
Finding 1-2 1-3 1-4 neighbors ...
  special bond factors lj:   0          0          0         
  special bond factors coul: 0          0          0         
  2 = max # of 1-2 neighbors
  2 = max # of 1-3 neighbors
  4 = max # of 1-4 neighbors
  56 = max # of special neighbors
  special bonds CPU = 0.00184809 secs
  read_data CPU = 0.0620393 secs
Finding 1-2 1-3 1-4 neighbors ...
  special bond factors lj:   1          1          1         
  special bond factors coul: 0          0          0         
  2 = max # of 1-2 neighbors
  2 = max # of 1-3 neighbors
  4 = max # of 1-4 neighbors
  56 = max # of special neighbors
  special bonds CPU = 0.000682932 secs
WARNING: Using 'neigh_modify every 1 delay 0 check yes' setting during minimization (../min.cpp:168)
Neighbor list info ...
  update every 1 steps, delay 0 steps, check yes
  max neighbors/atom: 2000, page size: 100000
  master list distance cutoff = 26.9
  ghost atom cutoff = 26.9
  binsize = 13.45, bins = 63 63 63
  1 neighbor lists, perpetual/occasional/extra = 1 0 0
  (1) pair lj/cut, perpetual
      attributes: half, newton on
      pair build: half/bin/newton
      stencil: half/bin/3d/newton
      bin: standard
Setting up cg style minimization ...
  Unit style    : real
  Current step  : 0
Per MPI rank memory allocation (min/avg/max) = 1.164 | 13.81 | 17.68 Mbytes
Step Temp E_pair E_mol TotEng Press 
       0            0 2.4262116e+12      2649600 2.4262142e+12 1.1227655e+09 
    7035            0   -6144.0854    5742.4468   -401.63854  -0.02117856 
Loop time of 2.03212 on 28 procs for 7035 steps with 14000 atoms

99.5% CPU use with 28 MPI tasks x no OpenMP threads

Minimization stats:
  Stopping criterion = energy tolerance
  Energy initial, next-to-last, final = 
     2.42621421633e+12     -401.614938723     -401.638544729
  Force two-norm initial, final = 2.10957e+10 0.584999
  Force max component initial, final = 1.04817e+09 0.0848794
  Final line search alpha, max atom move = 0.948135 0.0804771
  Iterations, force evaluations = 7035 9919

MPI task timing breakdown:
Section |  min time  |  avg time  |  max time  |%varavg| %total
---------------------------------------------------------------
Pair    | 0.15323    | 0.52217    | 0.97768    |  32.4 | 25.70
Bond    | 0.044051   | 0.12947    | 0.22209    |  12.5 |  6.37
Neigh   | 0.2616     | 0.26539    | 0.27022    |   0.4 | 13.06
Comm    | 0.24925    | 0.69772    | 1.2208     |  33.1 | 34.33
Output  | 0          | 0          | 0          |   0.0 |  0.00
Modify  | 0          | 0          | 0          |   0.0 |  0.00
Other   |            | 0.4174     |            |       | 20.54

Nlocal:    500 ave 824 max 176 min
Histogram: 2 2 4 3 3 2 5 4 0 3
Nghost:    338.464 ave 536 max 168 min
Histogram: 3 4 2 2 3 6 2 2 2 2
Neighs:    5465.89 ave 9884 max 1749 min
Histogram: 2 7 2 3 1 3 2 3 3 2

Total # of neighbors = 153045
Ave neighs/atom = 10.9318
Ave special neighs/atom = 5.82857
Neighbor list builds = 571
Dangerous builds = 0
Setting up Verlet run ...
  Unit style    : real
  Current step  : 7035
  Time step     : 0.1
Per MPI rank memory allocation (min/avg/max) = 1.128 | 14 | 16.55 Mbytes
Step Temp E_pair E_mol TotEng Press 
    7035            0   -6144.0854    5742.4468   -401.63854  -0.02117856 
   17035     214.8472   -4870.5322    9460.0842    13554.773   -1.1465208 
Loop time of 1.57907 on 28 procs for 10000 steps with 14000 atoms

Performance: 54.716 ns/day, 0.439 hours/ns, 6332.830 timesteps/s
99.6% CPU use with 28 MPI tasks x no OpenMP threads

MPI task timing breakdown:
Section |  min time  |  avg time  |  max time  |%varavg| %total
---------------------------------------------------------------
Pair    | 0.084641   | 0.32896    | 0.65362    |  30.0 | 20.83
Bond    | 0.037278   | 0.11271    | 0.19547    |  12.1 |  7.14
Neigh   | 0.0027375  | 0.0028192  | 0.0029311  |   0.1 |  0.18
Comm    | 0.22335    | 0.56988    | 0.92387    |  27.9 | 36.09
Output  | 5.628e-05  | 9.3373e-05 | 0.00013411 |   0.0 |  0.01
Modify  | 0.088724   | 0.26295    | 0.45427    |  18.1 | 16.65
Other   |            | 0.3017     |            |       | 19.10

Nlocal:    500 ave 823 max 174 min
Histogram: 2 2 4 3 3 2 4 5 0 3
Nghost:    339.571 ave 538 max 165 min
Histogram: 3 4 1 3 3 6 2 2 2 2
Neighs:    5462.14 ave 9836 max 1743 min
Histogram: 2 7 2 3 1 3 2 3 3 2

Total # of neighbors = 152940
Ave neighs/atom = 10.9243
Ave special neighs/atom = 5.82857
Neighbor list builds = 5
Dangerous builds = 0
4000 atoms in group rxnSites
Neighbor list info ...
  update every 1 steps, delay 1 steps, check yes
  max neighbors/atom: 2000, page size: 100000
  master list distance cutoff = 26.9
  ghost atom cutoff = 26.9
  binsize = 13.45, bins = 63 63 63
  2 neighbor lists, perpetual/occasional/extra = 1 1 0
  (1) pair lj/cut, perpetual
      attributes: half, newton on
      pair build: half/bin/newton
      stencil: half/bin/3d/newton
      bin: standard
  (2) fix bond/create/random, occasional, copy from (1)
      attributes: half, newton on
      pair build: copy
      stencil: none
      bin: none
Setting up Verlet run ...
  Unit style    : real
  Current step  : 0
  Time step     : 25
Per MPI rank memory allocation (min/avg/max) = 17.88 | 18.28 | 18.78 Mbytes
Step E_pair PotEng KinEng E_bond E_angle Temp Bonds 
       0   -4870.5322     4589.552    8965.2211    3135.8287    6324.2555     214.8472    13800 
 1000000   -2058.8745    6820.7926    12990.983    367.75101    8511.9161    311.32263    14897 
 2000000   -2394.0875    6076.7669    12800.763   -78.533119    8549.3875    306.76409    15070 
 3000000   -2557.0069    5318.4763    13045.919   -555.39051    8430.8738    312.63916    15181 
 4000000   -2628.5816    5440.4305    12949.228   -468.91256    8537.9247    310.32199    15191 
 5000000   -2795.7374    5119.6398    12948.803   -611.19891    8526.5761    310.31181    15215 
 6000000    -2834.659     4865.873    12925.542   -735.54679    8436.0788    309.75437    15235 
 7000000   -2952.1285     4713.526    13047.267   -851.63927    8517.2938    312.67146    15284 
 8000000    -3058.669    4771.7291     12945.09   -742.55484     8572.953    310.22284    15267 
 9000000   -3150.4928    4519.5876    13029.309   -860.70274    8530.7832    312.24111    15273 
10000000   -3057.7906    4476.4433    12972.029   -851.75427    8385.9882    310.86842    15278 
11000000   -3154.7699    4608.2968    12902.002   -810.41518    8573.4818    309.19026    15291 
12000000   -3213.0343    4412.4278    12996.381   -831.20732    8456.6693    311.45199    15291 
13000000   -3184.0756    4445.2047    12918.603   -885.78458    8515.0649    309.58809    15291 
14000000   -3304.9057    4007.7948     12962.17   -980.84588    8293.5464    310.63215    15324 
15000000   -3174.5771    4255.6907     13025.84    -1024.224    8454.4918    312.15796    15340 
16000000   -3364.9692    4207.9402    12990.386   -899.44954     8472.359    311.30832    15331 
17000000   -3434.1922    4159.4738    12991.569   -938.87005     8532.536    311.33668    15309 
18000000   -3420.0468    3992.2397    12885.551   -978.61742    8390.9039      308.796    15324 
19000000   -3358.2849    4131.3991     12960.92   -991.00427    8480.6883    310.60218    15312 
20000000   -3449.7958    3976.5469    12954.854   -944.79668    8371.1393    310.45682    15360 
21000000   -3509.1105    3874.4273    12992.241   -1015.7619    8399.2997    311.35279    15333 
22000000   -3601.9916    3752.8032    12959.585   -1155.8749    8510.6697     310.5702    15355 
23000000   -3477.6185    3715.0219    12995.799   -1111.7518    8304.3922    311.43805    15353 
24000000    -3662.075    3695.7884    12804.436   -1054.7171    8412.5805    306.85213    15365 
25000000   -3580.7068    3729.4414    12924.123    -1079.891    8390.0392    309.72036    15354 
26000000   -3561.8525    3743.1462     12988.11   -1144.4767    8449.4753    311.25379    15384 
27000000   -3616.0595    3765.2856    13001.813   -1023.4524    8404.7975    311.58217    15373 
28000000   -3717.8264     3512.977    12948.106   -1096.7234    8327.5268     310.2951    15369 
29000000   -3676.5486    3614.5401    13028.165   -1140.7423    8431.8309    312.21369    15368 
30000000   -3782.2727     3452.228    12929.145   -1084.4648    8318.9655    309.84073    15382 
31000000   -3770.7123    3435.6505    13049.248   -1160.2823    8366.6452    312.71892    15385 
32000000   -3757.4818    3373.0574    12968.832   -1142.5303    8273.0696     310.7918    15377 
33000000   -3674.9319    3337.4946    12899.918   -1160.4702    8172.8968    309.14031    15374 
34000000   -3730.4248    3421.5411    12954.787   -1164.3154    8316.2813    310.45522    15387 
35000000   -3800.2215    3309.0672    12998.502    -1198.145    8307.4337    311.50281    15372 
36000000   -3833.2808    3339.8484    12943.159   -1098.0295    8271.1587    310.17655    15363 
37000000   -3715.6579    3296.3039    12989.126   -1172.3851    8184.3469    311.27812    15388 
38000000   -3682.3131    3433.1114    12843.735   -1189.5456    8304.9702     307.7939    15383 
39000000   -3785.0373    3327.3884    12849.736   -1162.4669    8274.8925    307.93773    15383 
40000000   -3862.0886    3396.7511    12912.041   -1177.7752    8436.6149    309.43083    15400 
41000000   -3819.8242    3260.1976    12928.823   -1212.4227    8292.4445    309.83301    15408 
42000000   -3815.5395    3510.9767    12910.696   -967.04347    8293.5597     309.3986    15362 
43000000   -3902.4264    3168.7807    13059.254   -1152.9992    8224.2062    312.95873    15399 
44000000   -3888.9045    3102.9694    12889.812   -1203.2777    8195.1516    308.89812    15395 
45000000   -3807.0373    3284.9053    12887.794   -1205.2065    8297.1491    308.84976    15393 
46000000    -3864.904    3162.5238    12825.084    -1305.761    8333.1889    307.34694    15398 
47000000   -3925.5579    3095.8328    12878.164   -1209.5238    8230.9144    308.61897    15408 
48000000   -3925.6805    3029.8999    12805.313   -1261.3223    8216.9027    306.87314    15420 
49000000   -4005.5426    2923.3977    12874.475   -1213.5336    8142.4739    308.53059    15422 
50000000   -3909.2239    3288.7141    12893.197   -1124.9607    8322.8987    308.97925    15401 
51000000   -4026.5407    2998.7229    12952.285   -1263.5508    8288.8144    310.39527    15409 
52000000   -3913.4556    3120.1919    12917.115   -1155.8295     8189.477    309.55241    15403 
53000000   -4007.2753    2976.9533    12842.921   -1402.0252    8386.2538     307.7744    15431 
54000000   -3847.3026    3160.9178    12879.522   -1266.6071    8274.8276    308.65154    15405 
55000000   -3979.4771    3090.1172    12729.709   -1255.6904    8325.2848    305.06134    15424 
56000000    -3886.442    3081.0176    12983.501   -1253.4899    8220.9495    311.14333    15422 
57000000   -3994.5754    2951.6256    13012.613   -1354.8726    8301.0735    311.84098    15425 
58000000    -3945.053    3195.0133    13145.552   -1211.1828     8351.249     315.0268    15419 
59000000   -4024.4031    3036.4816    13040.593   -1204.3173     8265.202    312.51152    15409 
60000000   -4088.1674    2834.1899    12924.258   -1291.0407     8213.398    309.72359    15422 
61000000   -4023.6631    2913.8296    13003.458   -1394.3362    8331.8289    311.62158    15428 
62000000   -3988.5379    3057.1603    12959.027   -1212.7522    8258.4504    310.55683    15402 
63000000   -3914.1882    2989.0014    12817.263   -1265.0866    8168.2762    307.15952    15424 
64000000   -3908.7514    3195.3116    12893.778   -1250.2258    8354.2888    308.99316    15400 
65000000   -3996.4434    2887.6657    12918.509   -1299.4624    8183.5716    309.58583    15411 
66000000   -3995.9466    2995.0246     12958.97   -1242.3542    8233.3254    310.55545    15398 
67000000   -3955.9169    3021.9699    12710.889   -1267.2623    8245.1491    304.61032    15423 
68000000   -4086.9931    2928.6659     13040.48   -1250.6418    8266.3008     312.5088    15427 
69000000   -4072.3118    2925.9621    13109.013   -1305.8357    8304.1096    314.15118    15421 
70000000   -3997.8161    3055.3767    12942.247   -1250.1271    8303.3199    310.15471    15398 
71000000   -3930.3608    3290.0197    12955.572   -1147.4312    8367.8117    310.47404    15409 
72000000   -3953.7888    3105.6455     13080.02   -1284.1465    8343.5809    313.45636    15423 
73000000    -4015.159     3030.107    13122.113    -1217.552    8262.8181     314.4651    15415 
74000000    -3962.984     3055.942    12981.756   -1247.9346    8266.8606    311.10151    15426 
75000000   -4059.4752    2980.5376    12955.369   -1184.7118    8224.7246    310.46917    15386 
76000000   -4061.2165    2875.1823    12884.658    -1363.967    8300.3658     308.7746    15431 
77000000   -4110.6232    2727.6178    13095.232   -1451.4282    8289.6692    313.82091    15431 
78000000   -4020.2871    2845.6317    12833.077   -1335.4968    8201.4156    307.53849    15408 
79000000   -3944.7347    3041.6824    12944.289   -1264.5757    8250.9928    310.20364    15398 
80000000   -4007.7578    3015.6732    13082.044   -1290.7057    8314.1368    313.50486    15413 
81000000   -4029.3036    2966.1337    12864.541   -1258.5891    8254.0263    308.29251    15411 
82000000   -3909.1073    3099.4753    12881.625   -1199.0338    8207.6163    308.70193    15402 
83000000   -3976.4746     3108.723    13107.383   -1119.2649    8204.4625     314.1121    15405 
84000000   -4112.0456    3097.6619    12914.205   -1081.7816    8291.4892    309.48269    15401 
85000000   -4043.0194    2775.6015      12851.5   -1343.2966    8161.9174    307.97998    15436 
86000000   -3988.0488    3013.2038    12793.975   -1246.5625     8247.815    306.60144    15416 
87000000   -3986.8366    3086.7909     12931.74   -1234.5266    8308.1541     309.9029    15417 
88000000   -3918.9278    3110.0974    12842.067   -1163.9657     8192.991    307.75394    15405 
89000000   -3967.9597    3066.1358    12855.488   -1190.3036    8224.3991    308.07557    15411 
90000000   -4020.5385    2915.6777    12814.125   -1267.0234    8203.2396    307.08432    15416 
91000000   -4091.7392    2796.3374    13032.849   -1317.9013    8205.9779    312.32594    15421 
92000000   -4013.0398    2922.1161    12944.848    -1269.987    8205.1429    310.21704    15423 
93000000   -3958.7665    3176.1869    12865.713   -1072.9393    8207.8928    308.32061    15408 
94000000   -4056.2756     2837.767     12976.62   -1344.0129    8238.0554    310.97842    15412 
95000000   -4081.6674    2789.8311    12964.735   -1326.7189    8198.2173     310.6936    15437 
96000000   -4020.2592    3034.1603    13083.105   -1285.4354     8339.855    313.53029    15417 
97000000   -3997.0497    2966.2191     12916.99   -1240.1801    8203.4489    309.54943    15414 
98000000   -4033.9383    3051.0147    12784.102   -1221.2451    8306.1982    306.36483    15394 
99000000   -4097.0412    2835.1938    12959.488    -1276.804    8209.0391    310.56787    15423 
100000000   -3988.1439     3033.205    13027.684    -1140.903     8162.252    312.20216    15409 
101000000   -4088.0193    2816.0426    12968.403   -1369.7562    8273.8181    310.78151    15418 
102000000   -4023.7739    2945.1651     12830.13     -1302.84     8271.779    307.46788    15415 
103000000   -4017.0535    3019.6434    12922.749   -1255.8299    8292.5268    309.68745    15414 
104000000   -3929.5103    3028.1813    12893.917   -1309.5798    8267.2714     308.9965    15432 
105000000   -4040.9111    2973.1213    13131.417   -1139.1035     8153.136    314.68808    15406 
106000000   -4012.8691    2789.4082    12921.055   -1353.5218     8155.799    309.64684    15431 
107000000   -3936.3551    3077.8982    12743.993   -1251.3448    8265.5981    305.40365    15418 
108000000   -4018.3004    3036.3582     12983.25   -1225.2126    8279.8712    311.13732    15403 
109000000   -4006.8965    3015.7973     12899.07    -1264.833    8287.5268    309.11997    15420 
110000000   -4131.1905    2763.8519    12949.313   -1345.5544    8240.5968    310.32404    15422 
111000000   -4004.0409    2955.7297     12971.68   -1220.2705     8180.041    310.86005    15394 
112000000   -3964.3334    3001.0481    12961.443   -1193.6126    8158.9941    310.61471    15401 
113000000   -3973.4854    3023.8466    12907.438   -1248.2262    8245.5581    309.32051    15413 
114000000    -4024.525     3093.576    12754.044   -1193.3925    8311.4935     305.6445    15430 
115000000   -4035.0731    3005.9153    12874.651   -1206.4504    8247.4388     308.5348    15424 
116000000   -4026.6433    3103.5422    12885.338   -1186.3949    8316.5803    308.79091    15385 
117000000   -4104.4772    2762.9144    12947.958   -1368.3776    8235.7692    310.29155    15418 
118000000   -3984.1879    3008.1391     12994.18    -1230.263      8222.59    311.39926    15406 
119000000   -4155.4401    2898.7463      12955.7   -1242.8153    8297.0017    310.47709    15433 
120000000   -4009.4346    3032.5213    12960.722   -1255.5462    8297.5021    310.59743    15410 
121000000   -4011.9194     2919.448    12876.069   -1236.9865    8168.3539    308.56878    15411 
122000000    -4005.507    3036.2151    12922.379   -1148.2204    8189.9426    309.67856    15394 
123000000   -4035.2456    2929.1818    12918.118   -1205.7582    8170.1856    309.57646    15414 
124000000   -4023.3157    3015.5008    12906.003   -1315.6759    8354.4924    309.28613    15416 
125000000    -3983.371    2896.4177    12854.179   -1347.1232    8226.9119    308.04418    15439 
126000000   -3995.8887    3089.1105    13062.027   -1219.5286    8304.5278    313.02517    15416 
127000000   -3968.8989    3089.1789     12884.81   -1199.9119    8257.9897    308.77825    15435 
128000000   -4064.0794    2904.4934    12834.626    -1298.921    8267.4937    307.57561    15410 
129000000   -3929.5598    2826.7673    13004.413   -1373.6549     8129.982    311.64449    15417 
130000000   -3955.9342    3167.2498    12929.201   -1219.1912    8342.3752    309.84206    15404 
131000000   -4054.0777    2919.0469    13008.055   -1191.4523     8164.577    311.73177    15413 
132000000   -4015.5871     3072.582    13067.233   -1189.9105    8278.0796    313.14994    15423 
133000000   -3978.0503    2913.5312    12857.305   -1379.1155    8270.6971     308.1191    15430 
134000000    -4032.745    2911.2025    13011.955   -1309.4516    8253.3991    311.82523    15425 
135000000   -4021.6754    2968.9922    12925.501    -1246.889    8237.5566    309.75339    15422 
136000000    -3946.903    3063.0254    13043.235    -1294.366    8304.2944    312.57483    15425 
137000000   -4022.1855    2798.1652    12955.652   -1376.8208    8197.1715    310.47596    15423 
138000000   -4080.2745    3020.1235    12797.927   -1170.5474    8270.9455    306.69615    15409 
139000000   -4029.4915    2904.3805    12908.451   -1167.7458    8101.6178    309.34479    15398 
140000000   -4000.5596    2928.8211    12803.806   -1261.6812    8191.0619    306.83702    15414 
141000000   -4091.6829    2911.8593    12908.952    -1234.862    8238.4042    309.35679    15431 
142000000   -3967.2327     2945.188    12846.358   -1291.8194      8204.24    307.85677    15423 
143000000   -4074.7222    2874.0957    12983.382   -1259.4538    8208.2717    311.14048    15432 
144000000   -3872.5308    3020.8735    12957.819   -1288.8906     8182.295    310.52787    15409 
145000000   -4046.1525    2936.2499    12840.626   -1307.1927    8289.5951     307.7194    15422 
146000000   -3984.4378    3162.2174     12945.83   -1186.3472    8333.0024    310.24057    15425 
147000000   -4082.3907    2944.5411    12927.319   -1315.0987    8342.0305    309.79695    15434 
148000000   -3958.5451    3143.3976    12943.172   -1248.8779    8350.8205    310.17688    15414 
149000000   -4086.5374    2819.7429    12885.189   -1434.3613    8340.6416    308.78734    15454 
150000000   -3948.6032    3068.9182    12966.244   -1213.5368    8231.0582    310.72978    15401 
151000000   -4098.7115    2791.8977     12952.81   -1309.6798    8200.2889    310.40785    15408 
152000000   -4001.0481    2958.5912    12798.436   -1354.5749    8314.2143    306.70833    15411 
153000000   -4024.0068    3128.7489    13080.527   -1183.1324    8335.8881    313.46852    15415 
154000000   -4034.3673    2860.1372    13025.133   -1356.0999    8250.6044    312.14104    15421 
155000000    -4025.139    2977.8698    12860.399   -1276.1328    8279.1416    308.19326    15415 
156000000   -4007.5448    2801.8611    12682.021   -1335.2804    8144.6863     303.9185    15418 
157000000   -4034.2086    2958.7827    13051.058    -1250.941    8243.9322     312.7623    15409 
158000000   -3971.7931    2952.7452    13055.584   -1268.3403    8192.8787    312.87076    15406 
159000000   -4029.0483    2853.3342    12880.777   -1239.9643    8122.3469    308.68161    15418 
160000000   -4031.8274    3083.3595    12943.788     -1174.03    8289.2169    310.19163    15414 
161000000   -4123.4199    2807.4654    12842.833   -1329.1915    8260.0768    307.77229    15427 
162000000   -3954.6307    3017.6079    12959.609   -1273.6113    8245.8498    310.57078    15413 
163000000   -3949.9661    3028.5679    12851.457   -1316.6766    8295.2105    307.97896    15425 
164000000    -3993.005    3065.2431    12885.851   -1147.7018    8205.9499    308.80321    15395 
165000000   -3998.3419    2939.1624    12984.341   -1222.5405    8160.0448    311.16346    15405 
166000000   -4029.0834    3154.1028    12798.505     -1165.27    8348.4562       306.71    15409 
167000000   -3889.4438    3069.8232    12983.106   -1143.6491    8102.9161    311.13386    15371 
168000000   -4006.6151    2882.9865    12961.274   -1273.4381    8163.0396    310.61068    15414 
169000000   -4159.8236    2847.6208    13013.835   -1260.4093    8267.8537    311.87028    15420 
170000000   -4064.8806    2876.5025    13117.691   -1374.4549    8315.8381    314.35912    15429 
171000000   -3991.3328    2936.1633     12850.83    -1271.545    8199.0411    307.96393    15421 
172000000   -4037.7193    2897.4532    13065.097   -1209.1987    8144.3712    313.09874    15410 
173000000   -4064.8027    2977.0294    12936.356   -1203.3917    8245.2238    310.01353    15402 
174000000   -4001.2003    2841.3603    13023.298   -1325.3269    8167.8875    312.09705    15428 
175000000   -3921.7618    3100.0528    12928.175   -1349.0091    8370.8237    309.81747    15437 
176000000   -3934.2039    3052.8583    12894.377   -1273.4227    8260.4849    309.00751    15400 
177000000   -3947.9244    3049.1857    12994.337   -1270.2453    8267.3554    311.40301    15400 
178000000   -3968.1069    2859.6487    13002.122   -1333.8249    8161.5805    311.58958    15415 
179000000   -3929.8075    3017.2563    12902.951   -1229.9071    8176.9709    309.21299    15404 
180000000   -4084.7668    2993.7461      13074.6   -1148.6382    8227.1511    313.32649    15389 
181000000   -3941.2582    2950.8325    12931.682   -1314.2265    8206.3172    309.90153    15420 
182000000   -4103.5202    2887.5275    12853.434   -1292.3769    8283.4245    308.02635    15432 
183000000   -3933.3083    3028.0803    12873.768   -1210.3712    8171.7599    308.51365    15386 
184000000   -3943.0608    3084.2648     12845.07   -1244.6899    8272.0156    307.82591    15423 
185000000   -4047.4743    2861.4632    12941.985   -1302.9653    8211.9028    310.14843    15425 
186000000   -4044.7839    2905.5582    12855.667   -1318.3676    8268.7097    308.07985    15425 
187000000   -3957.1052    3096.9503    12994.402   -1224.1083    8278.1639    311.40458    15426 
188000000   -4021.4745    3025.2758    12947.297   -1316.0967     8362.847    310.27572    15418 
189000000   -3954.0231    3140.1914    12893.215    -1269.773    8363.9875    308.97968    15421 
190000000   -4001.4057    2906.1567    13032.107   -1295.4332    8202.9956    312.30815    15418 
191000000   -3972.1084    2946.6304    12842.773   -1308.3631     8227.102    307.77085    15422 
192000000   -4028.8664    2931.4956    12910.036   -1308.2778    8268.6398    309.38277    15430 
193000000   -3923.9833    2975.4704     13166.15   -1310.4987    8209.9524    315.52042    15419 
194000000   -4011.0178    2991.2842    13040.204   -1351.2831    8353.5851    312.50219    15426 
195000000   -4048.3321    3073.3579    12992.766   -1237.4049     8359.095    311.36535    15422 
196000000   -4013.9763    2959.2461    12894.099   -1340.3523    8313.5747    309.00085    15435 
197000000   -4051.8342    2937.4693    13043.698   -1296.7698    8286.0734    312.58592    15418 
198000000   -3950.4448     2989.427    12931.214   -1282.4297    8222.3015    309.89029    15419 
199000000   -3986.6306    3006.3688    12873.618   -1286.5742    8279.5736    308.51003    15413 
200000000    -4046.846    2875.9648    13105.252   -1305.5367    8228.3475    314.06103    15426 
201000000    -4027.985    3060.5542    12860.474   -1183.2394    8271.7785    308.19504    15396 
202000000   -4034.4076    2865.4533    12696.596    -1284.759    8184.6199    304.26781    15423 
203000000    -4015.317    2937.7577    12942.829   -1250.9831    8204.0578    310.16866    15410 
204000000    -3937.046    3089.0997    12933.096    -1299.616    8325.7618    309.93541    15408 
205000000   -3945.6643    3142.8458    12925.315   -1161.1307    8249.6408    309.74894    15401 
206000000   -3965.1354    3055.4992    12945.593   -1237.7653    8258.3999    310.23489    15416 
207000000   -4061.8389    2927.3767    13024.362   -1314.7833     8303.999    312.12256    15437 
208000000   -3997.9485    2940.3407    12861.502   -1287.2479     8225.537    308.21969    15421 
209000000   -3990.3136    2962.0532    12749.651   -1262.7204    8215.0872    305.53922    15413 
210000000   -4040.3313    2920.8815    13000.396    -1336.895    8298.1079     311.5482    15425 
211000000   -3891.0501    3097.3498    12981.739   -1225.7988    8214.1987     311.1011    15419 
212000000   -4065.3196    2845.1549    12990.228   -1309.5257    8220.0003    311.30453    15423 
213000000   -4132.8233     2791.729    12866.485   -1284.5924    8209.1447    308.33909    15420 
214000000   -4087.2437    2678.0693    12910.281   -1383.7477    8149.0606    309.38866    15432 
215000000    -4040.464    2820.5048    12873.169   -1375.1205    8236.0893    308.49929    15423 
216000000   -4031.7818    2931.6533    12907.772   -1327.7268    8291.1619    309.32852    15424 
217000000   -3990.1626    3070.6943    12779.815    -1201.878    8262.7349    306.26209    15412 
218000000   -4015.3672    3069.2549    12905.296   -1171.4931    8256.1152     309.2692    15408 
219000000    -4019.916     2981.348    13020.369   -1236.7292    8237.9931    312.02687    15411 
220000000   -4059.9859    3194.2915    12954.434   -1130.4545    8384.7319    310.44676    15381 
221000000   -3991.0105    3073.5758    12844.923   -1258.4276    8323.0139    307.82237    15445 
222000000   -4005.8278    3150.0124    13013.858   -1214.8584    8370.6986    311.87082    15413 
223000000   -3989.2835    3029.3487    12869.864   -1236.2863    8254.9185    308.42008    15405 
224000000   -4006.5046    3077.5035    12793.936   -1221.1396    8305.1476    306.60051    15421 
225000000   -3790.3254    3369.9207    13069.314   -1128.4106    8288.6567    313.19981    15395 
226000000   -4029.2619    3006.3574    13096.909   -1162.2686     8197.888    313.86109    15383 
227000000   -3933.5007     3017.653    12901.489    -1219.167    8170.3207    309.17795    15409 
228000000   -4045.6671    2923.9047    12939.654   -1241.1985    8210.7703    310.09255    15411 
229000000   -4042.4397    2910.3153    13052.476   -1253.5704    8206.3254    312.79628    15420 
230000000   -4067.5468    2865.8653    13050.856   -1337.0312    8270.4433    312.75746    15432 
231000000    -4060.655    2962.4161    12915.705   -1157.2007    8180.2719    309.51864    15410 
232000000   -4044.3276    3038.0236    13020.747   -1139.3521    8221.7034    312.03591    15403 
233000000   -4042.1999    2891.1631    12997.977   -1359.6277    8292.9907    311.49026    15419 
234000000   -3998.9596    2997.7559    12822.088   -1264.8215     8261.537    307.27516    15437 
235000000   -4101.1347    2817.3558    12867.757   -1337.8521    8256.3427    308.36958    15418 
236000000    -3961.059    3023.2383    12951.198   -1185.2385    8169.5358    310.36922    15413 
237000000   -4106.5332    2605.7413    13197.124   -1355.2954    8067.5699    316.26271    15412 
238000000   -4020.5317    3016.5651    13071.354   -1158.0532      8195.15    313.24869    15417 
239000000   -3959.2675    2957.1824    12974.618   -1281.4668    8197.9167    310.93046    15422 
240000000   -4037.9593    2979.2922    13105.657    -1258.988    8276.2396    314.07075    15421 
241000000   -4022.8514    2874.6952    13063.959   -1359.4304    8256.9771    313.07147    15427 
242000000   -3858.9506    3138.0486    12935.114   -1237.1802    8234.1795    309.98376    15410 
243000000   -4026.2501    3069.6409    12744.658   -1254.8743    8350.7653    305.41958    15422 
244000000   -4071.5885    3049.9473    12978.221   -1135.0616    8256.5973    311.01681    15401 
245000000    -4017.753    2961.6152    12956.959   -1272.1954    8251.5636    310.50726    15399 
246000000   -4012.7672     2925.809    13029.343   -1221.7072    8160.2834    312.24193    15423 
247000000   -3958.1076    2959.2555    12955.825   -1267.7308    8185.0939    310.48009    15419 
248000000   -4005.9443     3036.588    12916.289   -1251.2625    8293.7948    309.53262    15406 
249000000   -4057.2603    2882.6601    12904.522    -1314.726    8254.6464    309.25064    15413 
250000000   -3955.0348    3122.2737    12928.326   -1207.3161    8284.6246    309.82109    15404 
251000000   -4002.2035    3114.3214    12826.689   -1207.1192    8323.6441     307.3854    15406 
252000000    -3903.021    3039.8962    13053.382   -1221.8737    8164.7909    312.81801    15414 
253000000   -4028.9106    2935.7192    12957.717   -1201.6752    8166.3051    310.52542    15423 
254000000    -4046.337    3183.1154    13068.538   -1094.8318    8324.2841    313.18121    15398 
255000000   -3897.6902    2996.7261    13060.025   -1327.7075    8222.1238     312.9772    15435 
256000000   -3931.4493    3169.8584    12953.072   -1193.0464     8294.354    310.41413    15393 
257000000   -4109.0885    2927.7811     13018.88   -1202.9075    8239.7771    311.99118    15410 
258000000   -3943.6571    3033.4589    12909.361   -1202.7806    8179.8966    309.36661    15415 
259000000   -4021.4485    2940.2592    12789.737   -1390.8511    8352.5588    306.49988    15433 
260000000   -4069.0268    2895.8508    12963.931   -1262.8741    8227.7516    310.67436    15424 
261000000   -3987.1063    2964.5416    12878.635   -1270.0346    8221.6825    308.63028    15409 
262000000   -4056.7979    2888.7606    12991.886   -1307.0447    8252.6032    311.34428    15427 
263000000    -4023.551    2824.8671    12996.428   -1430.9088    8279.3269    311.45312    15431 
264000000   -4050.5337    3005.8574    12870.606    -1303.059    8359.4502    308.43786    15427 
265000000   -3917.1048    3023.0312    12971.999   -1274.4438    8214.5798    310.86769    15423 
266000000   -4012.1236    2937.0384    12935.057   -1312.1687    8261.3306    309.98239    15419 
267000000   -4028.2604    2885.1141    12969.363   -1367.1033    8280.4778    310.80452    15458 
268000000   -3998.5951    2871.1587    12885.984    -1248.216    8117.9699    308.80639    15418 
269000000   -4051.3122    2790.0664    12986.753   -1294.0172    8135.3959    311.22126    15429 
270000000    -3967.078     2939.082    13056.434    -1250.663     8156.823    312.89114    15407 
271000000   -4130.8856    2744.1122    12877.759    -1420.743    8295.7408    308.60928    15442 
272000000   -4049.3535    3094.1846    12859.637   -1250.7508    8394.2888      308.175    15409 
273000000   -3992.0252     3063.216    12793.973   -1178.0499    8233.2911    306.60139    15386 
274000000   -3891.5443    3014.5788    13051.409   -1326.7498    8232.8728    312.77071    15415 
275000000   -4008.3296    3100.8029    12884.641   -1164.9222    8274.0547    308.77421    15403 
276000000   -4019.4865    2963.7503     12892.45   -1223.2468    8206.4836    308.96133    15404 
277000000   -4020.1081    2930.3759    12966.873   -1317.0653    8267.5492    310.74484    15424 
278000000   -3940.4222    3252.5697    12971.927   -1177.7881      8370.78    310.86596    15397 
279000000   -4043.3351    3038.4178    12901.415   -1218.0532    8299.8061    309.17619    15425 
280000000   -3979.6306    3108.1397    12810.635   -1191.5401    8279.3104    307.00068    15400 
281000000   -3955.7121    2952.9863     12859.76   -1271.4463    8180.1446    308.17795    15420 
282000000   -3912.2413    3327.7212    12974.222   -1025.9839    8265.9464    310.92096    15396 
283000000   -3979.9621    3055.2648    12979.101   -1274.3688    8309.5957    311.03789    15417 
284000000   -3927.5839    3056.5057    12917.485   -1281.6508    8265.7404    309.56129    15402 
285000000   -4063.1863    2974.9501    13019.499    -1182.697    8220.8334    312.00601    15417 
286000000   -4026.1515    2935.7941    12945.283    -1250.899    8212.8446    310.22747    15444 
287000000   -3902.4912    3057.9868    13001.537   -1265.6569    8226.1349    311.57556    15393 
288000000   -3893.5503    3077.2631    12928.929   -1274.5196     8245.333    309.83555    15411 
289000000    -3978.406     3110.265    12939.938   -1259.0618    8347.7327    310.09936    15407 
290000000   -3996.5297    2952.2552    12893.312   -1346.2045    8294.9894    308.98201    15423 
291000000   -3991.8542    2999.9394    12765.103   -1334.2813    8326.0749    305.90952    15415 
292000000   -3991.7525    3022.7641    12895.087   -1222.0863    8236.6028    309.02454    15398 
293000000   -3987.3123    2893.7548    12917.616   -1378.5203    8259.5874    309.56442    15438 
294000000   -3935.0229    2958.3673    12900.641   -1348.0126    8241.4027    309.15762    15447 
295000000   -4074.3301    3030.0725    12850.879   -1215.4513    8319.8539    307.96511    15416 
296000000   -3955.5272    2856.4239    13024.705   -1314.0338    8125.9849    312.13076    15419 
297000000   -3960.3578    3087.0789    12962.635   -1120.1695    8167.6062    310.64328    15399 
298000000   -4040.1833    3098.1766    12919.968   -1209.5063    8347.8662     309.6208    15411 
299000000   -3955.0819    3154.7952     13107.89   -1216.5771    8326.4542    314.12426    15396 
300000000   -3973.4777    3020.9367    12917.385    -1217.155    8211.5695    309.55888    15408 
301000000   -3942.0906    3039.9772    13008.992   -1179.2416    8161.3094    311.75421    15399 
302000000    -3993.712    3171.6016    13025.447   -1148.4432    8313.7567    312.14856    15396 
303000000   -4079.8606    2921.1594    13018.599    -1272.128    8273.1481    311.98444    15423 
304000000   -4037.7417    2919.6509    13034.111   -1242.8411    8200.2338    312.35618    15404 
305000000   -3953.4272    2959.5916    12964.524   -1330.8261     8243.845    310.68855    15428 
306000000   -3862.6461    3168.6852    12688.833   -1264.9113    8296.2426    304.08177    15411 
307000000   -3982.5474    3010.1345    13047.487   -1322.7274    8315.4092    312.67673    15416 
308000000   -3895.4499    3105.8917    13053.022   -1272.1054     8273.447    312.80936    15427 
309000000   -4055.4853     3018.131    13041.912   -1284.0698    8357.6861    312.54312    15423 
310000000    -3926.951    2974.8612    12964.557   -1266.2749     8168.087    310.68935    15426 
311000000   -3918.8497    3068.2423    12874.657   -1311.9517    8299.0437    308.53494    15421 
312000000   -3953.3685    3075.7751    13008.795   -1167.1295    8196.2731     311.7495    15405 
313000000   -4003.5115    3102.0694    13070.599   -1196.3488    8301.9298    313.23058    15406 
314000000   -3945.8234    3082.9402    12921.729   -1272.0808    8300.8444    309.66299    15392 
315000000   -3935.2097    3065.6059    13081.295   -1254.0466    8254.8621    313.48691    15421 
316000000    -3948.653     3050.859    12878.179    -1299.043    8298.5551    308.61933    15434 
317000000   -4145.6521    2819.5754    12737.529   -1302.1278    8267.3553    305.24872    15408 
318000000   -3989.5679    2875.7822    12939.458   -1355.7415    8221.0916    310.08786    15434 
319000000   -4000.1168         3062    12925.919   -1172.4738    8234.5906     309.7634    15408 
320000000   -3962.3475     2842.079    12816.459   -1325.7514    8130.1779    307.14026    15402 
321000000   -3981.6153    2955.9841     12779.75   -1301.0217     8238.621    306.26054    15439 
322000000   -4133.7518    2737.9043    12864.769   -1377.6615    8249.3176    308.29797    15426 
323000000   -3993.5295    3034.7657    12769.936    -1208.815    8237.1102    306.02535    15405 
324000000   -4062.6318    2952.6899    12928.452   -1272.5231    8287.8448     309.8241    15426 
325000000   -3926.4581    3055.8396    13027.455    -1316.778    8299.0756    312.19667    15430 
326000000   -3894.8633    3178.5613    12851.341   -1168.2487    8241.6732    307.97619    15394 
327000000   -3928.5039    3089.1187    12999.447    -1275.633    8293.2556    311.52546    15407 
328000000   -3951.3107    3079.6497    13046.762   -1257.8933    8288.8537    312.65936    15427 
329000000   -3982.0628    2924.2591    12906.655   -1326.9129    8233.2347    309.30175    15428 
330000000   -3930.4413    3140.7113    12908.733   -1225.1226    8296.2752    309.35156    15406 
331000000   -3934.0149    3063.2707    12894.274   -1258.9946    8256.2802    309.00505    15422 
332000000   -3976.7233    3157.1832    12959.652   -1220.5647    8354.4712    310.57181    15393 
333000000   -4000.1555    2850.5558    12881.604   -1299.9234    8150.6347    308.70142    15422 
334000000   -4005.0712     2862.803    12904.644   -1311.7603    8179.6345    309.25357    15425 
335000000   -3938.9062    3069.3141    12856.278   -1276.9731    8285.1933    308.09449    15414 
336000000   -3931.3425     3234.445    12902.784   -1180.1021    8345.8896    309.20899    15396 
337000000   -3968.4669    2992.9974    13032.252   -1288.5949    8250.0591    312.31162    15403 
338000000   -4036.4585    3087.6631    12952.377   -1203.4647    8327.5863    310.39746    15409 
339000000   -3980.8051    3076.2486    13061.409   -1211.2628    8268.3165    313.01035    15407 
340000000   -4000.0383    2939.6756    12962.837   -1238.3007    8178.0145    310.64813    15403 
341000000   -3961.2407     3112.154    12960.325   -1240.7777    8314.1723    310.58794    15400 
342000000    -4045.151    2883.3308    12955.794   -1345.0885    8273.5703    310.47934    15431 
343000000   -3982.6174    2993.7778    12887.474   -1244.0177    8220.4129    308.84208    15410 
344000000   -4036.6579    2907.0909    12972.157    -1225.972    8169.7208    310.87148    15409 
345000000   -4024.6199    2962.5211     12889.66   -1249.5339    8236.6749    308.89448    15409 
346000000   -3985.4532    3065.7157    12790.368   -1258.2413    8309.4102    306.51499    15426 
347000000   -4086.9776    3103.4555    12909.013    -1168.132    8358.5651    309.35826    15414 
348000000   -4076.1358    2970.4115    12968.235   -1329.5442    8376.0915     310.7775    15413 
349000000   -3964.8583    3083.0914    13012.705   -1268.1977    8316.1474     311.8432    15413 
350000000   -4114.6495    2891.0328    12963.179    -1288.711    8294.3934    310.65633    15430 
351000000   -3982.4788    2960.5825    13169.996   -1231.4504    8174.5117    315.61259    15407 
352000000    -4042.458    2925.4244    12934.891   -1243.0982    8210.9807    309.97841    15415 
353000000   -4064.2588    2934.3832    13005.342   -1274.8588    8273.5008    311.66675    15406 
354000000   -3912.3614    3191.1229    12880.329   -1150.9442    8254.4285    308.67086    15388 
355000000   -4041.4675    3068.4041    12898.824   -1207.8307    8317.7023    309.11408    15417 
356000000   -3976.7663    2901.6111     12941.64   -1332.5728    8210.9502    310.14015    15425 
357000000   -3850.2318    3155.8073    13098.401   -1279.5866    8285.6258    313.89687    15413 
358000000   -3960.4453    3151.8056     12918.11    -1237.826    8350.0768    309.57627    15410 
359000000   -3948.9387    3020.6294    12869.279   -1288.7395    8258.3076    308.40607    15410 
360000000   -3970.6463    3175.7169    12853.924   -1251.2914    8397.6546    308.03808    15409 
361000000   -4020.5228    2961.3351    13039.712   -1337.9739    8319.8318    312.49041    15423 
362000000   -3948.6813    3117.2753    13052.403   -1233.5388    8299.4954    312.79454    15405 
363000000   -3860.6205    3198.2694    13182.486   -1299.7369    8358.6268    315.91191    15431 
364000000   -4077.0177    2895.0785    13143.115   -1306.7456    8278.8418     314.9684    15430 
365000000    -4049.045    2918.9325    12792.699   -1305.0227    8273.0002    306.57085    15444 
366000000   -4140.9169    2998.5419    12888.036   -1195.3708    8334.8296    308.85555    15409 
367000000   -3985.8578    3027.3591    12859.535   -1263.5172    8276.7341    308.17254    15423 
368000000   -3967.5723    3184.8847    12855.618      -1153.8     8306.257    308.07868    15398 
369000000   -4059.8436    2824.7336    12984.649   -1319.8026    8204.3798    311.17083    15422 
370000000   -3987.5162    2944.7972    12983.212   -1285.2308    8217.5442    311.13641    15416 
371000000   -3981.8444    2843.1177    12914.159   -1373.4409     8198.403    309.48159    15416 
372000000   -3954.0007    3159.3332    12902.343   -1135.5078    8248.8417    309.19842    15401 
373000000   -4015.0012    3077.9664    12819.368   -1233.6027    8326.5703    307.20996    15421 
374000000   -4028.3366    2978.0991    12902.076   -1224.9634     8231.399    309.19202    15406 
375000000    -3931.274    3176.8095    12929.616   -1163.3902    8271.4737      309.852    15385 
376000000   -3922.3394    3019.1525    12966.117   -1253.0034    8194.4953    310.72672    15418 
377000000   -3981.7602    2986.8881    12912.405   -1239.3127    8207.9611    309.43955    15398 
378000000   -4008.6248    3194.0418    13062.233   -1192.2422    8394.9088     313.0301    15418 
379000000   -3928.6523    3033.2387    12930.186   -1308.8652    8270.7562    309.86566    15419 
380000000   -4026.6392    3017.1549    12972.594   -1260.4853    8304.2794    310.88195    15416 
381000000   -3979.1959    2971.0555    12960.331   -1281.9349    8232.1863    310.58807    15437 
382000000   -3963.7573    3191.8781    12956.178   -1263.4286     8419.064    310.48856    15413 
383000000   -3938.4645    3308.3244     12847.96   -1123.6568    8370.4457    307.89515    15402 
384000000   -3898.3509    3189.5115    12978.275   -1168.9071    8256.7696     311.0181    15404 
385000000   -3952.3057    3178.1983     12899.32   -1186.9702    8317.4741    309.12597    15400 
386000000   -3881.6769    2997.3026    12859.847   -1227.9725     8106.952    308.18002    15398 
387000000   -3892.1381     3198.243    12931.769   -1133.1513    8223.5324     309.9036    15400 
388000000   -3957.1418    2945.8667    12949.953    -1295.464    8198.4726    310.33938    15412 
389000000   -4052.9335    3020.0935    13007.727   -1240.1201    8313.1471    311.72389    15435 
390000000   -3937.9949    3080.0568    12919.258   -1202.9828    8221.0345    309.60377    15418 
391000000   -3964.5541    3028.4108    12883.554   -1278.9373    8271.9022    308.74815    15417 
392000000   -4007.8709    2978.7786    12803.117    -1348.555    8335.2045    306.82051    15437 
393000000   -3897.0165    3145.4272    13006.951   -1268.2808    8310.7246    311.70531    15425 
394000000   -4034.3682    2848.5048    13027.026   -1396.5428    8279.4158    312.18639    15445 
395000000   -4026.0783     3012.837     12850.99   -1237.5941    8276.5094    307.96778    15419 
396000000   -4034.1164    2746.0304    12946.699   -1475.1343     8255.281     310.2614    15447 
397000000   -4004.4231    3004.6682    13079.313   -1277.9293    8287.0206    313.43942    15420 
398000000   -3917.2391    3233.6733     12948.49   -1100.8348    8251.7473    310.30432    15385 
399000000   -4028.1164    2858.8376    12796.112   -1391.3493    8278.3033    306.65264    15436 
400000000   -4050.4308    3094.9154    13023.028   -1211.0453    8356.3915    312.09057    15419 
401000000   -3937.7424    2980.9378     12828.26   -1313.1983    8231.8785    307.42306    15416 
402000000   -4074.5881    2954.1267    12904.855   -1202.8901    8231.6049    309.25861    15408 
403000000   -3987.6428     3134.399    13084.347   -1176.6386    8298.6804    313.56005    15402 
404000000   -3842.2431    3050.1797    12891.557   -1290.6273    8183.0501    308.93993    15419 
405000000   -4061.5602    2994.9745    12922.712   -1181.4543    8237.9891    309.68655    15402 
406000000   -4000.1224    3057.9805    12953.887   -1243.7382    8301.8411    310.43365    15433 
407000000   -4026.4164    3040.4168    12918.893   -1210.2115    8277.0447    309.59503    15400 
408000000   -3921.7137    3069.0505    13003.539   -1343.8681    8334.6323    311.62353    15439 
409000000   -3916.1876    3121.2582    12709.986   -1235.9485    8273.3943    304.58869    15416 
410000000    -3954.051    3077.0124    12944.192   -1175.9781    8207.0414    310.20132    15388 
411000000   -4041.3658    2880.0267    12916.804   -1173.7696    8095.1621    309.54498    15407 
412000000   -4038.9857    2961.1066    12971.911   -1296.2715    8296.3639    310.86559    15421 
413000000   -3990.1595    3005.0237    13059.606   -1304.9338     8300.117    312.96715    15414 
414000000   -3934.3598    3230.0448    13049.973   -1243.0075    8407.4121    312.73631    15401 
415000000    -3963.535    3021.3021    12889.305   -1254.5609     8239.398    308.88597    15436 
416000000    -3908.036    3158.9411    12858.832   -1202.3021    8269.2793    308.15571    15417 
417000000   -4005.2006    3063.4078    13006.035   -1183.2771    8251.8855    311.68336    15395 
418000000   -3960.8813    3078.6675    13018.166   -1266.8584    8306.4072    311.97406    15410 
419000000   -4069.3168    2947.4649    13109.187   -1283.7286    8300.5103    314.15535    15422 
420000000   -4023.1921     2877.605    12934.335   -1235.2977    8136.0948     309.9651    15410 
421000000    -4022.556    2900.3109    13097.296   -1323.6813    8246.5481    313.87038    15426 
422000000   -3993.7136    2943.2387    12909.829   -1116.3667    8053.3191    309.37782    15409 
423000000   -3991.8663    2874.4698    12891.174   -1341.9627    8208.2988    308.93076    15422 
424000000   -4029.4744    2953.5303    12935.671   -1278.7523     8261.757    309.99712    15424 
425000000   -4020.3809    3051.7063    13115.897   -1151.7116    8223.7989    314.31615    15410 
426000000   -3965.1913    2816.5915    12876.342   -1417.3627    8199.1454    308.57533    15428 
427000000   -3965.3787    2899.6446    12984.191    -1334.144    8199.1673    311.15987    15434 
428000000   -3909.0912    3004.0087    12942.753   -1332.1383    8245.2382    310.16683    15408 
429000000   -4077.9459     2946.126    12889.578    -1348.954    8373.0259    308.89251    15433 
430000000   -4009.3706    2806.1665    12832.906   -1295.4866    8111.0236     307.5344    15410 
431000000   -4001.8537    3076.3856    13110.625   -1193.9066    8272.1459    314.18981    15381 
432000000   -4035.4064    2963.2709    12829.778   -1360.6359    8359.3132    307.45943    15432 
433000000    -3927.335    3030.1138    13108.919   -1224.8271    8182.2759    314.14892    15396 
434000000   -4063.4729    2911.7017    12823.412   -1261.1855    8236.3601    307.30687    15399 
435000000   -3926.6176     3122.019     12977.59   -1222.8905    8271.5271    311.00168    15403 
436000000   -3901.9912    3177.0521    13070.328   -1200.4327    8279.4759    313.22411    15414 
437000000   -3848.5015    3329.1876    12858.046   -1166.5499     8344.239    308.13686    15396 
438000000   -3951.7361     3068.969    12849.148   -1245.6736    8266.3787    307.92362    15399 
439000000   -3981.2327    3054.3759    12750.549   -1253.8817    8289.4903    305.56075    15424 
440000000   -4039.7963    2970.5916    12901.302   -1297.0838    8307.4716    309.17347    15419 
441000000   -3964.4054    3018.5411     12897.99   -1241.8012    8224.7477    309.09409    15408 
442000000   -3937.6982    3005.5169    13078.795   -1264.3668     8207.582      313.427    15394 
443000000   -4071.0141    2939.7477    12901.385   -1236.8239    8247.5857    309.17547    15411 
444000000   -3981.2363    3004.7894    13006.669   -1282.4299    8268.4555    311.69855    15418 
445000000   -4176.3937    3054.1276    12960.907    -1193.425    8423.9463    310.60189    15408 
446000000   -3970.1099    2973.3052    13044.931   -1275.7771    8219.1922    312.61548    15412 
447000000   -4086.8403    2884.0805    12989.067   -1366.5077    8337.4285    311.27671    15429 
448000000   -4035.6285    2814.3782    12974.627   -1352.4648    8202.4715    310.93066    15418 
449000000   -3881.8033    2988.0232    12922.444   -1151.9281    8021.7546    309.68014    15393 
450000000   -4063.9444    2730.6755    12909.313   -1432.3877    8227.0076    309.36544    15439 
451000000   -4031.4933     2815.208    12769.326   -1358.1831    8204.8845    306.01074    15423 
452000000   -3948.3937     2933.574    12986.643   -1222.0058    8103.9735    311.21863    15423 
453000000   -3933.6457    3031.1813    13014.155    -1184.444     8149.271    311.87794    15401 
454000000   -3952.2157    3225.0359    12997.959   -1155.8644     8333.116    311.48982    15412 
455000000   -4030.5899    2851.2412    12889.996   -1302.6279     8184.459    308.90253    15412 
456000000   -4015.8145    2945.6956    12772.398   -1370.6366    8332.1466    306.08435    15441 
457000000   -3963.4945      2974.04    12992.546     -1244.53    8182.0645    311.36009    15431 
458000000   -3993.5177    3070.3674    12951.886    -1230.466    8294.3511     310.3857    15418 
459000000   -3973.2317    3111.5591    12795.592   -1250.2199    8335.0107    306.64017    15415 
460000000   -4049.2016    2942.4442     13010.36    -1257.283    8248.9288    311.78699    15416 
461000000   -4023.4853    3096.0609     13024.37   -1274.1884    8393.7346    312.12273    15441 
462000000   -3948.8534    3016.6997    12904.512   -1318.4498    8284.0029    309.25039    15418 
463000000   -3912.5997    3061.3066    12972.821   -1274.8639    8248.7702    310.88739    15420 
464000000   -3895.4713    3138.0878    12865.405   -1204.5894    8238.1484    308.31323    15423 
465000000   -4032.5101    2826.1402    12794.858   -1356.8415    8215.4919     306.6226    15412 
466000000   -3947.4816    3006.8406    12867.852   -1241.0052    8195.3275    308.37185    15410 
467000000   -4026.0461    2886.2501    13009.547   -1377.5277    8289.8238    311.76752    15412 
468000000    -3964.933    3022.0171    12935.273   -1356.9426    8343.8927    309.98757    15433 
469000000   -3960.8457     2965.557    13080.518   -1263.6941    8190.0968    313.46831    15411 
470000000   -4021.2671    2761.2279    12878.598   -1355.4677    8137.9627    308.62939    15424 
471000000    -4001.825    3045.8158    12883.957   -1252.9887    8300.6295    308.75781    15412 
472000000   -4012.7818     2977.108    12964.085   -1269.4328    8259.3226    310.67803    15432 
473000000   -4005.8319    2885.1758    13030.622   -1324.9863     8215.994    312.27257    15422 
474000000   -3994.1256    3041.0698    13033.689   -1294.6317    8329.8271    312.34607    15413 
475000000   -4093.6438    2697.4088    12994.216   -1375.0218    8166.0744    311.40011    15432 
476000000   -3988.4177    2908.3879    12797.899   -1257.0143      8153.82    306.69548    15425 
477000000   -4031.8456    2850.6678     12904.73   -1260.9018    8143.4151    309.25562    15404 
478000000   -4043.0345    2701.7221    12998.138   -1378.5693    8123.3258     311.4941    15433 
479000000   -3938.0753    2831.3416    12854.596   -1328.6936    8098.1106    308.05418    15416 
480000000   -3965.4589    2985.9367    12875.811   -1270.5144    8221.9099     308.5626    15414 
481000000   -4001.3894     3144.424    12959.721   -1231.5455    8377.3589    310.57345    15425 
482000000   -4076.6153    2868.1255    12687.573   -1270.4764    8215.2172    304.05157    15424 
483000000   -4008.0082    3119.2147    12969.539   -1206.5361     8333.759    310.80873    15410 
484000000   -3872.0274    3346.8217    12945.976   -1125.6773    8344.5264    310.24407    15395 
485000000   -3906.1934    2964.0516    13030.079   -1287.0186    8157.2635    312.25956    15409 
486000000   -3923.8384    3164.2733    13040.567   -1141.7552    8229.8668    312.51088    15390 
487000000   -3939.6568     3139.871    12899.758   -1242.4669    8321.9947    309.13647    15402 
488000000   -4033.0102    3005.7236    13095.826   -1248.3076    8287.0414    313.83516    15394 
489000000   -3968.0639    3026.2672    13175.647   -1213.4707    8207.8018    315.74802    15415 
490000000   -3915.1358    3162.2958    12952.593   -1125.3553    8202.7869    310.40264    15408 
491000000   -3925.4113    3125.3746     12943.74   -1199.7671    8250.5529    310.19048    15393 
492000000   -3968.1429    3008.2996    13039.335   -1256.8332    8233.2758    312.48137    15408 
493000000   -4052.2099    2874.9926    12828.194   -1293.4027    8220.6052    307.42147    15430 
494000000    -3988.479     2977.836    12778.394   -1269.7529    8236.0679    306.22805    15412 
495000000   -4050.9777     2798.761    12976.082    -1278.377    8128.1157    310.96555    15433 
496000000   -4048.9722    2832.3639    13054.894    -1274.354    8155.6902    312.85423    15416 
497000000   -4103.1163    2883.1846    12757.418   -1307.7988    8294.0997    305.72536    15424 
498000000    -4017.783    3086.6283    12756.127   -1198.8559    8303.2671    305.69442    15400 
499000000   -4026.9168     2899.593    12804.607   -1277.7337    8204.2434    306.85622    15415 
500000000   -4073.9403    3027.1823    12800.115   -1273.0851    8374.2078    306.74858    15433 
Loop time of 193547 on 28 procs for 500000000 steps with 14000 atoms

Performance: 5580.054 ns/day, 0.004 hours/ns, 2583.358 timesteps/s
99.5% CPU use with 28 MPI tasks x no OpenMP threads

MPI task timing breakdown:
Section |  min time  |  avg time  |  max time  |%varavg| %total
---------------------------------------------------------------
Pair    | 26414      | 30878      | 35656      |1243.7 | 15.95
Bond    | 6179.2     | 6916.1     | 10704      |1539.4 |  3.57
Neigh   | 69568      | 70274      | 71327      | 175.6 | 36.31
Comm    | 41880      | 51578      | 58318      |1439.6 | 26.65
Output  | 0.63957    | 0.69539    | 0.69866    |   1.3 |  0.00
Modify  | 25187      | 25578      | 25931      | 170.0 | 13.22
Other   |            | 8322       |            |       |  4.30

Nlocal:    500 ave 533 max 450 min
Histogram: 1 0 0 2 3 9 4 7 0 2
Nghost:    806.821 ave 1169 max 468 min
Histogram: 1 4 2 3 6 4 2 2 3 1
Neighs:    7330.61 ave 8812 max 5976 min
Histogram: 4 3 2 1 1 6 4 4 2 1

Total # of neighbors = 205257
Ave neighs/atom = 14.6612
Ave special neighs/atom = 8.83914
Neighbor list builds = 99880259
Dangerous builds = 0
System init for write_restart ...
Total wall time: 53:45:50
