LAMMPS (5 Jun 2019)
Reading data file ...
  orthogonal box = (-420 -420 -420) to (420 420 420)
  2 by 2 by 7 MPI processor grid
  reading atoms ...
  14000 atoms
  scanning bonds ...
  51 = max bonds/atom
  scanning angles ...
  1 = max angles/atom
  reading bonds ...
  13800 bonds
  reading angles ...
  13600 angles
Finding 1-2 1-3 1-4 neighbors ...
  special bond factors lj:   0          0          0         
  special bond factors coul: 0          0          0         
  2 = max # of 1-2 neighbors
  2 = max # of 1-3 neighbors
  4 = max # of 1-4 neighbors
  56 = max # of special neighbors
  special bonds CPU = 0.74491 secs
  read_data CPU = 0.899688 secs
Finding 1-2 1-3 1-4 neighbors ...
  special bond factors lj:   1          1          1         
  special bond factors coul: 0          0          0         
  2 = max # of 1-2 neighbors
  2 = max # of 1-3 neighbors
  4 = max # of 1-4 neighbors
  56 = max # of special neighbors
  special bonds CPU = 0.000580052 secs
WARNING: Using 'neigh_modify every 1 delay 0 check yes' setting during minimization (../min.cpp:168)
Neighbor list info ...
  update every 1 steps, delay 0 steps, check yes
  max neighbors/atom: 2000, page size: 100000
  master list distance cutoff = 26.9
  ghost atom cutoff = 26.9
  binsize = 13.45, bins = 63 63 63
  1 neighbor lists, perpetual/occasional/extra = 1 0 0
  (1) pair lj/cut, perpetual
      attributes: half, newton on
      pair build: half/bin/newton
      stencil: half/bin/3d/newton
      bin: standard
Setting up cg style minimization ...
  Unit style    : real
  Current step  : 0
Per MPI rank memory allocation (min/avg/max) = 1.164 | 13.81 | 17.68 Mbytes
Step Temp E_pair E_mol TotEng Press 
       0            0 2.4262116e+12      2649600 2.4262142e+12 1.1227655e+09 
    7035            0   -6144.0854    5742.4468   -401.63854  -0.02117856 
Loop time of 2.7082 on 28 procs for 7035 steps with 14000 atoms

99.5% CPU use with 28 MPI tasks x no OpenMP threads

Minimization stats:
  Stopping criterion = energy tolerance
  Energy initial, next-to-last, final = 
     2.42621421633e+12     -401.614938723     -401.638544729
  Force two-norm initial, final = 2.10957e+10 0.584999
  Force max component initial, final = 1.04817e+09 0.0848794
  Final line search alpha, max atom move = 0.948135 0.0804771
  Iterations, force evaluations = 7035 9919

MPI task timing breakdown:
Section |  min time  |  avg time  |  max time  |%varavg| %total
---------------------------------------------------------------
Pair    | 0.17005    | 0.54818    | 1.015      |  33.5 | 20.24
Bond    | 0.049193   | 0.13617    | 0.23054    |  13.0 |  5.03
Neigh   | 0.28616    | 0.2906     | 0.29625    |   0.4 | 10.73
Comm    | 0.44072    | 0.92145    | 1.4092     |  28.8 | 34.02
Output  | 0          | 0          | 0          |   0.0 |  0.00
Modify  | 0          | 0          | 0          |   0.0 |  0.00
Other   |            | 0.8118     |            |       | 29.98

Nlocal:    500 ave 824 max 176 min
Histogram: 2 2 4 3 3 2 5 4 0 3
Nghost:    338.464 ave 536 max 168 min
Histogram: 3 4 2 2 3 6 2 2 2 2
Neighs:    5465.89 ave 9884 max 1749 min
Histogram: 2 7 2 3 1 3 2 3 3 2

Total # of neighbors = 153045
Ave neighs/atom = 10.9318
Ave special neighs/atom = 5.82857
Neighbor list builds = 571
Dangerous builds = 0
Setting up Verlet run ...
  Unit style    : real
  Current step  : 7035
  Time step     : 0.1
Per MPI rank memory allocation (min/avg/max) = 1.128 | 14 | 16.55 Mbytes
Step Temp E_pair E_mol TotEng Press 
    7035            0   -6144.0854    5742.4468   -401.63854  -0.02117856 
   17035    213.94641    -4857.433    9471.1543    13541.354    -1.079886 
Loop time of 1.84432 on 28 procs for 10000 steps with 14000 atoms

Performance: 46.846 ns/day, 0.512 hours/ns, 5422.041 timesteps/s
99.5% CPU use with 28 MPI tasks x no OpenMP threads

MPI task timing breakdown:
Section |  min time  |  avg time  |  max time  |%varavg| %total
---------------------------------------------------------------
Pair    | 0.092854   | 0.33696    | 0.69373    |  30.7 | 18.27
Bond    | 0.040826   | 0.11483    | 0.19161    |  12.2 |  6.23
Neigh   | 0.002287   | 0.002344   | 0.0024336  |   0.1 |  0.13
Comm    | 0.41123    | 0.79046    | 1.1225     |  22.7 | 42.86
Output  | 8.8715e-05 | 0.00011469 | 0.00015042 |   0.0 |  0.01
Modify  | 0.095616   | 0.26717    | 0.44713    |  18.2 | 14.49
Other   |            | 0.3324     |            |       | 18.03

Nlocal:    500 ave 825 max 175 min
Histogram: 2 2 4 3 3 2 4 5 0 3
Nghost:    339.214 ave 536 max 164 min
Histogram: 3 3 2 2 3 7 2 2 2 2
Neighs:    5461.21 ave 9875 max 1753 min
Histogram: 2 6 3 3 2 3 1 3 3 2

Total # of neighbors = 152914
Ave neighs/atom = 10.9224
Ave special neighs/atom = 5.82857
Neighbor list builds = 4
Dangerous builds = 0
4000 atoms in group rxnSites
Neighbor list info ...
  update every 1 steps, delay 1 steps, check yes
  max neighbors/atom: 2000, page size: 100000
  master list distance cutoff = 26.9
  ghost atom cutoff = 26.9
  binsize = 13.45, bins = 63 63 63
  2 neighbor lists, perpetual/occasional/extra = 1 1 0
  (1) pair lj/cut, perpetual
      attributes: half, newton on
      pair build: half/bin/newton
      stencil: half/bin/3d/newton
      bin: standard
  (2) fix bond/create/random, occasional, copy from (1)
      attributes: half, newton on
      pair build: copy
      stencil: none
      bin: none
Setting up Verlet run ...
  Unit style    : real
  Current step  : 0
  Time step     : 25
Per MPI rank memory allocation (min/avg/max) = 17.88 | 18.28 | 18.78 Mbytes
Step E_pair PotEng KinEng E_bond E_angle Temp Bonds 
       0    -4857.433    4613.7213    8927.6327    3126.8318    6344.3225    213.94641    13800 
 1000000   -2148.3114    6721.4993    12904.458    309.94553    8559.8651     309.2491    14934 
 2000000   -2336.1812    6107.2688    12786.204   -84.084413    8527.5344    306.41521    15070 
 3000000   -2509.6747    5680.0505    13058.973   -351.53269    8541.2579    312.95199    15135 
 4000000   -2674.7738    5433.9854    12952.623   -434.51924    8543.2784    310.40336    15180 
 5000000   -2710.9177    5249.2608    12909.042   -576.42863    8536.6071    309.35897    15185 
 6000000   -2891.9119    4912.7889    12917.351   -670.19506    8474.8959    309.55809    15232 
 7000000   -2944.9515    4868.7495    12936.188   -650.30223    8464.0032    310.00951    15240 
 8000000   -3039.7414    4811.0002    12897.943   -714.70113    8565.4427    309.09299    15246 
 9000000   -2979.7537    4794.3318     12838.36   -666.08486    8440.1704    307.66511    15249 
10000000   -3196.0412    4417.7224    12873.273   -877.06547    8490.8291    308.50178    15286 
11000000   -3174.9776    4321.9406     12970.02   -870.36618    8367.2844    310.82028    15285 
12000000   -3230.3662     4325.068    12861.124   -939.41302    8494.8472    308.21062    15304 
13000000   -3353.9074    4221.7657    13031.372   -954.43627    8530.1093    312.29054    15313 
14000000   -3278.5932    4343.2952    12705.945   -860.21588    8482.1043    304.49183    15308 
15000000    -3410.148    3993.6697    12907.266   -992.62565    8396.4434     309.3164    15319 
16000000   -3374.8018    4177.3999    12863.467   -937.95599    8490.1577    308.26679    15316 
17000000   -3500.5683    3943.4989    12858.322   -1070.6927      8514.76    308.14348    15343 
18000000    -3439.809    3930.6376    13104.602   -970.53322    8340.9798    314.04546    15325 
19000000   -3412.7787    4024.8235    12844.558   -987.67628    8425.2785    307.81363    15342 
20000000   -3503.2734    3912.9475      12867.4   -999.18241    8415.4033    308.36102    15342 
21000000   -3465.4442     3862.224     12958.05   -1073.4228     8401.091    310.53341    15349 
22000000   -3566.1699    3615.1084    13032.838   -1140.2718    8321.5501    312.32567    15378 
23000000   -3510.2179    3865.1283    12904.891   -1016.6686    8392.0149    309.25948    15334 
24000000   -3593.8568    3681.0658     13024.67   -1054.2069    8329.1295    312.12993    15351 
25000000   -3511.2328    3932.8139    12980.956   -992.19299    8436.2397    311.08235    15352 
26000000   -3628.2897     3535.901    13178.322   -1104.2731    8268.4638    315.81213    15382 
27000000   -3623.8888    3644.1979    12928.048   -1105.9636    8374.0503    309.81443    15374 
28000000   -3620.7235    3614.2939    13023.018   -1075.3611    8310.3784    312.09033    15347 
29000000   -3577.7808    3798.6916    12924.407   -973.05709    8349.5295    309.72716    15325 
30000000   -3565.1578    3701.3393    12918.013   -1053.4233    8319.9204    309.57395    15360 
31000000   -3614.6169    3598.4084    12917.306    -1066.592    8279.6172    309.55701    15356 
32000000   -3610.8009    3707.9711    12895.988   -1021.1509    8339.9229    309.04613    15367 
33000000    -3568.411    3750.9486    12931.661   -1042.4035    8361.7631    309.90101    15384 
34000000   -3650.3279    3464.3219    12842.199   -1134.9905    8249.6404     307.7571    15374 
35000000   -3594.8332    3645.1112    12965.688   -1045.7586     8285.703    310.71646    15326 
36000000   -3716.8184    3577.5161    12790.966   -1100.4871    8394.8216    306.52934    15362 
37000000   -3633.4996    3657.4911    13117.109   -1060.9787    8351.9693    314.34519    15371 
38000000   -3707.4654    3513.7221    12948.553   -1107.4862    8328.6737    310.30582    15363 
39000000   -3744.5022    3593.3276    12949.275   -1063.7911    8401.6209    310.32313    15370 
40000000   -3738.9064    3495.1338    12854.163    -1093.723    8327.7633    308.04382    15361 
41000000   -3623.9264    3646.6841    12864.754    -1121.792    8392.4026    308.29763    15360 
42000000   -3741.5237     3368.641    12821.995   -1241.7741    8351.9388    307.27293    15391 
43000000   -3703.9497    3372.0877    12842.339   -1266.0924    8342.1298    307.76045    15385 
44000000   -3776.3183     3639.546    12816.631   -976.56336    8392.4277    307.14437    15366 
45000000   -3752.5797    3364.6749    12766.363   -1229.0626    8346.3172    305.93973    15385 
46000000   -3777.8816    3588.7183    12975.868   -954.24023    8320.8401     310.9604    15358 
47000000   -3701.6394    3611.5179    12931.626    -1097.245    8410.4023    309.90018    15373 
48000000   -3818.9439    3300.4714    12921.465   -1172.3352    8291.7505    309.65666    15383 
49000000   -3741.9328    3323.2322    12929.017   -1225.0913    8290.2562    309.83766    15400 
50000000   -3861.2876    3208.4405    13064.896   -1224.8402    8294.5683    313.09393    15392 
51000000   -3867.6469    3214.7591    12907.477     -1164.73     8247.136    309.32146    15377 
52000000   -3774.8902    3432.1719    12933.614   -1003.8174    8210.8795    309.94783    15364 
53000000    -3846.297    3186.8329    13020.903   -1248.9932    8282.1231    312.03966    15386 
54000000   -3984.1585    3150.7718    12874.902   -1265.6633    8400.5936     308.5408    15414 
55000000   -3792.9649    3344.9721    12924.965   -1214.6297    8352.5668    309.74054    15380 
56000000   -3778.6646    3512.0198    13007.109   -1018.4944    8309.1789    311.70908    15379 
57000000    -3721.518    3394.6161    12999.287   -1174.6012    8290.7353    311.52164    15376 
58000000   -3865.2663    3291.6881    12907.825   -1132.4673    8289.4217    309.32981    15382 
59000000   -3823.6584    3275.1448    12824.355   -1263.4943    8362.2974    307.32947    15389 
60000000   -3740.7114    3479.9148     12903.14   -1112.6457    8333.2719    309.21753    15356 
61000000   -3817.4175    3435.7595    12941.417   -1147.1874    8400.3644    310.13482    15396 
62000000   -3952.5887    3263.7658    12877.714   -1096.6906    8313.0451     308.6082    15387 
63000000   -3835.4385    3342.0581    12953.653   -1138.8524    8316.3491    310.42803    15395 
64000000    -3739.056    3336.9803    12866.721   -1196.5303    8272.5666    308.34475    15375 
65000000   -3834.3517    3389.4188    12916.025   -1216.8726     8440.643     309.5263    15392 
66000000   -3805.1376     3414.973    13023.242   -1133.3327    8353.4433    312.09572    15365 
67000000   -3777.1189    3464.4458    12980.726    -1193.935    8435.4997    311.07682    15405 
68000000   -3738.8826    3317.9118    12973.716   -1184.6986    8241.4931    310.90884    15377 
69000000   -3788.5237     3285.895    12977.864   -1189.6825    8264.1012    311.00825    15407 
70000000   -3826.6147    3381.0471     12913.13   -1161.3336    8368.9954    309.45692    15377 
71000000    -3937.042    3246.4035    12946.739    -1207.142    8390.5875    310.26234    15405 
72000000   -3894.0713    3279.2038    12822.899   -1156.2743    8329.5494    307.29459    15402 
73000000   -3809.1785    3347.3983    12876.712    -1144.505    8301.0818    308.58418    15395 
74000000   -3850.5301    3384.8959    12770.502   -1149.4618    8384.8878    306.03891    15392 
75000000   -3863.2351    3300.7464    12976.436   -1201.6023    8365.5839    310.97403    15405 
76000000   -3871.2064    3293.8209    13012.184   -1101.0573    8266.0846     311.8307    15379 
77000000   -3922.9102    3339.5751    12806.296   -1163.2004    8425.6857    306.89671    15393 
78000000   -3889.8537    3377.9606    12760.722   -1130.9353    8398.7495    305.80455    15376 
79000000   -3779.3725    3355.0725    12830.107   -1185.2248    8319.6697    307.46731    15382 
80000000   -3807.9729     3281.263    12930.202   -1159.3579    8248.5939    309.86604    15381 
81000000   -3901.8307    3122.0143    12935.333   -1245.4208    8269.2658    309.98902    15409 
82000000   -3923.9667    3330.0532    12919.473   -1065.5027    8319.5227    309.60893    15378 
83000000   -3886.6231    3257.8909    12999.885   -1171.7882    8316.3022    311.53598    15388 
84000000   -3861.6022    3287.8027    12934.841   -1115.1192    8264.5241    309.97721    15387 
85000000   -3903.3497    3384.0086    12931.574   -1044.8226    8332.1809    309.89894    15395 
86000000   -3796.2126    3316.9301    13024.153   -1177.4983     8290.641    312.11754    15387 
87000000   -3838.5554     3142.388     12753.08   -1195.8124    8176.7558    305.62141    15401 
88000000   -3812.9588    3329.5931    13022.042   -1119.3076    8261.8595    312.06694    15394 
89000000    -3894.038    3163.0837     13017.39   -1109.2467    8166.3684    311.95548    15359 
90000000   -3881.4458    3273.5967    13079.608   -1067.0428    8222.0853    313.44649    15386 
91000000    -3855.692    3293.1681    12952.145   -1144.7298    8293.5899     310.3919    15386 
92000000   -3948.2805    2906.3248    12933.602   -1327.1459    8181.7512    309.94753    15435 
93000000   -3921.5003    3156.6528    13012.354   -1147.5761    8225.7292    311.83478    15386 
94000000   -3945.5005    3053.8082    12906.565   -1239.7656    8239.0743    309.29961    15393 
95000000   -3908.3062    3249.4332    13015.056   -1199.8465    8357.5859    311.89953    15385 
96000000   -3922.9476    3042.7729    12876.062   -1281.1006    8246.8211     308.5686    15416 
97000000   -3814.1136    3241.8971    12930.494   -1171.4696    8227.4803    309.87304    15380 
98000000   -3834.0353    3270.4049     13198.84   -1191.2165    8295.6566    316.30384    15394 
99000000   -3974.4514    3025.4735    12942.476   -1329.1298    8329.0548    310.16019    15427 
100000000   -3955.4663    3166.6964    12925.779   -1126.1534    8248.3161    309.76005    15395 
101000000   -3946.7238    3163.4596     12677.28    -1184.284    8294.4674     303.8049    15398 
102000000   -3957.8656    3082.7742    12844.222   -1201.6561    8242.2959    307.80558    15411 
103000000    -4072.981    2976.1893    13009.524   -1256.0805    8305.2509    311.76697    15431 
104000000   -3967.9159    2954.5369    12896.567   -1281.0752    8203.5279    309.05999    15407 
105000000   -3976.8231    2880.2258     12828.52   -1338.8365    8195.8854    307.42929    15409 
106000000   -3937.7143    3099.7719    12804.735   -1197.2663    8234.7524    306.85929    15389 
107000000   -3974.8459    3000.0647    12901.913   -1265.9433    8240.8538    309.18811    15413 
108000000   -3992.7071    3069.6818    13020.083   -1259.7905    8322.1794    312.02001    15412 
109000000   -4066.2035    2972.8543     12946.23   -1213.9217    8252.9795    310.25015    15403 
110000000   -4013.0156    3038.1666    13085.282   -1266.0976    8317.2798    313.58246    15418 
111000000   -3983.9821    3006.4536    12817.543   -1292.4011    8282.8369    307.16624    15426 
112000000    -3972.377    3113.4279    12973.164   -1184.5612    8270.3662    310.89561    15422 
113000000   -4011.5597    3061.5159    12865.195   -1224.3355    8297.4111    308.30818    15395 
114000000   -4014.9553    2661.8761    12963.014   -1500.1404    8176.9719    310.65237    15454 
115000000   -3902.5594    3143.5567    12850.855   -1309.7767    8355.8929    307.96454    15409 
116000000   -3954.4607    3111.0481    12860.945   -1158.0551    8223.5639    308.20633    15402 
117000000   -3966.1696    3136.2861    12966.715   -1234.1892    8336.6448    310.74106    15414 
118000000   -3971.1693    3053.5407    13003.014   -1311.6506    8336.3606    311.61095    15421 
119000000   -3992.5329    3201.2284    13089.604   -1184.0846     8377.846    313.68604    15403 
120000000   -3943.9803    3059.2913    12956.681   -1184.6565    8187.9282     310.5006    15405 
121000000    -4004.154    2935.7965    13050.125   -1305.8552    8245.8057    312.73995    15399 
122000000   -3984.0625    3117.7736    12986.061   -1151.8258    8253.6619    311.20469    15411 
123000000   -3973.4184    2881.3843    13077.017    -1281.273    8136.0757    313.38439    15417 
124000000   -4024.2184    2992.2834    12844.842   -1232.9119    8249.4136    307.82044    15408 
125000000   -4009.3134    2962.9855    12944.138   -1234.9404    8207.2393    310.20002    15414 
126000000    -3962.993    3009.0696    12931.511   -1231.6147    8203.6773    309.89743    15403 
127000000   -3991.5868    3031.5373    12989.056   -1227.1847    8250.3088    311.27645    15423 
128000000   -3904.6342    2999.1043    12834.981   -1265.5463    8169.2848    307.58411    15413 
129000000   -3993.5274    2809.1147    13113.546   -1409.7955    8212.4376     314.2598    15432 
130000000   -4093.1011    2816.5438    13009.761   -1263.4821     8173.127    311.77265    15422 
131000000   -4074.1519    3051.5849    12970.058   -1177.5801    8303.3169    310.82118    15408 
132000000   -3971.4753    3021.7197    13034.802   -1188.0574    8181.2524    312.37274    15402 
133000000   -3995.3974    2989.1889    12840.506   -1276.4988    8261.0852    307.71653    15426 
134000000   -3956.8064    2945.0533     12953.65   -1289.6232    8191.4829    310.42797    15431 
135000000   -3899.1531    3164.2611    12967.578    -1091.244    8154.6581    310.76175    15378 
136000000   -3865.9761     3168.928    12940.576   -1248.9649     8283.869    310.11466    15401 
137000000   -3970.7384    2941.7653    12821.307   -1315.4514    8227.9552    307.25644    15406 
138000000   -4037.0876    2838.6354    12900.157   -1324.3529    8200.0759    309.14604    15423 
139000000   -4088.6854    2980.9334    12827.841   -1209.2758    8278.8947    307.41301    15428 
140000000   -4038.7128    3084.8681    12992.609   -1228.4898    8352.0707    311.36159    15397 
141000000   -3994.5657    2916.0034    13017.893   -1344.2484    8254.8176    311.96751    15422 
142000000   -3880.6273    3180.2597    12904.845   -1198.6815    8259.5685    309.25837    15401 
143000000    -4069.726    3011.5657     12876.77   -1301.7511    8383.0429    308.58557    15415 
144000000   -3950.5084    2990.9902    13043.704    -1277.752    8219.2506    312.58608    15413 
145000000   -3993.2695    2814.8184    12912.709   -1334.9257    8143.0137    309.44685    15422 
146000000   -3903.4468    3116.7026    13002.304    -1225.355    8245.5044    311.59393    15402 
147000000   -3981.7993    2929.3473    12896.879   -1325.1714    8236.3179    309.06747    15416 
148000000   -3836.4774    3259.0716    12871.649   -1241.4777    8337.0267    308.46286    15395 
149000000   -3952.9617    2871.0358    13025.809   -1377.0053    8201.0028    312.15722    15424 
150000000   -3967.9452     3107.247    12914.607   -1202.5151    8277.7073    309.49233    15394 
151000000   -3978.9969    2944.5792    13015.647   -1410.9566    8334.5327    311.91369    15436 
152000000   -3880.0273    3305.1812    13008.997   -1171.4173    8356.6258    311.75434    15388 
153000000   -3947.6251    2974.5583    12881.664   -1351.4733    8273.6566    308.70287    15429 
154000000   -3901.4809    3042.9956    12996.531    -1251.846    8196.3225    311.45559    15388 
155000000   -3930.1725    3057.8768    13056.522   -1246.0297     8234.079    312.89325    15407 
156000000   -4030.4432    2892.2541    12914.203   -1338.1413    8260.8385    309.48263    15428 
157000000   -3902.6128    3203.1474    12953.229   -1230.6895    8336.4498    310.41788    15402 
158000000   -3901.2558       3095.4    12900.408   -1282.7038    8279.3596    309.15204    15434 
159000000   -3994.4294     3165.647    12962.665    -1224.744    8384.8204    310.64401    15401 
160000000   -4033.1715    2919.8212    13039.638   -1330.1666    8283.1593    312.48862    15435 
161000000   -3983.7314    2833.7746    12837.193   -1409.6802    8227.1861    307.63712    15421 
162000000   -3861.6152    3130.3609    12906.659   -1222.7841    8214.7602    309.30185    15402 
163000000   -3912.0513    3193.4465    12883.435   -1161.0498    8266.5476     308.7453    15397 
164000000   -3972.2248    2936.4432    12886.934   -1263.6055    8172.2734    308.82914    15401 
165000000    -3967.252    3068.3611    12963.472    -1256.491    8292.1041    310.66336    15422 
166000000   -4031.8346    3090.5206    12924.356   -1215.2551    8337.6103    309.72595    15392 
167000000   -3836.3619    3144.0752    12975.091   -1230.5929      8211.03    310.94179    15395 
168000000   -3919.0179    3109.2738    12836.938   -1171.3518    8199.6435    307.63101    15410 
169000000   -4038.7462    2840.2895    12834.378   -1345.2508    8224.2866    307.56966    15420 
170000000    -3919.814    3161.4572    13001.286   -1193.2674    8274.5386    311.56955    15392 
171000000   -3917.9186    3252.2852    12861.544   -1132.6244    8302.8282    308.22069    15388 
172000000   -3928.7601    3144.5837     13013.93   -1202.8455    8276.1893    311.87255    15385 
173000000   -3946.1541    3195.3576    12826.014   -1182.9824    8324.4941    307.36923    15410 
174000000   -4023.4055    2919.4449    13013.077   -1348.6154    8291.4659     311.8521    15423 
175000000   -3927.3523    3055.9928     12844.84   -1230.1586    8213.5037    307.82038    15414 
176000000   -4023.2185    3100.2743    12941.251   -1186.5359    8310.0286    310.13084    15407 
177000000   -3929.6012    2976.0224    13118.869   -1303.6205    8209.2441    314.38736    15421 
178000000   -3960.7287    3096.5908    12870.417   -1285.5682    8342.8877    308.43332    15422 
179000000   -3990.1458    3172.2148    12952.621   -1136.1742    8298.5348    310.40331    15404 
180000000   -4001.9532    3122.0637    13038.548   -1227.3552     8351.372     312.4625    15404 
181000000   -3950.6849    3139.6253    12932.605   -1262.9797    8353.2898    309.92365    15428 
182000000   -3989.0928    3008.8504     12969.71   -1269.3174    8267.2605    310.81283    15409 
183000000    -3974.005    3103.1345    12990.401   -1243.5083    8320.6478     311.3087    15413 
184000000   -3844.5303    3351.8771    12970.099   -1138.5693    8334.9767    310.82216    15391 
185000000   -3924.9545    3083.8185    12764.065   -1232.5964    8241.3694    305.88467    15400 
186000000   -4079.4864    2874.4666    13038.125   -1340.5067    8294.4596    312.45236    15412 
187000000    -3971.695    2955.8753    13113.903   -1241.4491    8169.0194    314.26834    15414 
188000000   -3975.4195    3111.2287    12798.922    -1142.578    8229.2261    306.71998    15391 
189000000   -4010.2427    3080.9956    12879.312    -1223.892    8315.1302    308.64648    15420 
190000000   -3872.8772    3182.7867    12931.921   -1257.0098    8312.6737    309.90725    15418 
191000000   -4013.9842    3100.5007    12932.452   -1282.3415    8396.8264    309.91997    15412 
192000000   -4014.4259    2985.6195    12865.116   -1333.9649    8334.0102     308.3063    15436 
193000000   -3983.3346    3115.1533    12937.322   -1255.8267    8354.3146    310.03668    15432 
194000000   -3930.3526    3107.9372    12949.138   -1274.3602      8312.65    310.31983    15413 
195000000   -3928.2033    3117.4873    12872.607   -1233.4818    8279.1724    308.48581    15401 
196000000   -3880.3326    3202.2615    12923.056   -1244.7589     8327.353     309.6948    15404 
197000000    -3924.284    3159.6217    12888.135   -1152.9322    8236.8379    308.85794    15401 
198000000   -3805.8925    3258.4123    12846.654    -1233.576    8297.8809    307.86385    15385 
199000000   -3926.4904    3200.3397    13116.589   -1220.7344    8347.5645    314.33273    15410 
200000000    -3967.976    2940.5447    12962.132   -1257.9869    8166.5077    310.63123    15415 
201000000   -4040.2776    3017.8308    12913.492   -1215.1873    8273.2956     309.4656    15405 
202000000   -3979.5918    3247.7004    12957.718      -1129.5    8356.7922    310.52546    15389 
203000000   -3891.4539    3048.8472    12986.815   -1264.3617    8204.6628    311.22276    15406 
204000000   -3907.9843     3198.142    13007.639   -1134.9411    8241.0674     311.7218    15387 
205000000   -3946.8589    3125.0046    12869.274   -1261.2012    8333.0647    308.40593    15401 
206000000   -3927.6501    3126.0392    12803.998   -1263.8839    8317.5732    306.84163    15418 
207000000   -3943.5448    3311.7213    12949.297   -1102.6263    8357.8924    310.32364    15405 
208000000   -4001.6216    3130.7446    12771.072   -1197.4461    8329.8123    306.05257    15416 
209000000   -4019.5381    3004.1607    12834.114   -1292.9537    8316.6526    307.56334    15407 
210000000   -3994.9446      3034.32    12831.597    -1215.011    8244.2755    307.50303    15394 
211000000   -3986.3067    3113.8557    13067.226   -1243.0523    8343.2147    313.14977    15418 
212000000   -3894.5851    3234.9704    12914.861   -1240.0485     8369.604    309.49842    15402 
213000000    -4011.338    3069.5739    12930.056   -1215.5316    8296.4435    309.86255    15404 
214000000   -3898.2318    2971.4322    12836.611   -1427.1392    8296.8032    307.62319    15439 
215000000   -3885.6903    3108.1379    13006.593   -1209.5553    8203.3835    311.69672    15400 
216000000   -3954.5427    3036.6762    12861.293   -1162.1755    8153.3943    308.21467    15387 
217000000   -3924.4738    3170.4984    13020.747   -1254.9568     8349.929    312.03592    15419 
218000000    -4006.764    2906.9838    12862.043   -1327.8946    8241.6423    308.23265    15428 
219000000   -4059.0707    2960.1495    13034.266   -1298.7898    8318.0101     312.3599    15436 
220000000   -3865.1689    3113.0824    12909.822    -1235.098    8213.3494    309.37765    15400 
221000000   -4022.4463    3104.7062    13111.998   -1199.5017    8326.6542     314.2227    15397 
222000000   -3927.0753    3066.4438    12930.481   -1208.6462    8202.1654    309.87273    15391 
223000000    -3984.762    3087.8154    12869.458   -1264.7256     8337.303    308.41035    15424 
224000000   -3975.1067    2982.8571    12953.377   -1228.8174    8186.7812    310.42143    15412 
225000000   -4032.1343    2999.2545    12776.442   -1171.6816    8203.0704    306.18125    15419 
226000000   -3894.6181     3176.246    13058.233   -1189.0102    8259.8743    312.93424    15390 
227000000   -4013.3414    3055.8825    12876.606   -1265.6905    8334.9144    308.58164    15434 
228000000   -3895.3859    3063.9178    12923.078   -1268.5463      8227.85    309.69532    15405 
229000000   -3978.8101    3064.2283    13005.013   -1168.8692    8211.9077    311.65885    15400 
230000000    -4116.198    2987.6309    13040.228   -1161.3478    8265.1768    312.50276    15413 
231000000     -4071.07    2856.6796    12824.552   -1270.5375    8198.2871     307.3342    15417 
232000000   -4059.4408    2935.5551    12846.314   -1290.2296    8285.2255    307.85572    15429 
233000000   -3998.3501    3010.2702     12936.79   -1241.4043    8250.0246    310.02392    15414 
234000000   -3996.5113    2994.5948    13017.915   -1277.3658    8268.4718    311.96806    15429 
235000000   -4003.6936    3042.4333    12986.652   -1277.1464    8323.2733    311.21885    15430 
236000000   -4011.5477    3247.3722     12915.34   -1192.3368    8451.2566    309.50989    15400 
237000000   -3972.4917    3105.0702     12776.67   -1256.8227    8334.3847    306.18672    15424 
238000000   -3928.6347     3227.204    13082.354   -1116.1261    8271.9648    313.51229    15403 
239000000   -3950.1145     3174.747    12929.422   -1220.8533    8345.7148    309.84737    15407 
240000000   -3941.0615    3081.8194    12952.506   -1279.0049    8301.8858    310.40057    15418 
241000000   -3966.4835    3025.3945    12915.753   -1309.1414    8301.0194    309.51978    15427 
242000000   -3811.2448    3137.3529    12840.918   -1307.8022    8256.3999     307.7264    15418 
243000000   -3904.7851    3044.2489     13012.55   -1209.5731    8158.6071    311.83947    15382 
244000000   -3933.9807    3002.0196    13001.287   -1295.3514    8231.3518    311.56956    15406 
245000000   -4008.1561    3057.6323    12900.927   -1283.0886    8348.8771    309.16448    15410 
246000000   -4100.4867    2876.4204    12940.931   -1219.8497    8196.7568    310.12316    15431 
247000000   -3976.0711    2950.7375    12851.387   -1361.3666    8288.1752    307.97728    15430 
248000000   -4033.6574     3089.137    12943.014   -1202.5215     8325.316    310.17308    15421 
249000000   -3828.2023    3231.5326    12949.894   -1176.9177    8236.6527    310.33796    15391 
250000000   -3981.5227    3013.3807    12943.238   -1209.4974    8204.4007    310.17846    15418 
251000000   -4001.1034    3052.9845    12836.333   -1226.7475    8280.8354    307.61652    15412 
252000000   -3922.5892    3059.4668    12966.787   -1209.5793    8191.6353     310.7428    15412 
253000000   -3917.6754    2939.8441    12946.887   -1387.8161    8245.3356    310.26589    15429 
254000000   -3917.6804    2956.1798    12977.792   -1398.4524    8272.3126    311.00652    15423 
255000000   -3895.0293     3128.773     12779.06   -1198.5671    8222.3694      306.244    15403 
256000000   -3979.4373    2895.5822    12966.718   -1350.4686    8225.4881    310.74115    15423 
257000000   -4001.2079    3057.7898    13064.528   -1290.9242     8349.922     313.0851    15424 
258000000   -3923.6578    3161.4517    12858.813   -1218.4122    8303.5217    308.15524    15393 
259000000   -3984.9647    2892.4254    12904.732   -1348.8794    8226.2695    309.25566    15428 
260000000   -3960.5813    3064.9955    12931.935   -1222.1922    8247.7691    309.90758    15398 
261000000   -3980.5055    3110.2565    13022.853   -1275.4413    8366.2033    312.08638    15421 
262000000   -4052.2718    3066.4891    12849.958   -1218.5304    8337.2913    307.94305    15416 
263000000   -3923.4821    3152.5642    12849.357   -1185.9214    8261.9677    307.92863    15413 
264000000   -4030.7219    3008.1089    12952.036   -1277.6505    8316.4814     310.3893    15407 
265000000   -3894.8023    3121.4723    12947.861   -1199.8848    8216.1594    310.28923    15402 
266000000   -3988.4964    2954.9919     13105.94   -1288.8503    8232.3386    314.07754    15432 
267000000    -4011.632    2979.3751    12887.117   -1224.3568    8215.3639    308.83354    15415 
268000000   -3978.4376    2982.4474    12809.533   -1301.8799    8262.7648    306.97429    15407 
269000000   -3964.6565    2982.9018    12888.077   -1295.4432    8243.0015    308.85654    15412 
270000000   -3898.0942    3072.7136    12964.374   -1324.4429    8295.2507    310.68496    15417 
271000000    -3952.098    3099.2269    12905.079   -1191.0787    8242.4035    309.26399    15407 
272000000   -3937.7723    3030.1548    12821.898   -1283.6654    8251.5924     307.2706    15418 
273000000    -3949.984    3065.1185     12907.76   -1179.4806    8194.5831    309.32823    15374 
274000000   -3874.8596    3242.8047    12945.786   -1147.4675    8265.1318     310.2395    15388 
275000000   -4027.0901     3031.552    12864.067   -1307.7938    8366.4359    308.28116    15436 
276000000   -3920.3092    3101.7125      12928.1   -1256.2324    8278.2541    309.81569    15405 
277000000   -4022.8807    3152.3143    13073.955   -1098.1825    8273.3775    313.31101    15384 
278000000   -3935.5095    3014.5153    13055.286    -1291.359    8241.3838    312.86362    15416 
279000000   -3976.2386     3102.789    12936.335    -1219.127    8298.1546    310.01303    15416 
280000000   -3957.1001    2796.0124    12933.415   -1392.7404    8145.8528    309.94304    15433 
281000000   -4046.7587    2938.5283    12791.468   -1208.6981    8193.9851    306.54136    15397 
282000000   -3992.6394    3022.1149    13173.608   -1268.3257      8283.08    315.69915    15419 
283000000   -4042.6379    3037.1495    13062.607   -1235.1409    8314.9283    313.03906    15405 
284000000   -4052.1592    3099.3807    12778.223   -1170.9359    8322.4758    306.22395    15402 
285000000   -3995.0738     2951.447    12761.998   -1401.8509    8348.3717    305.83512    15434 
286000000    -3946.153    3185.4469    12921.448   -1168.9549    8300.5548    309.65626    15412 
287000000   -3843.3366    3286.5712    12774.173   -1106.5905    8236.4983    306.12688    15401 
288000000   -4084.9636    2834.7456    12937.277   -1349.8545    8269.5637     310.0356    15411 
289000000   -4014.0735    3044.1822    12845.032   -1247.7876    8306.0433    307.82499    15422 
290000000    -3844.434    3120.6784    12881.665   -1238.9161    8204.0285    308.70287    15412 
291000000   -3986.5581    2735.6136    12969.395   -1423.2807    8145.4524    310.80529    15448 
292000000    -3997.836    2927.1833    13098.847   -1263.0127     8188.032    313.90753    15410 
293000000   -3950.0708    3059.0783    12921.464   -1288.8473    8297.9963    309.65665    15403 
294000000   -3915.5295    3109.9291    12859.217   -1178.2239    8203.6825    308.16493    15414 
295000000   -4058.5756    2710.6337    12865.618   -1371.8814    8141.0907    308.31833    15436 
296000000   -4014.8112    2968.8347    13195.412   -1265.8649    8249.5109    316.22167    15407 
297000000    -4103.279    2846.2115    12829.789   -1237.2414    8186.7319    307.45971    15411 
298000000   -4000.6277    3044.9983    12896.574   -1225.1048    8270.7309    309.06018    15428 
299000000   -4078.6064    2889.6587    12985.691   -1246.0159     8214.281    311.19582    15410 
300000000   -4018.8443    2986.9858    13005.089   -1284.1138     8289.944    311.66068    15405 
301000000   -4078.7921    2933.8077    12840.295   -1282.5578    8295.1576    307.71147    15435 
302000000   -4039.3423    2914.9916    12977.557   -1357.5052    8311.8391    311.00088    15432 
303000000   -4074.9448    2861.7032    12975.112   -1222.3059    8158.9539     310.9423    15408 
304000000   -4022.4278    2987.9451    12946.654    -1303.055    8313.4279     310.2603    15416 
305000000   -3925.7232    2951.8835    12833.136   -1332.7512    8210.3579     307.5399    15435 
306000000   -4019.0878    2937.9722    12947.707    -1260.268     8217.328    310.28555    15415 
307000000   -3950.7704    3232.3244    12903.843   -1169.9567    8353.0515    309.23436    15384 
308000000   -3940.2136    3028.6896    12826.808   -1248.2615    8217.1648    307.38826    15415 
309000000   -4007.6999    2976.0224    12977.339   -1232.9538    8216.6762    310.99567    15418 
310000000   -4040.9425    2850.7658    12924.936   -1357.8356    8249.5439    309.73985    15435 
311000000   -3931.9078    3107.4822    12987.527   -1157.0221    8196.4121    311.23982    15386 
312000000   -3932.8563     3212.572    13003.375   -1102.7155    8248.1439     311.6196    15398 
313000000   -3977.3288    3104.1713    12961.647   -1159.2887    8240.7888    310.61961    15390 
314000000   -4031.0272    3178.0873     13084.21   -1128.0844    8337.1989    313.55677    15373 
315000000   -3951.8116    3219.5073    12950.206   -1187.6998    8359.0187    310.34542    15399 
316000000   -3997.7395    3027.9239    12886.771   -1324.7948    8350.4582    308.82524    15418 
317000000   -4065.9334    3046.5154    12889.829   -1190.3859    8302.8346    308.89853    15407 
318000000   -3964.7055     3214.811    12877.435    -1203.327    8382.8435    308.60152    15390 
319000000   -4080.9955    2883.0841    12809.851   -1332.4367    8296.5162    306.98189    15432 
320000000   -3947.4915    3117.7348    12869.847   -1260.2209    8325.4472    308.41967    15412 
321000000   -4012.2891    3081.5505    12936.033   -1176.4881    8270.3276     310.0058    15382 
322000000   -4057.1231    2865.8726     12922.93   -1405.5686    8328.5643    309.69178    15448 
323000000   -4047.5725    2951.5986    13063.092   -1390.5249    8389.6959    313.05068    15438 
324000000   -4039.7943    2940.1511     12987.07   -1297.6924    8277.6378    311.22886    15421 
325000000   -3982.4995    2935.7218    12947.488   -1257.1155    8175.3368    310.28031    15408 
326000000   -4042.4442    2955.5804    12987.469   -1240.9414    8238.9659    311.23843    15408 
327000000   -4056.7065    2771.2302    12942.285   -1381.3966    8209.3333    310.15561    15422 
328000000   -4094.8306     2827.185    12927.794   -1248.4111    8170.4267    309.80834    15416 
329000000   -4042.1943    2874.4795    12907.586   -1385.4683    8302.1421    309.32406    15429 
330000000   -3990.0595    2811.1576    12837.752    -1276.509    8077.7261    307.65052    15420 
331000000   -4018.8064    2841.1876    13045.154   -1380.4233    8240.4172    312.62083    15418 
332000000   -4041.7071    2794.5684    12985.108   -1320.5934    8156.8689    311.18185    15439 
333000000   -3986.2775    2989.3178    12928.958   -1195.5581    8171.1534    309.83624    15415 
334000000   -3961.6422    3091.3837    12916.137     -1104.61    8157.6359    309.52898    15404 
335000000   -4004.6545    2928.6048    13053.024   -1260.2409    8193.5001    312.80942    15402 
336000000   -4021.1589    2899.0804    12873.183   -1215.2407    8135.4801    308.49962    15413 
337000000   -4029.9277    2850.3074    12866.921   -1272.1321    8152.3673    308.34955    15412 
338000000   -4015.8531    2876.4654    12895.449   -1230.2353    8122.5538    309.03321    15418 
339000000   -4052.4094    2791.5087    12848.091   -1312.5708    8156.4889    307.89831    15415 
340000000   -4092.1373    2841.8639    12861.028   -1248.0867    8182.0879    308.20834    15413 
341000000   -4000.3984    2882.6595     12903.25   -1289.2078    8172.2657    309.22015    15400 
342000000   -4137.4429    2841.4012    12881.231    -1244.625    8223.4692    308.69249    15423 
343000000    -4020.536    3031.4199    12939.871   -1189.2771     8241.233    310.09777    15411 
344000000   -4134.1336    2719.2943    12822.044   -1313.7823    8167.2102     307.2741    15430 
345000000   -4077.3516    2884.3298    12981.879   -1286.4321    8248.1135    311.10446    15430 
346000000   -3997.1674    2854.2319    12768.262   -1314.8525    8166.2517    305.98525    15408 
347000000   -3957.3657    3036.1865    13015.093   -1292.9141    8286.4664    311.90043    15394 
348000000   -4000.9439     2949.607    13026.415   -1276.9763    8227.5272    312.17174    15421 
349000000   -3985.6195    2773.6238     12903.17   -1339.2582    8098.5015    309.21823    15426 
350000000     -4026.53    3083.8005    12818.369   -1228.9991    8339.3296    307.18604    15403 
351000000   -4029.4399     2997.991    12859.139   -1294.6381     8322.069    308.16307    15411 
352000000   -3873.0658    3112.6526    12932.276   -1256.4537    8242.1721    309.91574    15415 
353000000    -3980.951    3156.1012    12889.185   -1197.6216    8334.6738     308.8831    15401 
354000000    -3976.658    3141.7299    13008.844    -1220.654    8339.0419    311.75067    15416 
355000000   -3973.8874    2948.3591    13174.587   -1209.9311    8132.1777    315.72262    15397 
356000000   -4109.9652    2854.8071    12828.491   -1349.4722    8314.2445     307.4286    15418 
357000000    -3945.203    2968.8825    12988.501   -1285.2352    8199.3207    311.26316    15420 
358000000   -3960.0278    3042.2311    12921.772   -1367.3176    8369.5765    309.66404    15445 
359000000   -4041.6057    2879.6094     12866.47   -1203.2122    8124.4273    308.33875    15421 
360000000   -3974.6221    3059.0208    12999.033   -1219.3468    8252.9897    311.51554    15411 
361000000   -4006.8686    2869.3085    12816.507   -1250.5337    8126.7107    307.14139    15421 
362000000   -4054.2822    2891.5542    12897.893   -1282.8666     8228.703    309.09177    15426 
363000000   -4028.9973    3071.9762    12945.585   -1273.5929    8374.5664    310.23468    15405 
364000000   -3959.6017    3035.3048    12834.079   -1227.9938    8222.9003    307.56251    15400 
365000000   -4001.3013    2966.8013     13051.09   -1345.0907    8313.1932    312.76307    15420 
366000000   -4027.5218    3055.5659    13057.774   -1246.4336    8329.5213    312.92326    15434 
367000000   -4065.1398    2883.9815    13053.233   -1305.3107     8254.432    312.81442    15434 
368000000   -4051.1462    2911.8485    12966.768   -1298.3825    8261.3773    310.74234    15423 
369000000   -4052.4696    3030.8082    12947.612   -1236.9625    8320.2402    310.28326    15412 
370000000   -3968.1554    2941.3462    12882.272   -1254.5997    8164.1014    308.71743    15421 
371000000   -3992.8467    2919.8828     12976.52   -1281.0522    8193.7817    310.97603    15399 
372000000    -3917.927    2996.8932    12975.898   -1284.0928    8198.9129    310.96114    15420 
373000000   -3999.6559    3057.9839    12856.654   -1226.6093     8284.249     308.1035    15399 
374000000   -3996.4419    2926.2231    12834.594   -1274.8152    8197.4803    307.57484    15414 
375000000    -4014.492    2901.4525    12983.602   -1286.6642    8202.6087    311.14574    15437 
376000000   -3991.8701    3173.5097    12840.466   -1088.9751     8254.355    307.71557    15394 
377000000   -3982.1942    2984.9521    13003.715   -1270.4873    8237.6336    311.62775    15428 
378000000   -3991.0898    2991.3555    12889.865    -1251.569    8234.0143     308.8994    15427 
379000000   -3978.5995    3072.0654    12828.974   -1286.1043    8336.7692    307.44016    15430 
380000000   -3978.5061    2993.3236    13099.989   -1326.2297    8298.0593    313.93491    15410 
381000000    -3956.269    2992.5155    12752.065   -1269.2389    8218.0233    305.59709    15415 
382000000   -4044.3072    3144.6869    13032.569   -1159.8692    8348.8633    312.31922    15403 
383000000   -4078.8142    2812.6733    12951.917   -1317.9814    8209.4689    310.38645    15427 
384000000   -3992.9486    2911.5366    12906.287   -1271.3048    8175.7901    309.29293    15403 
385000000   -3958.0132    3169.7849    12940.511   -1203.8444    8331.6425     310.1131    15396 
386000000   -3923.3703    3053.6139    13033.683   -1186.8492    8163.8334    312.34591    15398 
387000000   -3934.2037    3134.1795    12820.107   -1253.4634    8321.8465    307.22769    15424 
388000000   -3956.7069    3112.9012    13022.198   -1198.4127    8268.0208     312.0707    15416 
389000000   -3969.3071    3018.1157    12955.193   -1259.0085    8246.4313    310.46496    15418 
390000000   -3986.2243    3015.1301    12820.824   -1267.8568    8269.2111    307.24486    15413 
391000000    -4027.718    3105.8279    12919.931   -1274.1331     8407.679    309.61992    15433 
392000000   -3944.4193    2929.9139    12871.296   -1251.2225    8125.5557    308.45439    15409 
393000000   -4058.7332    2819.5525    12997.793   -1233.4152    8111.7009    311.48582    15432 
394000000   -3996.1728     2777.274     12993.21   -1351.6089    8125.0557    311.37601    15436 
395000000   -3993.4744    2960.8728    12918.651   -1263.9711    8218.3183    309.58925    15415 
396000000   -3982.3306    3117.6782    12995.511   -1155.7691    8255.7779    311.43114    15392 
397000000   -4004.5764     2984.326    12953.839   -1348.8251    8337.7275    310.43249    15425 
398000000    -3907.055    3137.1394     13003.92   -1345.0326     8389.227    311.63266    15406 
399000000   -3914.1682    3122.7462    13008.516   -1278.8139    8315.7283     311.7428    15411 
400000000   -4003.7562    3057.9061    12973.145   -1312.9324    8374.5947    310.89517    15417 
401000000   -3930.5014    2910.0351    12913.568   -1404.4494    8244.9859    309.46743    15430 
402000000   -4000.2135    2923.0138    12958.015   -1312.7282    8235.9555    310.53257    15427 
403000000   -3997.1005    2863.5816    12838.382   -1375.2588    8235.9409    307.66563    15426 
404000000   -3911.8577    3076.3834     13025.38   -1285.0154    8273.2565    312.14695    15428 
405000000   -3975.7723    3267.9986     13157.74   -1093.2832     8337.054    315.31888    15405 
406000000   -3923.5905     2939.505    12907.707   -1440.6822    8303.7777    309.32696    15409 
407000000   -3950.2725    3066.6742    12867.437   -1266.2636    8283.2103    308.36192    15412 
408000000   -3997.4482    2982.2125     12982.84   -1252.5404    8232.2011     311.1275    15417 
409000000   -3999.8014    3045.8578    12943.356   -1216.4599     8262.119    310.18128    15410 
410000000   -4028.5687    2993.5427    12819.193   -1256.5019    8278.6133    307.20577    15425 
411000000   -3937.1418    3024.4881    12869.054   -1237.4121     8199.042    308.40066    15399 
412000000   -3936.1177     3291.987    12917.143   -1070.6662    8298.7709    309.55309    15394 
413000000   -4026.3493    3123.1368     12884.54   -1193.9639      8343.45    308.77178    15419 
414000000   -4008.6628    2967.4897     12834.27   -1273.3899    8249.5423    307.56709    15409 
415000000   -4100.7258    2840.1344    13060.427   -1272.0655    8212.9258    312.98682    15412 
416000000   -4005.4952    2902.6688    12812.259   -1234.5335    8142.6975    307.03961    15413 
417000000    -3956.197    2923.2216    12825.337    -1286.934    8166.3527      307.353    15408 
418000000   -4008.3894    2809.9832    12937.488   -1395.8877    8214.2603    310.04064    15420 
419000000    -3896.968    3057.5496    12956.993   -1289.9559    8244.4735    310.50808    15412 
420000000    -4015.065    3025.8685    12851.567   -1235.4497    8276.3832    307.98159    15404 
421000000   -4013.4111    2918.6445    13013.815    -1265.126    8197.1815    311.86978    15407 
422000000    -4024.864    3009.0938    13032.326   -1281.2474    8315.2052     312.3134    15425 
423000000   -3978.8188    3072.6995    13033.475   -1299.2935    8350.8118    312.34093    15403 
424000000   -4014.1956    2974.1009    12933.546   -1226.2686    8214.5651    309.94618    15422 
425000000   -3995.2264    2926.8021    12953.761   -1268.5566     8190.585    310.43062    15425 
426000000   -4039.4455    2855.1759    12915.139   -1291.9713    8186.5928    309.50506    15405 
427000000   -4110.1226    2972.1288    12987.161   -1174.1805    8256.4319    311.23104    15415 
428000000   -4018.6385    2875.6621    12934.829   -1326.0164    8220.3169    309.97692    15436 
429000000   -3980.9255    2973.5535    13059.912   -1309.6793    8264.1583    312.97448    15410 
430000000   -4033.3413    2733.1314    12953.592   -1338.7292     8105.202    310.42658    15413 
431000000   -3981.2064    2908.4163    12917.474   -1248.4261    8138.0489    309.56103    15409 
432000000   -3960.2045    3145.1231    12851.259    -1126.925    8232.2526    307.97421    15385 
433000000   -3847.2826     3195.981    12966.795   -1227.4607    8270.7243    310.74298    15412 
434000000   -4035.3638    3060.8828    12940.168   -1260.2255    8356.4722    310.10488    15423 
435000000   -3951.9356    2902.3864    12879.954    -1271.166     8125.488    308.66189    15417 
436000000   -4076.9538    2825.9161    12897.442   -1241.2691    8144.1391    309.08097    15425 
437000000   -3946.2063    2921.5999     12722.28   -1336.5292    8204.3354    304.88331    15426 
438000000   -4011.3851    3000.7198    12869.258   -1282.6025    8294.7074    308.40555    15430 
439000000   -4036.5446    2966.9798    13037.496   -1304.8416    8308.3659    312.43731    15446 
440000000    -4000.798    3073.0953     13063.15   -1229.5461    8303.4394    313.05208    15424 
441000000   -3968.1192    2923.1731     12922.98   -1284.7254    8176.0177    309.69299    15406 
442000000   -3909.1101    3165.7242    12949.117   -1168.8851    8243.7194    310.31934    15403 
443000000   -4015.2744    2921.8883    12869.287   -1166.8465    8104.0092    308.40625    15397 
444000000   -4061.2019    2959.3232     12702.34   -1305.7317    8326.2567    304.40545    15432 
445000000   -4083.8702    2876.9028     12967.31   -1256.2092    8216.9822    310.75532    15417 
446000000   -3937.3282    3001.6463    12974.439   -1280.1116    8219.0861    310.92617    15435 
447000000   -4078.8927    2903.4127    13044.247   -1257.6918    8239.9973    312.59909    15423 
448000000   -3821.9171    3270.1333    12996.658   -1256.7079    8348.7584    311.45864    15413 
449000000   -3936.7016    3241.7904    12822.578   -1203.7738    8382.2657     307.2869    15402 
450000000   -3959.7338    3036.3578    12962.837   -1205.8405     8201.932    310.64813    15410 
451000000   -4036.4189    2949.5506    12883.433   -1292.3488    8278.3183    308.74525    15420 
452000000   -4025.3383    3033.9298    12939.253   -1196.7636    8256.0317    310.08295    15409 
453000000   -3938.0344     2999.243    12799.684   -1177.9656     8115.243    306.73825    15384 
454000000   -3950.8206    3080.4416    13039.867   -1249.4144    8280.6766    312.49413    15431 
455000000   -3974.8083    2868.1569    12790.167   -1390.7877    8233.7528    306.51017    15431 
456000000   -4012.0302     2956.324    12864.206   -1294.4239    8262.7782    308.28448    15419 
457000000   -3958.3792    2921.0846    12947.234   -1345.6039    8225.0678    310.27422    15423 
458000000    -3983.773    3021.5894    12992.621   -1329.5501    8334.9125    311.36188    15405 
459000000   -4023.0867    3086.9045    13018.861   -1140.9034    8250.8946    311.99071    15386 
460000000   -4068.4929    2886.6448    12764.708   -1307.7425    8262.8802    305.90007    15434 
461000000    -4005.982    3106.6365    12918.354   -1144.1774    8256.7959    309.58211    15408 
462000000   -4008.9017    2902.6759    12948.376   -1273.2563     8184.834    310.30157    15429 
463000000   -3912.5971    3037.8122    12848.141   -1282.4845    8232.8939     307.8995    15400 
464000000   -4038.6975    3124.6643    12976.494   -1196.3673    8359.7291    310.97541    15417 
465000000   -4021.5056    3035.9999    12881.413   -1250.9005     8308.406    308.69685    15402 
466000000   -4007.6968    3095.3306     12928.91   -1171.9773    8275.0047    309.83508    15404 
467000000     -4007.16    3009.6786    12964.698   -1302.4023    8319.2409    310.69273    15423 
468000000   -3908.1062    3111.6132    12846.295   -1198.3079    8218.0273    307.85526    15385 
469000000   -3935.4882    3006.5029    13011.086   -1237.9225    8179.9136    311.80439    15416 
470000000     -4038.48    2923.8821    12930.139   -1316.6437    8279.0058    309.86453    15422 
471000000   -4079.4654    3003.9753    12805.654   -1254.4139    8337.8546    306.88132    15411 
472000000    -4059.322    3050.9615    13042.041   -1283.8373    8394.1208    312.54622    15410 
473000000   -4023.3214    2918.7648     12883.02   -1293.9173    8236.0035    308.73536    15423 
474000000   -4017.8222    3027.0876     12863.26   -1237.3545    8282.2644    308.26181    15418 
475000000   -4032.1019    2916.6534    13038.505   -1286.3674    8235.1227    312.46148    15420 
476000000   -4049.5962    2911.8152    13011.274   -1238.3262    8199.7376    311.80891    15388 
477000000   -3889.2145    3200.1993    12911.777   -1226.3452     8315.759    309.42449    15416 
478000000   -4019.8876    3061.2988    12994.448   -1220.2921    8301.4785    311.40568    15414 
479000000   -3920.2663    3147.6668    12930.677   -1229.2101    8297.1431    309.87744    15409 
480000000   -4000.3119    3004.9035    12929.636   -1276.7159    8281.9313    309.85249    15424 
481000000   -4072.2809    2767.9675    12964.811   -1452.2091    8292.4575    310.69545    15432 
482000000   -4054.2289    2897.2082    12703.916   -1327.6661    8279.1033    304.44321    15444 
483000000   -4021.1618    3079.8617    12872.284   -1130.3943    8231.4178    308.47807    15407 
484000000   -3969.4302     2936.109    12936.902   -1305.2179    8210.7571     310.0266    15416 
485000000    -4084.149     2794.265    12890.213   -1416.0594    8294.4733    308.90774    15434 
486000000   -3981.0943    3196.8908    13010.123   -1169.0731    8347.0582    311.78131    15396 
487000000   -3902.3696    3160.4202     12884.36   -1192.2381    8255.0279    308.76746    15411 
488000000   -3916.3009    3047.8697    12873.438   -1326.2179    8290.3885    308.50573    15427 
489000000   -3954.7795    3005.9223    12909.891   -1268.4801     8229.182    309.37931    15424 
490000000   -3949.2004    3193.4087    12989.283   -1081.7379     8224.347     311.2819    15393 
491000000    -3931.468    3012.5563    12909.537     -1303.97    8247.9943    309.37083    15422 
492000000    -3910.865    3019.3929    12840.862   -1291.7704    8222.0283    307.72505    15412 
493000000   -4008.7128    3054.1161    12863.431   -1170.0047    8232.8336     308.2659    15416 
494000000   -4005.9536     2960.473    12979.068   -1163.2835    8129.7102    311.03709    15393 
495000000   -3929.8692    2997.5539    12801.672   -1370.8032    8298.2263    306.78588    15416 
496000000   -3982.8066    2950.8494    13024.009   -1370.6034    8304.2593    312.11409    15436 
497000000   -4032.6346    2863.5099    13060.537    -1419.626    8315.7705    312.98946    15459 
498000000   -4012.2487    3135.9878    13031.759   -1175.9103    8324.1468    312.29981    15417 
499000000   -4032.8902    2825.3599    12840.739   -1372.9255    8231.1756    307.72211    15424 
500000000   -4046.7991    2840.6525    12884.668   -1370.2961    8257.7478    308.77484    15436 
Loop time of 216954 on 28 procs for 500000000 steps with 14000 atoms

Performance: 4978.023 ns/day, 0.005 hours/ns, 2304.640 timesteps/s
99.5% CPU use with 28 MPI tasks x no OpenMP threads

MPI task timing breakdown:
Section |  min time  |  avg time  |  max time  |%varavg| %total
---------------------------------------------------------------
Pair    | 24022      | 30448      | 35075      |1455.2 | 14.03
Bond    | 6196.8     | 6630.7     | 9955.2     | 882.3 |  3.06
Neigh   | 70073      | 70925      | 72017      | 197.1 | 32.69
Comm    | 54175      | 62019      | 71586      |1515.3 | 28.59
Output  | 0.72497    | 0.74888    | 0.75117    |   0.5 |  0.00
Modify  | 29282      | 29927      | 30476      | 182.7 | 13.79
Other   |            | 1.7e+04    |            |       |  7.84

Nlocal:    500 ave 526 max 474 min
Histogram: 2 3 1 2 4 7 2 4 1 2
Nghost:    850 ave 1343 max 617 min
Histogram: 7 4 6 2 2 1 3 2 0 1
Neighs:    7318.32 ave 8449 max 6160 min
Histogram: 3 2 3 2 4 2 4 3 3 2

Total # of neighbors = 204913
Ave neighs/atom = 14.6366
Ave special neighs/atom = 8.84357
Neighbor list builds = 99879322
Dangerous builds = 0
System init for write_restart ...
Total wall time: 60:15:59
