LAMMPS (5 Jun 2019)
Reading restart file ...
  restart file = 5 Jun 2019, LAMMPS = 5 Jun 2019
  restoring atom style full from restart
  orthogonal box = (-420 -420 -420) to (420 420 420)
  2 by 2 by 7 MPI processor grid
  restoring pair style lj/cut from restart
  restoring bond style hybrid from restart
  restoring angle style cosine from restart
  14000 atoms
  15574 bonds
  13600 angles
Finding 1-2 1-3 1-4 neighbors ...
  special bond factors lj:   0          1          1         
  special bond factors coul: 0          0          0         
  3 = max # of 1-2 neighbors
  6 = max # of 1-3 neighbors
  17 = max # of 1-4 neighbors
  56 = max # of special neighbors
  special bonds CPU = 0.0022539 secs
  read_restart CPU = 0.0657098 secs
Finding 1-2 1-3 1-4 neighbors ...
  special bond factors lj:   0          1          1         
  special bond factors coul: 0          0          0         
  3 = max # of 1-2 neighbors
  6 = max # of 1-3 neighbors
  17 = max # of 1-4 neighbors
  38108 = # of 1-3 neighbors before angle trim
  27200 = # of 1-3 neighbors after angle trim
  56 = max # of special neighbors
  special bonds CPU = 0.00233112 secs
Neighbor list info ...
  update every 1 steps, delay 1 steps, check yes
  max neighbors/atom: 2000, page size: 100000
  master list distance cutoff = 26.9
  ghost atom cutoff = 26.9
  binsize = 13.45, bins = 63 63 63
  1 neighbor lists, perpetual/occasional/extra = 1 0 0
  (1) pair lj/cut, perpetual
      attributes: half, newton on
      pair build: half/bin/newton
      stencil: half/bin/3d/newton
      bin: standard
Setting up Verlet run ...
  Unit style    : real
  Current step  : 400000000
  Time step     : 0.1
Per MPI rank memory allocation (min/avg/max) = 1.103 | 9.306 | 16.65 Mbytes
Step Temp E_pair E_mol TotEng Press 
400000000    309.51744   -2947.7919    6573.5496    16541.413  0.027065477 
400010000    308.63579   -2968.0115    6680.8117    16591.665  -0.16514003 
Loop time of 3.73035 on 28 procs for 10000 steps with 14000 atoms

Performance: 23.161 ns/day, 1.036 hours/ns, 2680.716 timesteps/s
99.4% CPU use with 28 MPI tasks x no OpenMP threads

MPI task timing breakdown:
Section |  min time  |  avg time  |  max time  |%varavg| %total
---------------------------------------------------------------
Pair    | 0.0004076  | 0.38831    | 1.726      |  79.2 | 10.41
Bond    | 0.00055123 | 0.11503    | 0.43568    |  37.4 |  3.08
Neigh   | 0.013328   | 0.013905   | 0.015662   |   0.5 |  0.37
Comm    | 0.0023076  | 1.2087     | 2.3541     |  69.0 | 32.40
Output  | 9.665e-05  | 0.00029756 | 0.00058015 |   0.0 |  0.01
Modify  | 0.0010398  | 0.24956    | 0.9522     |  54.2 |  6.69
Other   |            | 1.755      |            |       | 47.04

Nlocal:    500 ave 1912 max 0 min
Histogram: 13 2 1 4 2 2 1 1 1 1
Nghost:    476.607 ave 1340 max 0 min
Histogram: 8 4 3 1 1 2 3 3 1 2
Neighs:    5370.96 ave 21190 max 0 min
Histogram: 13 3 0 4 2 2 1 1 1 1

Total # of neighbors = 150387
Ave neighs/atom = 10.7419
Ave special neighs/atom = 7.47457
Neighbor list builds = 7
Dangerous builds = 0
4000 atoms in group rxnSites
Neighbor list info ...
  update every 1 steps, delay 1 steps, check yes
  max neighbors/atom: 2000, page size: 100000
  master list distance cutoff = 26.9
  ghost atom cutoff = 26.9
  binsize = 13.45, bins = 63 63 63
  2 neighbor lists, perpetual/occasional/extra = 1 1 0
  (1) pair lj/cut, perpetual
      attributes: half, newton on
      pair build: half/bin/newton
      stencil: half/bin/3d/newton
      bin: standard
  (2) fix bond/create/random, occasional, copy from (1)
      attributes: half, newton on
      pair build: copy
      stencil: none
      bin: none
Setting up Verlet run ...
  Unit style    : real
  Current step  : 0
  Time step     : 25
Per MPI rank memory allocation (min/avg/max) = 17.82 | 18.3 | 19.07 Mbytes
Step E_pair PotEng KinEng E_bond E_angle Temp Bonds 
       0   -2968.0115    3712.8002    12878.865   -1542.4183      8223.23    308.63579    15574 
 1000000   -2958.3646       3666.4    12910.624   -1590.0917    8214.8564    309.39687    15585 
 2000000     -3004.47    3624.7957    12947.443   -1571.0459    8200.3116    310.27923    15581 
 3000000   -3047.8629    3532.1327    12923.443   -1553.5223    8133.5179    309.70408    15584 
 4000000   -3028.4613    3586.8596    12926.381   -1562.7781     8178.099    309.77449    15587 
 5000000   -2981.3856    3660.6787    12904.907     -1518.85    8160.9144    309.25987    15589 
 6000000   -3023.0578    3448.1845    12831.167    -1678.053    8149.2953    307.49273    15582 
 7000000   -2997.9982    3527.3683    13063.174   -1557.6221    8082.9886    313.05267    15585 
 8000000   -2890.5565     3507.865    12924.304   -1674.8281    8073.2496     309.7247    15591 
 9000000   -2995.9628    3594.9588    12849.441   -1588.5282    8179.4498    307.93065    15586 
10000000   -2978.5034    3565.6041    12967.696   -1592.5326    8136.6401    310.76457    15575 
11000000   -2997.2506     3524.579    12952.153   -1550.1758    8072.0053    310.39208    15588 
12000000   -3063.3805    3376.5678    12855.022   -1614.2291    8054.1774     308.0644    15585 
13000000    -3055.947    3516.6927    12933.873   -1569.2766    8141.9163    309.95403    15567 
14000000     -2990.11    3494.5872    12990.027   -1583.8131    8068.5103    311.29973    15574 
15000000   -2970.9278     3756.427    12840.574   -1539.7721    8267.1269    307.71816    15572 
16000000   -3078.1549    3477.4717    13000.768   -1566.2803    8121.9069    311.55714    15578 
17000000   -3110.4145    3317.1051    12959.054   -1637.1668    8064.6864    310.55747    15586 
18000000   -2919.5128    3661.0135    12933.332   -1516.9563    8097.4825    309.94105    15582 
19000000   -2959.1837    3676.0067    12980.462   -1540.3268    8175.5172    311.07051    15592 
20000000   -3012.6684    3600.0388    12810.669   -1584.4334    8197.1406    307.00151    15580 
21000000   -2958.3064    3797.2725    12953.227   -1446.7262    8202.3051    310.41782    15565 
22000000   -2973.0366    3545.7551    12981.467   -1546.1723     8064.964    311.09459    15557 
23000000   -3123.1171    3595.0469    12890.009   -1457.2053    8175.3693    308.90284    15555 
24000000    -2959.452    3552.6714    13069.888    -1497.993    8010.1164    313.21356    15598 
25000000   -2921.6779    3516.2687    12925.173   -1707.4857    8145.4323    309.74554    15603 
26000000   -2925.1375     3754.006    12987.297   -1579.4224    8258.5659     311.2343    15581 
27000000   -2949.3798    3460.2767     13035.95   -1749.3523    8159.0088    312.40025    15603 
28000000   -2946.9486    3543.1521    12954.424   -1617.1266    8107.2273    310.44651    15598 
29000000   -2940.2043    3550.1139    13014.102   -1624.6954    8115.0136    311.87668    15586 
30000000   -2924.7286    3501.5348    12882.389   -1657.6337    8083.8971    308.72023    15590 
31000000   -2934.7955    3649.1444    12811.355   -1554.9183    8138.8581    307.01795    15566 
32000000   -2986.1979    3616.2647    12860.161   -1558.4098    8160.8724    308.18754    15569 
33000000   -2933.5416    3673.2044    12886.577     -1474.78     8081.526     308.8206    15578 
34000000   -2977.8526    3522.4349    12917.246   -1644.6118    8144.8993    309.55557    15592 
35000000   -2944.7679    3674.1471    12917.168    -1578.721    8197.6361     309.5537    15562 
36000000   -2971.6329    3768.9705      12871.8   -1431.0454    8171.6488    308.46646    15542 
37000000   -2968.3386    3653.8102    12726.029   -1504.4431    8126.5919    304.97314    15576 
38000000   -2871.7219    3719.6443     12813.27   -1570.6799    8162.0461    307.06383    15580 
39000000     -2992.28    3681.4944    13105.789   -1578.1947     8251.969    314.07392    15588 
40000000   -2976.4675    3400.6649    12968.914   -1637.6035    8014.7359    310.79376    15575 
41000000   -3012.8522    3559.8035     12855.14   -1559.0505    8131.7062    308.06723    15593 
42000000   -3015.8331    3608.9899     12653.22   -1553.3979    8178.2209     303.2283    15588 
43000000   -3072.4346    3557.1458    12879.317   -1510.0345    8139.6149    308.64661    15564 
44000000   -2947.3804    3790.7984    12763.461   -1542.8531    8281.0318    305.87018    15557 
45000000   -3003.3015    3542.3205    13029.154   -1552.9826    8098.6046    312.23739    15578 
46000000   -2999.6377     3722.176    13062.388   -1388.9864    8110.8002    313.03383    15554 
47000000   -2979.9817    3584.0735    12861.351   -1607.3641    8171.4194    308.21608    15587 
48000000   -3125.7181    3442.3464    13004.077   -1565.1211    8133.1855    311.63642    15586 
49000000   -3002.1123    3470.5567    12886.869   -1587.0786    8059.7477     308.8276    15572 
50000000   -2889.2128    3644.8051    12994.281   -1583.7296    8117.7474    311.40167    15577 
51000000   -2981.1528    3524.8943    12885.236   -1571.7502    8077.7972    308.78846    15579 
52000000   -3036.5254    3504.0862    12966.445   -1525.8942    8066.5058    310.73458    15559 
53000000   -3076.0668    3592.0629    12960.572   -1489.8602      8157.99    310.59386    15567 
54000000   -3095.6445    3492.4248    13014.733    -1635.552    8223.6213    311.89179    15566 
55000000   -3029.6911    3674.9903    12993.268   -1549.7696     8254.451     311.3774    15575 
56000000   -3061.1843     3652.244    12933.063   -1500.3227    8213.7511     309.9346    15566 
57000000   -3048.1753    3575.5633    12791.561   -1555.9817    8179.7202    306.54357    15581 
58000000   -2890.2131    3693.7528     12972.87   -1597.2028    8181.1687    310.88856    15573 
59000000   -3023.0669    3550.4257    12828.987   -1533.5617    8107.0543    307.44049    15572 
60000000   -3079.9979    3475.2519    13037.044   -1528.9954    8084.2452    312.42646    15582 
61000000   -3033.8232    3513.2284    12962.711    -1545.767    8092.8187    310.64511    15582 
62000000   -2978.8965    3444.6072    12867.771   -1628.6251    8052.1288    308.36991    15588 
63000000   -3050.8967    3321.2311    13044.512   -1668.1356    8040.2634    312.60544    15588 
64000000   -3071.5688    3470.2875     12951.88   -1552.5089    8094.3652    310.38556    15582 
65000000   -2996.3778    3417.4474    12931.228   -1646.1654    8059.9905    309.89064    15572 
66000000   -3008.9851    3568.5042    12916.616   -1493.9993    8071.4886    309.54047    15573 
67000000   -3023.7471    3578.3617     12850.35   -1573.6524    8175.7611    307.95243    15582 
68000000   -3007.9921    3383.8455     12868.54   -1622.7438    8014.5815    308.38834    15586 
69000000   -3110.7275    3275.6324      12801.5   -1712.6634    8099.0233    306.78177    15603 
70000000   -3043.1804    3649.1951    13128.808   -1433.1718    8125.5473    314.62554    15566 
71000000   -3042.1895    3658.0031    13042.586   -1450.7939    8150.9865    312.55928    15559 
72000000   -2994.4801    3594.0742    12988.269   -1559.1618    8147.7161    311.25759    15571 
73000000   -3020.7983    3561.1148    12843.203   -1657.0701    8238.9833    307.78116    15592 
74000000   -2984.2965    3497.9714    12935.773   -1594.4925    8076.7604    309.99956    15578 
75000000   -2984.5026    3631.3283    12980.246   -1562.2091      8178.04    311.06534    15579 
76000000    -2992.058    3584.6458    12844.434    -1542.401    8119.1047    307.81065    15574 
77000000   -2990.2079    3539.3882    12787.206   -1597.5076    8127.1037    306.43923    15577 
78000000    -2984.304    3558.6211    12963.316   -1572.7702    8115.6954    310.65961    15582 
79000000   -3018.4097    3548.8506    12992.314    -1524.496    8091.7562    311.35453    15580 
80000000     -3037.07    3472.2465    12995.801   -1598.4117    8107.7282    311.43809    15588 
81000000   -3035.4735    3609.0497    12965.284   -1624.6617    8269.1849    310.70677    15566 
82000000   -2962.0209    3603.9856    13072.555   -1567.5436    8133.5502    313.27748    15574 
83000000   -3045.3636    3436.9642    12875.855   -1635.3423    8117.6701    308.56365    15587 
84000000   -3075.2869    3522.1271    12907.463   -1506.3684    8103.7824    309.32113    15584 
85000000   -3021.4654    3586.7529    12850.321   -1437.3322    8045.5505    307.95173    15574 
86000000   -3022.4354    3460.2464    12933.591   -1649.1508    8131.8325    309.94727    15572 
87000000   -3095.2577    3593.7551    13104.806   -1411.4551     8100.468    314.05036    15578 
88000000    -2955.702    3560.7532     12936.89   -1604.4495    8120.9047    310.02632    15590 
89000000    -2974.348    3518.7872     12938.08   -1596.7786    8089.9138    310.05484    15565 
90000000   -2924.3531    3849.7747    13058.042   -1441.9884    8216.1162    312.92967    15560 
91000000   -2978.4587    3642.2079    12925.824   -1543.8926    8164.5592    309.76113    15581 
92000000   -2928.1761     3665.639    12854.323   -1568.2683    8162.0833    308.04764    15565 
93000000   -2963.5365    3736.5725    12944.611   -1505.7018    8205.8108    310.21136    15560 
94000000   -3085.3051    3485.8742    12987.805    -1738.243    8309.4224    311.24647    15606 
95000000   -2981.7926    3706.5802    12995.404   -1495.5153    8183.8881    311.42857    15574 
96000000   -2894.3107    3683.1252    12923.505   -1568.4105    8145.8464    309.70557    15587 
97000000   -3012.8376    3629.5287    12710.408   -1599.0684    8241.4348    304.59879    15577 
98000000   -2920.8364    3550.4213    12915.693   -1636.1135    8107.3712    309.51836    15597 
99000000   -2952.2365    3791.0913    12926.952   -1570.3477    8313.6755    309.78816    15577 
100000000   -3017.0004    3420.2791    12817.407   -1634.6654    8071.9449    307.16297    15569 
101000000   -2995.1965    3755.0625    12979.982   -1509.7385    8259.9976      311.059    15572 
102000000   -3000.3202    3669.1162    12919.164    -1538.669    8208.1054    309.60154    15572 
103000000    -2880.574    3808.7704    13114.261   -1470.2743    8159.6188    314.27694    15573 
104000000   -2876.6633    3618.2353    13089.319   -1606.7754     8101.674    313.67921    15575 
105000000   -2967.4144    3644.5754    12961.275   -1496.4687    8108.4585     310.6107    15552 
106000000   -2871.7907     3732.161    12985.505   -1565.4295    8169.3812    311.19136    15575 
107000000   -3072.3765    3794.9476     13136.77   -1378.5509     8245.875    314.81635    15533 
108000000   -2958.8147    3642.0741     12976.19    -1553.738    8154.6268    310.96813    15580 
109000000   -3029.5679    3580.8094    12837.935   -1550.3765    8160.7538    307.65492    15570 
110000000   -3011.1739      3675.38    13088.883   -1550.5392    8237.0931    313.66877    15570 
111000000   -3015.6607    3554.4867    13021.709   -1579.0065    8149.1539    312.05896    15571 
112000000   -2950.3795     3689.326    12935.016   -1388.1791    8027.8846    309.98142    15563 
113000000   -3022.3651    3584.6392    12939.062   -1539.5426    8146.5469    310.07839    15580 
114000000   -3075.1554    3516.5351    12974.401   -1590.1241    8181.8146    310.92525    15575 
115000000   -3115.6111    3511.5255    12914.047   -1570.0908    8197.2275    309.47889    15549 
116000000   -3009.7105    3611.4756    12899.572   -1539.9088    8161.0948    309.13201    15568 
117000000   -2985.4239    3628.2491    13018.045   -1524.6915    8138.3644    311.97117    15583 
118000000   -3020.2227    3431.4485    12903.441   -1675.1873    8126.8585    309.22473    15581 
119000000   -2986.3632    3765.2198    13032.691   -1413.8184    8165.4013    312.32216    15561 
120000000   -2867.9234    3565.0813     12958.68   -1652.6384    8085.6431    310.54852    15571 
121000000   -3049.9831    3546.4921    12906.143   -1522.1862    8118.6614    309.28948    15555 
122000000   -2961.9449     3480.852    12983.243   -1674.0419    8116.8388    311.13715    15600 
123000000   -2967.6491    3675.3459    13008.999   -1470.2532    8113.2482    311.75439    15566 
124000000   -3041.2384    3613.6755    12973.832   -1455.7572    8110.6711    310.91163    15566 
125000000   -3039.7347    3436.4189    12890.194   -1632.8907    8109.0443    308.90728    15571 
126000000    -2919.756    3473.1315    12832.657   -1628.4084    8021.2958    307.52842    15595 
127000000   -3017.5166    3532.8865    12786.495   -1531.6185    8082.0217    306.42218    15578 
128000000    -3032.241    3522.2248    12898.938   -1635.1931     8189.659    309.11682    15591 
129000000   -2945.3831    3647.5951    12958.824   -1555.0252    8148.0035    310.55196    15564 
130000000   -2959.8519    3414.6552    12949.571    -1687.331    8061.8381    310.33022    15599 
131000000   -3066.7113    3474.0898    12988.059    -1581.359    8122.1602    311.25257    15575 
132000000   -3014.1612    3722.3853    12945.857   -1467.5651    8204.1116    310.24121    15576 
133000000   -2878.3271    3722.6049    13043.629    -1538.356    8139.2879    312.58428    15560 
134000000   -2999.3417    3634.1543    13015.498   -1579.7135    8213.2096    311.91013    15587 
135000000   -2996.9792    3596.5002    12906.917   -1613.1556     8206.635    309.30804    15582 
136000000   -3101.0227    3436.1914    12881.818   -1594.1937    8131.4078    308.70654    15577 
137000000   -2961.2608    3619.2152    12916.235   -1580.8871    8161.3631    309.53134    15565 
138000000   -2958.4857    3710.4803    12916.584   -1492.2616    8161.2276     309.5397    15562 
139000000   -2931.7693    3644.3529    13005.854   -1568.6509     8144.773    311.67901    15580 
140000000   -2920.2243    3694.5936    12747.779   -1566.4474    8181.2653    305.49437    15590 
141000000   -3025.6783    3550.2488    12844.686   -1651.4502    8227.3773    307.81671    15604 
142000000    -2958.052    3654.4418    12773.615   -1550.7415    8163.2353    306.11351    15593 
143000000    -2949.041    3475.0191    12910.262   -1646.0094    8070.0694     309.3882    15605 
144000000   -3004.8785    3588.6437    12935.963   -1524.1768    8117.6989    310.00411    15587 
145000000   -2929.6028    3703.3125    12986.898   -1523.8068    8156.7221    311.22473    15563 
146000000   -2922.3763    3387.1847    12951.278   -1715.0312    8024.5923    310.37114    15580 
147000000   -3019.9421    3532.5397    12918.062   -1507.1585    8059.6403    309.57512    15584 
148000000     -2985.09     3665.202    12849.452   -1541.3601    8191.6521    307.93092    15567 
149000000   -2968.0572      3784.73    13009.595   -1525.5864    8278.3737    311.76868    15573 
150000000    -2960.448    3393.9069    12777.819   -1667.9611     8022.316    306.21425    15588 
151000000   -3062.0894    3540.7519    12931.599   -1597.0984    8199.9398    309.89953    15575 
152000000   -2943.8763    3685.0147    12769.146   -1509.2821    8138.1732    306.00643    15574 
153000000   -2931.9276    3576.5862    12901.644   -1595.7921     8104.306    309.18166    15579 
154000000   -2971.8846    3611.9833     12762.83   -1507.3422    8091.2101    305.85505    15568 
155000000   -2940.1129    3546.6993    12925.095   -1560.0939    8046.9061    309.74366    15570 
156000000   -2923.8013    3637.7017    12881.335   -1605.6079    8167.1109    308.69496    15583 
157000000   -2855.3809    3757.5676    12860.519   -1530.3582    8143.3067    308.19612    15570 
158000000    -2876.185    3747.7642    12908.826   -1545.7512    8169.7004    309.35379    15567 
159000000   -2973.6203    3598.7046    13021.287   -1578.6253    8150.9502    312.04885    15581 
160000000    -2902.972    3616.1588    12915.602   -1581.8422     8100.973    309.51617    15582 
161000000   -2938.1796    3488.8341    13051.989    -1697.453    8124.4667    312.78461    15594 
162000000   -3041.7372    3697.8434    12892.273   -1404.8608    8144.4414    308.95709    15550 
163000000   -2953.4729    3677.0181    13019.871   -1488.2602    8118.7513    312.01493    15569 
164000000   -2999.0911     3671.925    12801.898   -1561.2798    8232.2959    306.79131    15590 
165000000   -2933.0303    3807.4304     12745.36   -1482.4217    8222.8825     305.4364    15555 
166000000   -2901.2447    3661.4647    12787.799   -1662.7095    8225.4188    306.45342    15602 
167000000   -3088.6269    3582.2038    12796.627   -1459.2673    8130.0981      306.665    15577 
168000000   -3048.3967    3665.4057    12872.709    -1525.734    8239.5364    308.48825    15562 
169000000   -2973.0574    3677.3278    12813.142   -1528.8525    8179.2377    307.06076    15580 
170000000   -2837.6366    3721.6282    12944.769   -1519.3649    8078.6297    310.21514    15572 
171000000   -2989.4074    3536.2657    12910.898   -1543.0602    8068.7333    309.40345    15555 
172000000   -2965.7467    3607.8318    12871.852   -1555.5646    8129.1431    308.46773    15585 
173000000   -3075.2501    3383.9843    12868.701   -1741.1386     8200.373    308.39221    15606 
174000000   -2972.6537    3604.4132    12859.441   -1494.7287    8071.7956    308.17029    15585 
175000000      -2953.3    3669.2409    12851.836   -1555.7239    8178.2648    307.98805    15567 
176000000   -2965.1564    3628.4536    13016.793    -1627.714    8221.3239    311.94117    15581 
177000000    -2885.925    3758.9786    13031.745   -1516.7519    8161.6555    312.29948    15592 
178000000   -2890.1728    3707.0504     13012.06   -1582.4626    8179.6858    311.82774    15575 
179000000   -2870.9742    3596.5349    12981.617   -1647.0559     8114.565    311.09819    15590 
180000000   -2916.1986    3623.4975    13015.189   -1551.7263    8091.4225    311.90271    15595 
181000000   -2916.9782    3467.0957    13006.032   -1650.0839    8034.1577    311.68328    15598 
182000000   -2899.5994    3723.4515      12959.3   -1582.0274    8205.0783    310.56337    15585 
183000000   -2922.8436    3772.4349    12940.258   -1476.7465     8172.025    310.10702    15557 
184000000   -2994.3925    3654.2749    12963.238   -1552.2085    8200.8759    310.65774    15571 
185000000   -2919.0334    3713.0549    12937.217    -1511.786    8143.8742    310.03415    15572 
186000000   -2923.3581    3650.8491    12902.561   -1620.6221    8194.8293    309.20365    15581 
187000000   -3000.4403    3617.3429    12914.737   -1548.4665    8166.2496    309.49544    15576 
188000000   -2912.1208    3667.5702    12891.298    -1563.122     8142.813    308.93373    15572 
189000000   -2946.7574    3605.8909    12854.998   -1515.9709    8068.6191    308.06381    15569 
190000000    -2980.866    3591.1351    12970.118   -1593.2946    8165.2957    310.82262    15567 
191000000   -2936.5353    3736.9718    12718.171   -1493.3414    8166.8485    304.78483    15559 
192000000   -2976.2396    3577.9131     13086.36   -1545.2524    8099.4052    313.60829    15584 
193000000   -2997.8248    3533.5296     13041.11   -1615.0172    8146.3716     312.5239    15595 
194000000   -2965.8525     3580.378    12940.462   -1517.8641    8064.0946    310.11193    15565 
195000000   -2932.5432    3721.7218    13096.375   -1527.7426    8182.0077    313.84832    15556 
196000000   -3070.2622    3636.3733    13042.464   -1519.4715    8226.1069    312.55636    15556 
197000000   -3013.6203    3735.1162    13162.157   -1520.9769    8269.7134    315.42474    15568 
198000000   -3039.4776    3614.8867    12868.028   -1562.4952    8216.8595    308.37608    15565 
199000000   -2986.4229    3727.6613    12963.318   -1510.8551    8224.9393    310.65966    15563 
200000000    -2940.907      3856.62    12977.092   -1422.5262    8220.0532    310.98976    15575 
201000000   -2892.6518    3633.3166    12963.544   -1597.7144    8123.6828    310.66508    15592 
202000000   -2969.1499    3705.7226    12908.447   -1551.7386    8226.6111    309.34471    15587 
203000000   -2893.9981    3694.6179    12702.328    -1463.443     8052.059    304.40515    15580 
204000000   -2891.5032    3798.1857     13042.39   -1568.7185    8258.4073    312.55458    15581 
205000000   -2962.2833     3590.394    12993.887   -1631.8185    8184.4958    311.39223    15596 
206000000   -2959.7864    3513.6987    12983.562   -1674.0151    8147.5001    311.14479    15585 
207000000   -2888.2738    3643.6175    12933.691   -1671.9548    8203.8461    309.94965    15584 
208000000   -2934.9658    3716.6144    12848.717   -1556.0858     8207.666    307.91331    15578 
209000000   -2966.8393    3515.3524    13069.258   -1605.2621    8087.4538    313.19846    15580 
210000000   -3057.0829    3501.0712    12964.486   -1618.6585    8176.8126    310.68765    15567 
211000000   -2975.1796    3606.2269    13068.639   -1515.5062    8096.9127    313.18362    15573 
212000000   -2964.7635    3571.2088    12870.113   -1566.0566    8102.0288    308.42604    15588 
213000000    -2885.231    3565.1669    12930.301   -1635.0532    8085.4511    309.86842    15574 
214000000   -3048.2327    3522.0343    12849.706   -1517.8646    8088.1316      307.937    15577 
215000000   -3032.7335     3344.361    13031.152   -1604.1911    7981.2857    312.28526    15594 
216000000    -3056.206    3475.7413     12940.11   -1624.2452    8156.1925    310.10349    15583 
217000000   -2975.9235    3601.3339    12976.923   -1466.2609    8043.5184    310.98571    15550 
218000000   -2927.3701    3475.4474     12853.27   -1611.1085     8013.926    308.02241    15586 
219000000   -3002.5629    3525.8625    12913.878   -1556.6698    8085.0952    309.47486    15569 
220000000   -3073.8353    3469.8084     12947.95   -1625.2878    8168.9315    310.29137    15584 
221000000   -3053.2209    3553.2607    13048.955   -1592.6363    8199.1179    312.71191    15579 
222000000   -2964.5683    3736.5942    13015.668   -1528.2764     8229.439    311.91419    15571 
223000000   -3071.4803    3400.8089    12915.753   -1643.2716    8115.5608    309.51979    15580 
224000000   -3060.4598    3410.9606    12931.625   -1548.5028    8019.9232    309.90016    15580 
225000000   -3049.1294    3471.7712    12965.609   -1591.1281    8112.0286    310.71455    15580 
226000000     -3111.12    3457.4116    12988.571   -1584.3698    8152.9014    311.26483    15569 
227000000   -3006.7191     3607.071    13046.179   -1530.9983    8144.7884    312.64539    15578 
228000000   -3004.3778    3505.1362    12767.658   -1542.5696    8052.0836    305.97076    15566 
229000000   -3049.3331    3706.0782    12962.018   -1481.2003    8236.6116    310.62851    15566 
230000000   -3004.2127    3536.2323    12783.198   -1506.9688    8047.4139    306.34316    15572 
231000000   -2943.4795    3701.1645    12927.488   -1525.8861    8170.5301      309.801    15578 
232000000   -2988.4617    3499.3798    13113.277   -1593.3385    8081.1799    314.25336    15582 
233000000   -2976.4708    3711.5313    12884.708   -1539.4678    8227.4699    308.77582    15574 
234000000   -3087.1406    3535.9357     12962.11   -1523.4337      8146.51    310.63071    15574 
235000000   -2965.4334    3728.3055    12885.612   -1456.6783    8150.4173    308.79748    15569 
236000000   -3005.3546    3681.6286    12900.009   -1490.5305    8177.5137    309.14249    15559 
237000000   -2964.8542    3777.7738    12912.415   -1514.7389    8257.3669    309.43979    15561 
238000000   -2987.7696    3769.8903    13010.196    -1409.003    8166.6629    311.78306    15566 
239000000   -2923.9856    3761.1235      12991.8   -1470.9091    8156.0182    311.34222    15560 
240000000   -3042.7886    3667.7142    12934.724    -1495.331    8205.8338    309.97441    15572 
241000000   -3110.7746    3437.3917    12930.223   -1644.0508    8192.2172    309.86655    15584 
242000000   -3013.0631    3524.3323    12932.964   -1572.8931    8110.2884    309.93225    15566 
243000000   -2900.9912    3562.6929    12836.556   -1673.0421    8136.7262    307.62186    15590 
244000000   -2989.2946    3661.0153    12884.361   -1480.9465    8131.2564    308.76749    15574 
245000000   -3055.2094    3582.5803    12959.325   -1496.8675    8134.6573    310.56396    15564 
246000000   -2887.0512    3714.5787    12937.409   -1625.9866    8227.6165    310.03876    15565 
247000000   -2993.7104    3332.6905    12982.879   -1693.7707    8020.1716    311.12842    15576 
248000000   -2974.4366    3564.9124    12972.427   -1631.7464    8171.0954    310.87795    15595 
249000000   -2960.8631    3400.9145    12798.467   -1670.0077    8031.7853    306.70908    15594 
250000000   -2912.0603    3717.0113    13003.972   -1533.5576    8162.6292    311.63392    15583 
251000000   -2950.5437     3653.496    12931.147   -1518.8646    8122.9043    309.88869    15586 
252000000   -2924.7583    3711.5196    12979.382   -1513.1167    8149.3946    311.04463    15571 
253000000   -2927.0699    3618.4597    12948.335   -1533.5413    8079.0709    310.30059    15590 
254000000   -3006.9566    3533.7349    12903.497   -1620.3443    8161.0358    309.22607    15584 
255000000   -2951.6618     3590.955     12784.33   -1578.1417    8120.7586    306.37029    15575 
256000000   -2906.8101    3609.9008     13087.93   -1609.3211     8126.032    313.64592    15584 
257000000   -2945.6976    3629.1292    12849.815   -1522.8075    8097.6343    307.93961    15573 
258000000   -2940.7954      3683.76    12887.439   -1568.4089    8192.9643    308.84125    15561 
259000000    -2944.116    3639.4885    12888.256   -1590.5524    8174.1569    308.86084    15593 
260000000   -2890.0488    3726.6275    13067.842    -1600.043    8216.7193    313.16452    15575 
261000000   -2960.9906     3600.167    12792.971   -1652.0839    8213.2415    306.57739    15589 
262000000   -2946.5012    3543.6897    12870.069   -1566.8121     8057.003    308.42499    15568 
263000000   -3001.8071    3619.9356    13061.556   -1609.3623     8231.105    313.01388    15579 
264000000   -2980.9132    3621.7366    12924.692   -1574.7547    8177.4045    309.73402    15570 
265000000   -2880.3414    3688.8739    12987.874   -1531.5399    8100.7551    311.24814    15588 
266000000   -3007.2124     3592.165    12882.088   -1601.0144    8200.3918    308.71302    15589 
267000000   -2850.8702    3602.6092    12968.198   -1574.3682    8027.8476     310.7766    15578 
268000000    -2972.563    3544.2977    12799.214   -1628.3425    8145.2032    306.72698    15587 
269000000   -3004.4779    3625.3019    12795.828   -1563.9819    8193.7618    306.64585    15574 
270000000   -2989.3117    3580.4646    13070.415    -1583.633    8153.4093    313.22618    15582 
271000000   -2966.6972    3642.1587     12869.65   -1633.6981    8242.5541    308.41494    15584 
272000000   -2908.8929    3663.7459    12837.712   -1563.2576    8135.8964    307.64958    15587 
273000000   -3002.1869     3422.105    12941.647   -1682.4097    8106.7016    310.14033    15570 
274000000   -2915.9849    3697.0613    12858.195   -1598.9678    8212.0139    308.14044    15571 
275000000    -2927.757    3736.3359    12839.718    -1426.119     8090.212    307.69763    15551 
276000000    -2972.508    3616.7007    12903.742   -1588.5947    8177.8033    309.23194    15572 
277000000   -3049.6164    3543.6631    12995.004   -1513.1171    8106.3967    311.41901    15575 
278000000   -2934.5746    3708.3842      12953.2   -1531.2256    8174.1844     310.4172    15569 
279000000   -2930.7013    3589.2886    12944.639   -1590.6351     8110.625    310.21202    15589 
280000000   -2919.4115     3742.174    12889.589    -1448.012    8109.5975    308.89277    15564 
281000000   -2906.4761    3733.8603    12908.742   -1515.8357    8156.1721    309.35177    15585 
282000000   -3099.5522    3607.8754    13070.312   -1468.6105    8176.0381    313.22372    15563 
283000000   -2962.1535    3733.7843    13081.962   -1395.8198    8091.7576     313.5029    15560 
284000000   -2950.6333    3723.6107    12857.596    -1552.919    8227.1629    308.12609    15564 
285000000   -2844.3099    3721.6468    12846.543   -1589.6743     8155.631    307.86119    15567 
286000000   -2880.9102    3544.3994    13116.648   -1598.3462    8023.6558    314.33414    15579 
287000000   -2892.5879     3766.049    12926.819   -1466.3844    8125.0213    309.78499    15583 
288000000   -3062.6038    3614.2404    12851.451   -1575.9519     8252.796    307.97881    15563 
289000000   -3124.4457    3498.3883    12919.227   -1594.2848    8217.1187    309.60304    15569 
290000000   -2975.6946    3566.7788    12887.428   -1543.3781    8085.8515      308.841    15578 
291000000   -3014.6385    3718.0491    12964.958   -1529.1328    8261.8205    310.69895    15583 
292000000   -3016.8589    3521.0418    13167.527   -1519.2198    8057.1205    315.55343    15589 
293000000   -2920.4715    3652.1122    12982.563   -1554.9169    8127.5006    311.12085    15584 
294000000   -3087.4898    3397.0757    12781.902   -1638.6468    8123.2123    306.31211    15582 
295000000   -3004.1834    3653.1554    13011.903   -1577.6741    8235.0128    311.82397    15580 
296000000   -3037.8788    3454.4251    12800.289   -1652.8916    8145.1954    306.75275    15585 
297000000   -3006.7136    3593.3641    12987.561   -1472.5397    8072.6175    311.24064    15585 
298000000   -2874.0058    3520.8262    12724.502   -1685.2855    8080.1175    304.93654    15598 
299000000   -3001.6683    3643.2958    12957.502    -1547.859    8192.8231    310.52028    15566 
300000000   -3003.7032    3681.9925    12977.705   -1455.9571    8141.6529    311.00443    15576 
301000000   -2998.1646     3451.853    13070.132   -1640.4416    8090.4592     313.2194    15580 
302000000   -3077.2349    3258.6848    13054.505   -1628.0177    7963.9374    312.84492    15584 
303000000   -3132.7093    3416.3627    12909.523   -1644.4064    8193.4785     309.3705    15582 
304000000   -2977.4782    3574.5374    12828.605   -1514.1794    8066.1951    307.43132    15591 
305000000   -3030.3636    3602.0193    13117.968   -1657.0033    8289.3862    314.36577    15587 
306000000    -3023.352    3505.5441    12891.442   -1665.7743    8194.6703    308.93718    15591 
307000000   -3143.0656    3501.1187    12939.817   -1565.8226    8210.0069    310.09647    15579 
308000000   -3086.1513    3357.0898    13028.591    -1609.863    8053.1041     312.2239    15598 
309000000   -3044.8242    3529.2097     12879.71    -1514.114    8088.1479    308.65604    15592 
310000000   -3017.8148    3389.0716    12918.079   -1663.0527    8069.9391    309.57552    15579 
311000000    -2994.014    3631.3701    12864.562   -1607.9398     8233.324    308.29303    15589 
312000000   -3080.8577    3625.6519    12942.469   -1496.5222    8203.0317    310.16003    15556 
313000000   -2950.9441    3626.1933    12915.856   -1543.9601    8121.0976    309.52226    15572 
314000000    -3001.831    3516.7184    12974.474   -1518.1608    8036.7102      310.927    15576 
315000000   -3037.8913    3479.7559    12831.253   -1576.7464    8094.3936    307.49478    15575 
316000000     -3021.72    3618.5305    12917.129   -1579.3875     8219.638    309.55277    15580 
317000000   -3020.9608    3599.3756    12981.932   -1498.6035    8118.9399    311.10575    15571 
318000000   -3019.9139    3618.9905    12818.158   -1536.7245    8175.6289    307.18096    15575 
319000000   -3085.6732    3482.5604    12945.823   -1575.5055    8143.7391    310.24039    15588 
320000000   -2974.7604    3632.6483    12962.059   -1485.3829    8092.7916    310.62949    15585 
321000000   -3036.9199    3619.8556    12848.012   -1523.2886    8180.0641     307.8964    15571 
322000000   -3010.5303    3727.6329    12816.328   -1501.4289    8239.5921    307.13711    15554 
323000000   -3016.5386    3498.2956     12809.19   -1592.4759    8107.3101    306.96606    15574 
324000000   -3103.7315    3508.6212    12811.543   -1543.9548    8156.3075    307.02244    15571 
325000000   -2980.5726    3737.2142     13070.66   -1512.0023    8229.7891    313.23205    15567 
326000000   -3041.1383    3697.5263    12924.431   -1455.1388    8193.8035    309.72775    15566 
327000000   -3027.3554    3657.7905    12916.152   -1534.7318    8219.8777    309.52935    15585 
328000000   -2957.7031    3600.0633     12899.54   -1610.3223    8168.0887    309.13124    15574 
329000000   -2975.9035     3631.929    12973.942   -1503.5471    8111.3795    310.91426    15561 
330000000   -3064.0967    3528.8193    13042.833   -1568.3068    8161.2228    312.56519    15587 
331000000   -3027.1561    3470.4281    12841.249   -1695.5556    8193.1398    307.73434    15586 
332000000   -3145.5986    3609.2343     12918.08   -1478.8714    8233.7043    309.57556    15571 
333000000   -3026.0771    3504.0328    13110.225   -1655.2463    8185.3563    314.18021    15578 
334000000    -3040.613     3656.469    12822.334   -1486.0105    8183.0925    307.28104    15560 
335000000   -2968.8336    3521.0766     12898.09    -1643.136    8133.0461    309.09651    15587 
336000000   -3022.9845    3654.0709    13026.575   -1609.3745    8286.4298    312.17559    15592 
337000000   -3052.4895    3660.5903    13023.417   -1558.8291     8271.909    312.09989    15590 
338000000   -3015.3574    3528.1172    12904.307   -1566.1932    8109.6678     309.2455    15579 
339000000   -2926.5481     3596.633    13097.617   -1531.7098     8054.891    313.87806    15590 
340000000   -2901.6347    3668.8449    13117.236   -1502.0685     8072.548    314.34823    15565 
341000000   -3088.3414    3523.8091    12955.315   -1498.0151    8110.1656    310.46787    15586 
342000000   -3026.9226    3556.9036     12901.36   -1508.6598     8092.486    309.17487    15577 
343000000   -3007.0072    3696.3173    12882.132   -1527.7427    8231.0672    308.71407    15575 
344000000   -3043.4172     3582.214     13032.38   -1511.3161    8136.9473    312.31471    15560 
345000000   -3116.2653    3426.7695    12870.833   -1563.2037    8106.2384    308.44331    15572 
346000000   -3129.2504    3668.5874    12945.243   -1380.7816    8178.6194     310.2265    15565 
347000000   -2967.1387    3508.8058    13128.915   -1585.5158    8061.4604     314.6281    15590 
348000000   -3061.6971    3524.3113    12855.199   -1512.1101    8098.1184    308.06863    15580 
349000000    -3074.839    3472.2424    12929.015   -1654.3447    8201.4262    309.83761    15592 
350000000    -3029.508    3470.2389    12968.756   -1639.3811     8139.128    310.78998    15580 
351000000    -3067.915     3572.147    12899.183   -1511.3952    8151.4572    309.12269    15570 
352000000   -3092.7171    3425.3628    12839.526   -1586.8271    8104.9069    307.69305    15576 
353000000   -2916.7148    3656.9227    13144.301   -1637.7223    8211.3598    314.99683    15577 
354000000   -2961.0554    3660.8121    12660.949   -1570.9952    8192.8627    303.41352    15583 
355000000   -3072.6059     3548.769    12847.941   -1480.9465    8102.3213    307.89471    15552 
356000000   -2940.7877    3642.3372    12815.722   -1533.9112     8117.036    307.12258    15560 
357000000   -2951.8057    3538.3511    13044.139   -1565.0878    8055.2446     312.5965    15568 
358000000   -3006.9949    3624.9466    12999.679    -1508.313    8140.2544    311.53103    15582 
359000000   -2998.4525    3554.3832    12930.896   -1474.8163     8027.652    309.88267    15564 
360000000   -2935.5092    3575.0742     12937.37   -1610.4938    8121.0773    310.03782    15561 
361000000   -3015.4604    3458.9915    13004.924   -1686.7276    8161.1795    311.65673    15589 
362000000   -3068.2209      3490.49     12861.97   -1605.8706    8164.5814    308.23091    15584 
363000000    -3102.834    3492.5599    12847.624   -1507.6185    8103.0125     307.8871    15555 
364000000   -3003.1902    3499.8754     13055.99   -1583.7855    8086.8511     312.8805    15581 
365000000   -2983.7946    3812.7123    12906.282   -1391.6445    8188.1515    309.29281    15546 
366000000   -2968.8028    3624.0486    12980.845   -1653.0465    8245.8979    311.07968    15591 
367000000   -2970.3673    3513.0312    12943.767   -1583.3871    8066.7857    310.19113    15580 
368000000   -2993.3316    3481.5441    12989.953   -1628.8611    8103.7368    311.29794    15571 
369000000   -3000.6137    3738.3733    12770.941   -1427.0936    8166.0805    306.04943    15565 
370000000   -3012.1482    3777.5658    12884.549   -1469.1172    8258.8313    308.77199    15568 
371000000   -2969.9435    3672.8383     12878.97   -1494.0659    8136.8477     308.6383    15566 
372000000   -2908.9889    3571.2051    12963.939   -1567.2029    8047.3969    310.67455    15564 
373000000   -3070.0622    3462.3955    12890.836   -1575.8513     8108.309    308.92266    15572 
374000000   -2924.3355    3754.4293    13088.548   -1531.1762     8209.941    313.66072    15582 
375000000   -2969.0133    3637.2293    12949.234    -1558.219    8164.4615    310.32215    15582 
376000000   -2954.5515    3701.1226    12722.824   -1481.2891    8136.9631    304.89633    15583 
377000000    -2916.574    3711.3333    12838.973   -1566.7624    8194.6697    307.67979    15584 
378000000    -2904.885    3678.1453    12883.426   -1503.1645    8086.1948    308.74509    15567 
379000000   -3050.8311    3746.2056     12944.86   -1552.8407    8349.8773    310.21733    15591 
380000000   -3023.8157    3556.5835    12865.114   -1560.5605    8140.9596    308.30626    15572 
381000000   -2898.1258    3531.4243    12965.243   -1597.2584    8026.8085     310.7058    15587 
382000000   -3045.3964    3525.6743    12994.398   -1604.5763     8175.647    311.40448    15583 
383000000   -2948.8751    3493.6637    13045.139   -1674.4598    8116.9986    312.62045    15576 
384000000    -3129.917    3486.4269    13052.701   -1572.1812     8188.525    312.80168    15568 
385000000   -2977.2817    3576.3227    12994.622   -1576.7361    8130.3406    311.40984    15581 
386000000   -3014.1046    3598.5945     12961.31   -1473.7777    8086.4768    310.61154    15580 
387000000   -3000.2989    3593.5776      13007.4   -1514.3111    8108.1875    311.71606    15576 
388000000   -2998.0156    3573.7245    13001.485   -1567.4936    8139.2337    311.57431    15582 
389000000   -3040.3516    3599.6314    12962.211   -1487.0796    8127.0626    310.63314    15564 
390000000   -3004.6134     3755.244    12911.014   -1430.4312    8190.2886    309.40622    15553 
391000000   -2942.9355    3476.9918    12917.382   -1755.2234    8175.1508    309.55882    15590 
392000000    -3014.861    3584.1066    12978.994   -1568.5524    8167.5199    311.03533    15582 
393000000   -2955.5825    3454.0312    12899.173     -1610.41    8020.0237    309.12245    15585 
394000000   -3089.0919    3384.7944    12875.404   -1650.2237    8124.1101    308.55284    15579 
395000000   -2923.7841    3684.6039    12822.221   -1565.6171    8174.0051    307.27832    15550 
396000000   -2972.9193    3545.0367    12977.795   -1556.6403    8074.5963    311.00659    15580 
397000000   -3009.7338    3656.4443    13001.479    -1530.777    8196.9551    311.57417    15568 
398000000    -3004.178    3545.9624    12995.727   -1605.7365    8155.8769    311.43633    15575 
399000000   -3024.8256    3642.9813    13084.957   -1523.6428    8191.4496    313.57469    15567 
400000000   -2901.4464    3653.8078     12954.14   -1571.4632    8126.7173    310.43971    15581 
Loop time of 133218 on 28 procs for 400000000 steps with 14000 atoms

Performance: 6485.612 ns/day, 0.004 hours/ns, 3002.598 timesteps/s
99.5% CPU use with 28 MPI tasks x no OpenMP threads

MPI task timing breakdown:
Section |  min time  |  avg time  |  max time  |%varavg| %total
---------------------------------------------------------------
Pair    | 14555      | 18101      | 22263      |1248.7 | 13.59
Bond    | 4666       | 5632.7     | 9014.2     |1921.8 |  4.23
Neigh   | 45927      | 46476      | 47180      | 163.1 | 34.89
Comm    | 32440      | 38757      | 43751      |1356.1 | 29.09
Output  | 0.6072     | 0.60822    | 0.60878    |   0.0 |  0.00
Modify  | 18370      | 18496      | 18612      |  58.9 | 13.88
Other   |            | 5755       |            |       |  4.32

Nlocal:    500 ave 544 max 460 min
Histogram: 1 1 3 6 6 3 3 3 0 2
Nghost:    699.964 ave 1058 max 464 min
Histogram: 4 5 4 1 4 2 3 4 0 1
Neighs:    5271.93 ave 6641 max 3830 min
Histogram: 2 3 1 2 6 4 1 4 3 2

Total # of neighbors = 147614
Ave neighs/atom = 10.5439
Ave special neighs/atom = 8.16357
Neighbor list builds = 79928390
Dangerous builds = 0
System init for write_restart ...
Total wall time: 37:00:22
