LAMMPS (5 Jun 2019)
Reading restart file ...
  restart file = 5 Jun 2019, LAMMPS = 5 Jun 2019
  restoring atom style full from restart
  orthogonal box = (-420 -420 -420) to (420 420 420)
  2 by 2 by 7 MPI processor grid
  restoring pair style lj/cut from restart
  restoring bond style hybrid from restart
  restoring angle style cosine from restart
  14000 atoms
  15571 bonds
  13600 angles
Finding 1-2 1-3 1-4 neighbors ...
  special bond factors lj:   0          1          1         
  special bond factors coul: 0          0          0         
  3 = max # of 1-2 neighbors
  6 = max # of 1-3 neighbors
  17 = max # of 1-4 neighbors
  56 = max # of special neighbors
  special bonds CPU = 0.539354 secs
  read_restart CPU = 0.623574 secs
Finding 1-2 1-3 1-4 neighbors ...
  special bond factors lj:   0          1          1         
  special bond factors coul: 0          0          0         
  3 = max # of 1-2 neighbors
  6 = max # of 1-3 neighbors
  17 = max # of 1-4 neighbors
  38160 = # of 1-3 neighbors before angle trim
  27200 = # of 1-3 neighbors after angle trim
  56 = max # of special neighbors
  special bonds CPU = 0.00305224 secs
Neighbor list info ...
  update every 1 steps, delay 1 steps, check yes
  max neighbors/atom: 2000, page size: 100000
  master list distance cutoff = 26.9
  ghost atom cutoff = 26.9
  binsize = 13.45, bins = 63 63 63
  1 neighbor lists, perpetual/occasional/extra = 1 0 0
  (1) pair lj/cut, perpetual
      attributes: half, newton on
      pair build: half/bin/newton
      stencil: half/bin/3d/newton
      bin: standard
Setting up Verlet run ...
  Unit style    : real
  Current step  : 400000000
  Time step     : 0.1
Per MPI rank memory allocation (min/avg/max) = 1.103 | 7.638 | 16.78 Mbytes
Step Temp E_pair E_mol TotEng Press 
400000000    311.44352   -3016.6069    6549.0978    16528.518  0.026929234 
400010000    310.68426   -3023.6609    6599.8152    16540.499 -0.010960905 
Loop time of 6.44491 on 28 procs for 10000 steps with 14000 atoms

Performance: 13.406 ns/day, 1.790 hours/ns, 1551.612 timesteps/s
99.6% CPU use with 28 MPI tasks x no OpenMP threads

MPI task timing breakdown:
Section |  min time  |  avg time  |  max time  |%varavg| %total
---------------------------------------------------------------
Pair    | 0.00036855 | 0.42349    | 3.3351     | 135.0 |  6.57
Bond    | 0.00054054 | 0.11565    | 0.73721    |  58.9 |  1.79
Neigh   | 0.027555   | 0.029167   | 0.032158   |   1.0 |  0.45
Comm    | 0.0022224  | 2.3965     | 4.6571     | 123.2 | 37.18
Output  | 8.1136e-05 | 0.0004748  | 0.00094152 |   0.0 |  0.01
Modify  | 0.00098857 | 0.25156    | 1.5738     |  85.7 |  3.90
Other   |            | 3.228      |            |       | 50.09

Nlocal:    500 ave 3253 max 0 min
Histogram: 18 5 1 0 1 0 1 0 0 2
Nghost:    449.286 ave 2346 max 0 min
Histogram: 14 5 2 3 1 1 0 1 0 1
Neighs:    5435.64 ave 38329 max 0 min
Histogram: 20 3 1 1 0 1 0 0 0 2

Total # of neighbors = 152198
Ave neighs/atom = 10.8713
Ave special neighs/atom = 7.49257
Neighbor list builds = 8
Dangerous builds = 0
4000 atoms in group rxnSites
Neighbor list info ...
  update every 1 steps, delay 1 steps, check yes
  max neighbors/atom: 2000, page size: 100000
  master list distance cutoff = 26.9
  ghost atom cutoff = 26.9
  binsize = 13.45, bins = 63 63 63
  2 neighbor lists, perpetual/occasional/extra = 1 1 0
  (1) pair lj/cut, perpetual
      attributes: half, newton on
      pair build: half/bin/newton
      stencil: half/bin/3d/newton
      bin: standard
  (2) fix bond/create/random, occasional, copy from (1)
      attributes: half, newton on
      pair build: copy
      stencil: none
      bin: none
Setting up Verlet run ...
  Unit style    : real
  Current step  : 0
  Time step     : 25
Per MPI rank memory allocation (min/avg/max) = 17.8 | 18.24 | 19.69 Mbytes
Step E_pair PotEng KinEng E_bond E_angle Temp Bonds 
       0   -3023.6609    3576.1543    12964.345   -1556.3563    8156.1715    310.68426    15571 
 1000000    -3076.791     3403.075    12891.399   -1601.5545    8081.4205    308.93616    15571 
