LAMMPS (5 Jun 2019)
Reading restart file ...
  restart file = 5 Jun 2019, LAMMPS = 5 Jun 2019
  restoring atom style full from restart
  orthogonal box = (-420 -420 -420) to (420 420 420)
  2 by 2 by 7 MPI processor grid
  restoring pair style lj/cut from restart
  restoring bond style hybrid from restart
  restoring angle style cosine from restart
  14000 atoms
  15571 bonds
  13600 angles
Finding 1-2 1-3 1-4 neighbors ...
  special bond factors lj:   0          1          1         
  special bond factors coul: 0          0          0         
  3 = max # of 1-2 neighbors
  6 = max # of 1-3 neighbors
  17 = max # of 1-4 neighbors
  56 = max # of special neighbors
  special bonds CPU = 0.874687 secs
  read_restart CPU = 1.00344 secs
Finding 1-2 1-3 1-4 neighbors ...
  special bond factors lj:   0          1          1         
  special bond factors coul: 0          0          0         
  3 = max # of 1-2 neighbors
  6 = max # of 1-3 neighbors
  17 = max # of 1-4 neighbors
  38160 = # of 1-3 neighbors before angle trim
  27200 = # of 1-3 neighbors after angle trim
  56 = max # of special neighbors
  special bonds CPU = 0.00360808 secs
Neighbor list info ...
  update every 1 steps, delay 1 steps, check yes
  max neighbors/atom: 2000, page size: 100000
  master list distance cutoff = 26.9
  ghost atom cutoff = 26.9
  binsize = 13.45, bins = 63 63 63
  1 neighbor lists, perpetual/occasional/extra = 1 0 0
  (1) pair lj/cut, perpetual
      attributes: half, newton on
      pair build: half/bin/newton
      stencil: half/bin/3d/newton
      bin: standard
Setting up Verlet run ...
  Unit style    : real
  Current step  : 400000000
  Time step     : 0.1
Per MPI rank memory allocation (min/avg/max) = 1.103 | 7.638 | 16.78 Mbytes
Step Temp E_pair E_mol TotEng Press 
400000000    311.44352   -3016.6069    6549.0978    16528.518  0.026929234 
400010000    310.68426   -3023.6609    6599.8152    16540.499 -0.010960905 
Loop time of 6.90643 on 28 procs for 10000 steps with 14000 atoms

Performance: 12.510 ns/day, 1.918 hours/ns, 1447.926 timesteps/s
99.4% CPU use with 28 MPI tasks x no OpenMP threads

MPI task timing breakdown:
Section |  min time  |  avg time  |  max time  |%varavg| %total
---------------------------------------------------------------
Pair    | 0.00034328 | 0.41562    | 3.2396     | 133.3 |  6.02
Bond    | 0.00055376 | 0.11346    | 0.75511    |  58.5 |  1.64
Neigh   | 0.026894   | 0.028805   | 0.032033   |   1.1 |  0.42
Comm    | 0.0027313  | 2.6261     | 4.978      | 124.1 | 38.02
Output  | 0.00015467 | 0.00053234 | 0.00099    |   0.0 |  0.01
Modify  | 0.00095359 | 0.24636    | 1.606      |  85.2 |  3.57
Other   |            | 3.476      |            |       | 50.32

Nlocal:    500 ave 3253 max 0 min
Histogram: 18 5 1 0 1 0 1 0 0 2
Nghost:    449.286 ave 2346 max 0 min
Histogram: 14 5 2 3 1 1 0 1 0 1
Neighs:    5435.64 ave 38329 max 0 min
Histogram: 20 3 1 1 0 1 0 0 0 2

Total # of neighbors = 152198
Ave neighs/atom = 10.8713
Ave special neighs/atom = 7.49257
Neighbor list builds = 8
Dangerous builds = 0
4000 atoms in group rxnSites
Neighbor list info ...
  update every 1 steps, delay 1 steps, check yes
  max neighbors/atom: 2000, page size: 100000
  master list distance cutoff = 26.9
  ghost atom cutoff = 26.9
  binsize = 13.45, bins = 63 63 63
  2 neighbor lists, perpetual/occasional/extra = 1 1 0
  (1) pair lj/cut, perpetual
      attributes: half, newton on
      pair build: half/bin/newton
      stencil: half/bin/3d/newton
      bin: standard
  (2) fix bond/create/random, occasional, copy from (1)
      attributes: half, newton on
      pair build: copy
      stencil: none
      bin: none
Setting up Verlet run ...
  Unit style    : real
  Current step  : 0
  Time step     : 25
Per MPI rank memory allocation (min/avg/max) = 17.8 | 18.24 | 19.69 Mbytes
Step E_pair PotEng KinEng E_bond E_angle Temp Bonds 
       0   -3023.6609    3576.1543    12964.345   -1556.3563    8156.1715    310.68426    15571 
 1000000   -2977.8084    3521.0656    12971.081   -1540.7839    8039.6578     310.8457    15589 
 2000000   -3064.2817    3575.9233    12941.534   -1470.3073    8110.5123    310.13761    15559 
 3000000   -2990.7108    3476.7262    12972.887   -1712.6661    8180.1031    310.88898    15579 
 4000000   -3019.0008      3650.43    13052.206   -1472.4074    8141.8382    312.78981    15574 
 5000000   -3126.7449    3529.6861    12943.415    -1543.347    8199.7779    310.18269    15597 
 6000000   -2976.4451    3476.5373    13010.056   -1645.5378    8098.5201    311.77971    15578 
 7000000   -3096.4424    3439.9329    12824.388   -1597.4411    8133.8164    307.33028    15583 
 8000000   -2947.4116    3449.4133    12843.036   -1655.9186    8052.7436    307.77715    15577 
 9000000   -3039.1092    3553.7782    12887.735   -1614.0441    8206.9315    308.84835    15602 
10000000   -2924.1633    3608.6971     12759.23   -1633.7042    8166.5645    305.76879    15593 
11000000    -3049.811    3602.1683    12719.027   -1505.7428     8157.722    304.80535    15569 
12000000   -3027.5739    3534.7442    12917.868   -1532.2505    8094.5686    309.57046    15557 
13000000   -3038.0339    3610.0574    13043.068    -1537.767    8185.8583    312.57083    15580 
14000000   -2980.9493      3691.19      12923.5   -1513.5302    8185.6695    309.70545    15580 
15000000   -3136.4095     3327.196    13020.739   -1741.4659    8205.0714    312.03573    15591 
16000000   -2994.8575    3473.5751    12912.685   -1556.3893    8024.8219    309.44627    15576 
17000000   -2951.6795    3500.5317     13014.76   -1616.7561    8068.9674    311.89245    15587 
18000000   -2946.4136    3724.6961    13043.452   -1494.4736    8165.5833    312.58003    15563 
19000000   -2859.4213    3713.0849    12858.104   -1502.9257    8075.4318    308.13826    15569 
20000000   -2967.0979    3667.6944    12807.941   -1551.1928    8185.9852    306.93613    15581 
21000000   -2860.6923    3596.6319    12996.817   -1626.6944    8084.0185    311.46244    15576 
22000000   -2988.4853    3467.8349    12826.164   -1559.5477    8015.8679    307.37282    15570 
23000000   -2944.0502    3674.4792    13033.733    -1538.867    8157.3964    312.34712    15584 
24000000   -2935.3401    3693.8881    12824.582   -1472.5168    8101.7451    307.33492    15564 
25000000   -3088.0723    3586.9931    13073.161   -1542.2089    8217.2744    313.29199    15573 
26000000   -3044.9388    3446.8056    13031.483   -1663.6112    8155.3556     312.2932    15586 
27000000   -3056.6461    3488.8424    12967.199   -1566.7232    8112.2116    310.75266    15571 
28000000   -2966.4334    3730.7024    12865.241   -1558.8417    8255.9775    308.30929    15594 
29000000   -3051.5971    3602.3637     12944.83    -1531.927    8185.8878    310.21661    15566 
30000000   -2977.2248     3543.872    12958.903   -1650.6599    8171.7567    310.55385    15593 
31000000   -2977.9297    3500.7342    12588.649   -1666.3035    8144.9674     301.6809    15577 
32000000   -3031.1363    3518.3634    12823.568   -1594.4868    8143.9864    307.31062    15564 
33000000   -3099.2063    3667.6164    12946.339   -1479.9497    8246.7725    310.25276    15559 
34000000   -3025.7918    3657.6606    12969.159    -1476.983    8160.4354    310.79964    15570 
35000000    -2968.173    3609.1958    12931.213   -1519.3656    8096.7344    309.89029    15562 
36000000   -2999.9348    3633.7989    12945.553   -1615.1735    8248.9072    310.23393    15576 
37000000   -2980.6109    3559.6488    12896.232   -1558.9353     8099.195    309.05198    15559 
38000000   -3028.3321    3504.2386     12913.55   -1568.7408    8101.3114    309.46699    15577 
39000000   -2998.1368    3643.9596    12994.691   -1555.6093    8197.7057     311.4115    15563 
40000000   -2988.3226    3600.0619    12951.774   -1495.3322    8083.7168    310.38302    15574 
41000000   -3001.1161    3500.7334    12905.696   -1603.4318    8105.2812    309.27877    15559 
42000000    -3052.654    3493.4785    13029.353   -1575.1929    8121.3254    312.24216    15560 
43000000   -2993.6694    3548.9533    13036.293   -1670.6274    8213.2501    312.40848    15565 
44000000   -3027.8088    3532.8655    12909.241   -1535.5518    8096.2262    309.36373    15567 
45000000   -3030.4112    3685.6078    12998.164   -1503.5948    8219.6137    311.49473    15575 
46000000   -2982.4371    3716.3734    13037.749   -1499.6668    8198.4773    312.44336    15574 
47000000   -2879.8689    3750.6284    13015.817    -1596.601    8227.0983    311.91776    15580 
48000000    -2934.146    3736.4282    12684.948   -1560.4462    8231.0204    303.98867    15582 
49000000   -3033.9826    3621.3308    12857.099   -1506.7534    8162.0668    308.11416    15586 
50000000   -3037.4965    3578.7059    12907.727   -1553.0197     8169.222    309.32745    15583 
51000000   -2949.1748    3606.3488     12977.15   -1582.8146    8138.3382    310.99113    15571 
52000000   -3082.6873    3718.8694    12923.288   -1526.3024    8327.8591    309.70036    15574 
53000000   -2998.4748    3477.3153    12872.021    -1640.447    8116.2371    308.47177    15587 
54000000   -2926.3316    3609.8347    12730.481   -1504.2066    8040.3729    305.07983    15584 
55000000   -3001.3003    3680.2796    12869.848    -1525.251    8206.8309    308.41971    15575 
56000000   -2969.2832    3716.2342    12851.908   -1471.9864    8157.5037    307.98978    15570 
57000000   -2985.7475    3474.6692    12928.864   -1610.1629    8070.5796    309.83398    15586 
58000000   -2969.5477    3605.6308    12920.759   -1491.9846    8067.1631    309.63975    15562 
59000000   -3071.7402    3467.4823    12941.563   -1488.9708    8028.1933     310.1383    15574 
60000000   -2985.9526    3575.3481    12811.762   -1582.1456    8143.4464    307.02769    15580 
61000000   -3094.9496    3331.3907    13048.184   -1665.5454    8091.8857    312.69343    15577 
62000000   -3022.5521    3389.2397    12698.748   -1697.0448    8108.8366    304.31935    15579 
63000000   -3075.7944    3665.6524    12801.888   -1367.9226    8109.3695    306.79107    15567 
64000000   -2969.3411    3716.1292    12969.884   -1477.1555    8162.6258    310.81702    15570 
65000000   -2931.1269    3602.5885    13130.746   -1570.1631    8103.8785    314.67199    15576 
66000000   -3020.0582    3572.9219    12730.104   -1496.4195    8089.3996     305.0708    15578 
67000000   -2991.7237    3395.7704    12980.785   -1658.0999    8045.5941    311.07825    15599 
68000000   -3098.0692    3465.6922    13151.501   -1563.8266    8127.5879    315.16938    15597 
69000000   -2990.0019     3595.746    12822.114    -1634.291     8220.039    307.27577    15579 
70000000    -3025.442    3698.9572    12878.681   -1540.9025    8265.3016    308.63137    15566 
71000000   -2982.8891    3386.7862    12886.541   -1705.6104    8075.2857    308.81973    15582 
72000000   -3001.5403    3736.8216    12920.418   -1478.3422    8216.7041    309.63159    15581 
73000000   -2916.2403    3693.0773    12885.346   -1529.6825         8139     308.7911    15578 
74000000   -3015.3203    3563.0718    13107.819   -1539.3947    8117.7868    314.12255    15586 
75000000   -2961.5773    3691.0834    12950.559   -1488.6182    8141.2789    310.35389    15577 
76000000   -2989.1784    3501.8085     12936.73   -1547.2732    8038.2601    310.02249    15559 
77000000   -3091.1159    3346.4746    12917.551   -1646.8438    8084.4343    309.56286    15589 
78000000   -3008.9125    3480.0153    12903.658   -1668.8804    8157.8083    309.22995    15588 
79000000   -3039.2889    3433.0228    12990.475   -1584.7423     8057.054    311.31046    15559 
80000000   -2972.6889    3464.1806    12869.767   -1634.6458    8071.5153    308.41775    15579 
81000000    -3007.927    3484.0171    12866.278   -1587.9644    8079.9085    308.33415    15567 
82000000   -2917.3136    3699.1164    12984.307   -1587.5695    8203.9995    311.16264    15590 
83000000   -2979.1396    3412.2824    12903.902   -1552.3453    7943.7672    309.23577    15582 
84000000   -2965.8675    3564.8875    12981.451   -1576.5485    8107.3034     311.0942    15587 
85000000   -2981.5663    3363.3531    13079.653   -1686.7992    8031.7186    313.44757    15592 
86000000   -2994.0608    3657.3137    13054.841   -1518.8674     8170.242    312.85296    15581 
87000000   -2978.0924     3560.693    12892.485   -1549.8648    8088.6502    308.96218    15580 
88000000   -3008.0796    3641.8517     12901.78   -1553.2924    8203.2236    309.18493    15570 
89000000   -3013.9434     3540.929    12817.613   -1557.2678    8112.1403     307.1679    15574 
90000000   -2968.3532    3605.9994    13024.608   -1514.8143    8089.1669    312.12845    15582 
91000000   -2914.2911    3573.4071    12923.571   -1646.2999    8133.9981    309.70714    15588 
92000000   -3017.6344    3601.6368    12849.321   -1519.2757    8138.5469    307.92778    15585 
93000000   -2915.5386    3719.0498    12907.482    -1521.517    8156.1054    309.32157    15577 
94000000   -2975.3454    3574.1741    13072.284   -1609.9338    8159.4533    313.27098    15585 
95000000   -3021.7396    3435.7174    12884.892   -1701.0095    8158.4666    308.78021    15580 
96000000   -3009.4294    3566.6654    12818.297   -1532.3543    8108.4491     307.1843    15586 
97000000   -2979.6641    3471.6282    13005.712   -1688.8142    8140.1064    311.67561    15602 
98000000   -3026.0393    3609.9585    12979.666   -1519.2819    8155.2797    311.05143    15583 
99000000   -3008.9717    3539.1296    12909.392   -1578.2153    8126.3165    309.36734    15594 
100000000   -2978.2405    3519.4246    12967.498    -1638.409    8136.0741    310.75984    15601 
101000000     -3078.48    3503.4445    12906.991   -1521.1905     8103.115    309.30981    15566 
102000000   -3017.7685    3692.8372    12984.121   -1531.4509    8242.0565    311.15819    15568 
103000000   -3042.3887    3491.5322    12985.704   -1622.0339    8155.9548    311.19612    15573 
104000000   -3055.0382    3588.6913    12831.942   -1549.0018    8192.7313    307.51129    15595 
105000000   -3091.6809    3533.4991    12930.515   -1560.5099    8185.6899    309.87355    15571 
106000000   -3007.6645    3429.5433    12979.006   -1638.1088    8075.3166    311.03561    15557 
107000000   -2927.3719    3723.7068    12916.219   -1550.8027    8201.8813    309.53094    15566 
108000000   -3040.1943    3423.4725    12947.123   -1594.1144    8057.7812    310.27154    15569 
109000000   -3126.3654    3726.2792    12895.801   -1421.5445    8274.1891    309.04164    15554 
110000000    -3098.331    3509.2703    12899.457    -1587.099    8194.7003    309.12926    15570 
111000000   -3063.8357    3402.7732    12912.413   -1633.6821    8100.2911    309.43974    15582 
112000000   -3006.6617    3761.7651    12896.537   -1571.6393    8340.0661    309.05929    15570 
113000000   -3077.1914    3571.6382    13041.193   -1412.8743    8061.7039    312.52588    15553 
114000000   -2980.5912    3449.7446    13039.667    -1666.081    8096.4168    312.48933    15580 
115000000   -2945.6024    3353.5862    13011.866   -1654.8208    7954.0093    311.82309    15579 
116000000   -3132.1044    3364.7075    12994.739   -1657.6753    8154.4872    311.41265    15579 
117000000    -3093.593    3592.9504    13127.203   -1461.1839    8147.7273    314.58707    15561 
118000000   -2990.2162    3587.1325    12845.675   -1489.6436    8066.9922    307.84039    15573 
119000000    -3037.967    3577.5917    12974.732    -1537.087    8152.6456     310.9332    15564 
120000000    -3039.194    3462.1692    12988.397   -1643.5916    8144.9548    311.26066    15594 
121000000   -2997.4632    3479.2013     12812.99   -1559.2217    8035.8862    307.05712    15580 
122000000     -3053.11    3347.9202    12944.668   -1686.7144    8087.7446    310.21272    15606 
123000000   -3166.8319    3576.8744    12903.045   -1469.0939    8212.8002    309.21524    15564 
124000000    -3091.274     3495.647    12883.319   -1504.8417    8091.7626    308.74252    15562 
125000000   -3008.3601    3447.0406    12922.503   -1606.0649    8061.4656    309.68155    15593 
126000000   -3184.6866    3343.8743    12853.266   -1583.9472    8112.5081    308.02231    15579 
127000000   -3015.1168    3480.9076    12778.302    -1537.676    8033.7003    306.22584    15584 
128000000   -2966.2579    3611.7294    12918.702   -1536.1936     8114.181    309.59046    15586 
129000000   -3023.1579    3765.4854     13023.04    -1478.472    8267.1153    312.09088    15574 
130000000   -3080.5849    3495.6481    12853.581   -1537.4618    8113.6949    308.02987    15577 
131000000   -3087.2155    3498.5363    12861.378   -1540.2631    8126.0149    308.21671    15564 
132000000   -3110.2181    3481.5138    13086.089   -1534.6813    8126.4132    313.60182    15558 
133000000   -3018.8469    3659.7952    12924.155   -1469.9376    8148.5797    309.72114    15569 
134000000   -3018.5702    3469.9504     12794.01   -1610.0591    8098.5797    306.60227    15593 
135000000   -3106.9245    3469.1994    13012.971   -1556.5878    8132.7117    311.84957    15573 
136000000   -2933.0011    3685.8812    12922.819   -1535.7841    8154.6664    309.68911    15565 
137000000   -2992.7731    3780.3383    12979.044   -1411.0408    8184.1522    311.03653    15562 
138000000   -3060.1334    3604.4222    12933.849   -1541.5511    8206.1068    309.95346    15580 
139000000   -3001.7538    3476.8348    12834.923   -1615.6222    8094.2108    307.58274    15582 
140000000   -2974.0491    3429.6786    12954.026   -1620.8177    8024.5454    310.43698    15592 
141000000   -2912.2301    3595.6176    12937.607   -1590.9897    8098.8375    310.04351    15592 
142000000   -2966.2139    3529.4885    12769.482   -1679.2813    8174.9838    306.01447    15577 
143000000    -2885.818    3753.6332    12871.339   -1533.0717    8172.5229    308.45543    15571 
144000000   -3019.0173    3523.9724    12868.862    -1586.973    8129.9627    308.39608    15570 
145000000   -2942.4718    3548.8428    13154.329   -1684.8906    8176.2051    315.23715    15588 
146000000   -2844.5201    3820.9764    12962.096    -1541.279    8206.7754    310.63037    15586 
147000000   -2856.5704    3543.0597    13029.572   -1752.2158     8151.846    312.24741    15588 
148000000   -2997.2063    3676.1819    13011.749   -1577.8994    8251.2876    311.82029    15596 
149000000    -2948.049    3640.9236     13022.07   -1598.9942    8187.9668    312.06762    15595 
150000000   -2902.8923    3742.1533    12869.077   -1517.4162    8162.4617    308.40123    15580 
151000000   -2951.1681     3623.419    13139.564   -1589.1069     8163.694     314.8833    15566 
152000000   -2927.7042    3669.8737    12875.937   -1523.7236    8121.3015    308.56561    15577 
153000000   -3002.8865    3557.6943    12950.936   -1619.4128    8179.9937    310.36292    15572 
154000000    -2955.906    3621.5856    12912.089   -1528.1537    8105.6453    309.43197    15575 
155000000   -3045.6416    3541.9577    12845.109   -1466.8972    8054.4965    307.82685    15565 
156000000   -2955.8632    3865.2023    12840.234   -1394.2021    8215.2677    307.71002    15551 
157000000   -2939.8497    3725.6861    12763.496   -1490.5667    8156.1025    305.87101    15569 
158000000   -3098.9106    3630.6325    12881.839   -1542.9148    8272.4579    308.70705    15577 
159000000   -2976.1805    3513.6395    12889.261    -1688.724     8178.544    308.88491    15595 
160000000   -2924.3598    3604.4892    12834.887   -1591.1985    8120.0474    307.58186    15575 
161000000   -2992.0314    3630.2281    12828.357   -1587.5806    8209.8401    307.42539    15584 
162000000   -3024.4194    3632.3135    12853.213   -1509.5354    8166.2683    308.02105    15580 
163000000   -3001.5973    3557.0509    12893.564   -1565.9396    8124.5879    308.98804    15574 
164000000   -3103.1728    3481.0787     12880.56   -1535.5792    8119.8307    308.67641    15573 
165000000   -3008.8809    3540.7869    12803.458   -1584.9465    8134.6143    306.82869    15584 
166000000   -3000.2722    3453.7947    12871.073   -1603.4333    8057.5002    308.44904    15584 
167000000   -2957.2407    3614.9598     12786.51   -1545.9256    8118.1261    306.42253    15573 
168000000   -3050.5357    3472.0937    12933.767   -1603.0483    8125.6777    309.95148    15580 
169000000   -3004.4612    3577.4654    13109.816   -1597.0445    8178.9711     314.1704    15590 
170000000   -3095.5325    3451.4759    12949.948   -1579.9353    8126.9437    310.33926    15589 
171000000   -2930.0857    3616.6557    12892.475   -1661.8107    8208.5522    308.96193    15585 
172000000   -2941.7056    3674.6045    12907.895   -1546.6079     8162.918    309.33148    15569 
173000000   -3024.6919    3624.2544    12874.697   -1499.8232    8148.7695     308.5359    15576 
174000000   -2993.4343    3515.6919    12925.467   -1575.5652    8084.6913    309.75258    15581 
175000000   -2949.4205    3515.3253    12991.848   -1631.0776    8095.8234    311.34337    15604 
176000000   -3058.6746    3592.6454    12821.988   -1523.1637    8174.4837    307.27276    15582 
177000000   -2938.9446    3559.6808    12941.298   -1631.0094    8129.6348    310.13195    15581 
178000000   -2849.8457    3592.6824    12787.048   -1674.5426    8117.0707    306.43543    15580 
179000000   -3048.9759    3586.2602    12766.202   -1574.3374    8209.5736    305.93587    15581 
180000000   -3001.9508    3738.4387    12891.106   -1479.5316    8219.9212    308.92914    15597 
181000000   -2927.3292    3732.3698    12886.261    -1463.354     8123.053    308.81303    15565 
182000000   -2917.8428    3474.6961    13109.451   -1668.2848    8060.8237    314.16167    15567 
183000000   -2954.8595    3438.9374    12806.194   -1725.0321    8118.8289    306.89427    15571 
184000000   -2937.4381    3709.7837    12903.977   -1522.6431     8169.865    309.23757    15580 
185000000   -3027.4343    3648.9083    12898.354   -1546.7731    8223.1157    309.10283    15564 
186000000   -2979.2832    3658.7083     12896.54   -1511.5095     8149.501    309.05936    15574 
187000000   -3030.9847    3518.9164    12695.483   -1677.1057    8227.0068    304.24112    15575 
188000000   -2964.0206    3688.2184     13021.63   -1530.4349    8182.6739    312.05708    15555 
189000000   -3022.1904    3527.2801    12935.136   -1611.2005     8160.671    309.98429    15579 
190000000    -2924.462    3798.0761    12979.264   -1541.1642    8263.7023     311.0418    15564 
191000000   -2943.1733    3668.8264    12924.552   -1531.5664    8143.5661    309.73064    15569 
192000000   -2988.8781      3558.68    12884.947   -1644.8029     8192.361    308.78154    15586 
193000000   -2970.7982    3573.0562    12918.347   -1513.0093    8056.8637    309.58195    15568 
194000000   -3027.0418     3569.254    12911.023   -1500.7201    8097.0159    309.40643    15572 
195000000   -2966.7425    3550.9368    13082.709   -1629.0182    8146.6975    313.52081    15589 
196000000   -2986.4441    3537.6664    13143.937   -1603.0064    8127.1169     314.9881    15596 
197000000   -2979.1972    3527.3563     12984.45    -1569.449    8076.0025    311.16609    15587 
198000000   -3018.9899    3548.2954    12934.975   -1618.7203    8186.0057    309.98042    15602 
199000000   -2865.0813    3656.7302    12956.856   -1579.2953    8101.1068    310.50481    15564 
200000000   -2960.5552    3542.2651    12961.607   -1561.7405    8064.5608    310.61866    15572 
201000000   -3038.6686    3637.9647    12953.717   -1486.3963    8163.0297    310.42958    15575 
202000000   -2967.3806    3567.9355    12963.376   -1590.1379     8125.454    310.66106    15592 
203000000   -2919.7386    3535.8858    12978.622   -1598.0494    8053.6737     311.0264    15591 
204000000   -2869.7573    3719.5693    12856.219    -1646.504    8235.8306    308.09309    15588 
205000000   -2838.6429    3729.8646    12961.351   -1564.2012    8132.7086    310.61251    15575 
206000000    -2975.867    3648.2577    13090.744   -1571.3712    8195.4959    313.71335    15586 
207000000   -2845.7104     3533.755    12932.867    -1661.683    8041.1484    309.92992    15594 
208000000   -2902.5571    3571.8522    12956.283   -1674.3151    8148.7244    310.49107    15598 
209000000   -2829.9812    3824.1937    12877.919   -1543.0226    8197.1975    308.61311    15578 
210000000   -2848.6916    3830.1804    13158.323   -1486.8403    8165.7123    315.33286    15560 
211000000   -2884.5094    3634.0602      12928.8   -1646.0479    8164.6175    309.83244    15573 
212000000   -2971.7023    3649.3076    13013.279   -1549.5263    8170.5362    311.85694    15590 
213000000    -3019.921    3520.2387    12828.825   -1569.8379    8109.9975    307.43659    15577 
214000000   -2951.5738    3530.3819    12955.381   -1559.0098    8040.9654    310.46944    15577 
215000000    -2961.948    3700.5633    13003.872   -1589.3052    8251.8165    311.63152    15589 
216000000   -2829.6016    3689.7707    12955.819   -1603.3619    8122.7341    310.47994    15588 
217000000   -2804.2489    3728.1197     12941.05    -1529.698    8062.0666    310.12601    15569 
218000000   -2892.9124    3631.3662    13009.731   -1659.1631    8183.4417    311.77193    15604 
219000000   -2888.0965    3666.0025    12984.581   -1629.2785    8183.3775    311.16922    15589 
220000000   -2880.7482     3758.887    12976.384   -1631.2614    8270.8966    310.97279    15580 
221000000    -2882.181    3829.4827    12935.121   -1521.7743    8233.4379    309.98393    15557 
222000000   -2956.6934    3726.9785     12881.05    -1557.783     8241.455    308.68814    15583 
223000000   -2898.5103    3691.0692    12859.533   -1632.6361    8222.2156     308.1725    15582 
224000000   -3030.2969    3465.7855    13013.494   -1650.5909    8146.6733     311.8621    15593 
225000000   -2929.6177    3591.6929    12847.219   -1593.3046    8114.6152     307.8774    15590 
226000000   -2975.6842     3660.873    12906.787   -1458.3952    8094.9524    309.30491    15587 
227000000   -2992.6177    3705.1728    12898.358   -1512.6503    8210.4408    309.10293    15579 
228000000    -2927.197    3650.8375    12842.128   -1531.8063    8109.8407    307.75541    15574 
229000000   -2890.1808    3815.6981     12896.42   -1483.3942    8189.2731    309.05649    15579 
230000000   -2906.1433    4025.5665    12856.769   -1392.4716    8324.1814    308.10625    15546 
231000000   -2902.4938    3705.2087    13032.416   -1591.7065     8199.409    312.31555    15583 
232000000   -2871.8171    3729.2754      13149.8   -1630.4994     8231.592    315.12861    15574 
233000000   -3000.7917    3400.2173    12792.486   -1671.2216    8072.2306    306.56576    15568 
234000000   -3025.9526    3606.8525    12882.462   -1604.0299     8236.835    308.72198    15592 
235000000   -3030.6735    3595.1965     12911.41   -1520.8766    8146.7465    309.41571    15576 
236000000   -2953.1505    3570.8585    12883.317   -1583.1457    8107.1547    308.74247    15557 
237000000   -2970.7623     3595.527    12877.722   -1575.3154    8141.6047    308.60839    15564 
238000000   -3071.7995     3669.082    12932.559   -1554.2516     8295.133    309.92253    15571 
239000000   -2997.2833     3538.603    13128.498   -1579.6408    8115.5271    314.61812    15578 
240000000   -3046.8514    3407.2382    12848.919   -1710.0527    8164.1423    307.91815    15589 
241000000   -2993.1604    3629.5605     12996.77   -1483.6801     8106.401    311.46131    15567 
242000000   -3016.8403    3654.9221    12966.301   -1507.1583    8178.9207    310.73114    15575 
243000000   -3067.6337    3559.9975    12739.834   -1541.7893    8169.4205    305.30397    15580 
244000000   -2928.9145    3545.4128    12805.406   -1533.2556    8007.5829    306.87537    15594 
245000000   -3091.9496    3499.3638    12843.749   -1591.5614    8182.8747    307.79425    15579 
246000000   -3019.7612    3594.7224    12975.227   -1461.3425    8075.8261    310.94505    15564 
247000000   -2966.1059    3566.7579    12853.686   -1526.0585    8058.9223    308.03237    15561 
248000000    -3118.008    3589.7964    12974.798   -1474.7445    8182.5489    310.93476    15570 
249000000    -3057.443    3549.8241    12876.369   -1541.9766    8149.2437    308.57598    15561 
250000000   -3038.6958    3497.3341    12898.537   -1548.8084    8084.8383     309.1072    15577 
251000000   -3026.7586    3451.0236    12898.358   -1616.7353    8094.5175    309.10293    15594 
252000000   -2885.2986    3738.9939     12915.79   -1542.0018    8166.2942    309.52067    15575 
253000000   -3015.3967     3553.493    12934.373   -1562.2944    8131.1841    309.96601    15583 
254000000   -2958.4764     3636.174     12939.11   -1551.3043    8145.9546    310.07953    15557 
255000000   -3014.7672    3694.9601    12907.989    -1496.197    8205.9242    309.33373    15568 
256000000   -3034.4448    3563.7845    12828.614   -1550.3917    8148.6209    307.43155    15578 
257000000   -3034.8836    3335.3328    12780.996   -1635.8517    8006.0681     306.2904    15566 
258000000   -2989.4369    3883.5057    12864.839   -1376.9088    8249.8514    308.29965    15540 
259000000   -3041.4241    3438.0938     12841.46   -1567.8469    8047.3647     307.7394    15596 
260000000   -3003.0693    3658.0659    12926.723   -1576.1626    8237.2978    309.78267    15590 
261000000   -2950.3672    3516.7692    12906.247    -1605.323    8072.4594    309.29198    15570 
262000000   -3015.6915    3649.4237    13086.978   -1507.5065    8172.6218    313.62311    15549 
263000000    -3008.044    3589.3165    12996.667   -1617.3913    8214.7518    311.45885    15569 
264000000    -3023.851    3630.9355    12936.782    -1521.328    8176.1145    310.02373    15572 
265000000   -2921.6666    3679.9897    12972.799   -1533.2419    8134.8982    310.88686    15569 
266000000   -2952.3269    3545.5173    13133.802   -1580.2312    8078.0754    314.74523    15592 
267000000    -3021.065     3580.382    13002.661   -1623.3847    8224.8317    311.60249    15574 
268000000   -2978.2759    3495.1567    12795.948   -1601.5371    8074.9697    306.64871    15584 
269000000    -3029.632     3639.353    12902.409    -1547.555      8216.54        309.2    15567 
270000000   -3022.9092     3476.442    12858.278   -1591.2278    8090.5791    308.14243    15584 
271000000   -2941.4692    3579.7605    12989.344   -1552.9696    8074.1992    311.28337    15581 
272000000    -2910.384     3671.211    12953.513   -1571.0258    8152.6208    310.42468    15569 
273000000   -2987.6769    3598.9079    13012.299    -1607.022    8193.6068    311.83347    15579 
274000000   -3066.8796    3518.3205     12942.05   -1570.8477    8156.0478    310.14999    15579 
275000000   -3082.4509    3570.5188    12938.741   -1541.4979    8194.4675    310.07069    15574 
276000000   -2939.4749    3444.3129      12852.9   -1625.1483    8008.9361    308.01353    15578 
277000000   -2987.0944    3514.4365    12916.364   -1580.8079    8082.3388    309.53444    15574 
278000000   -3024.9031     3560.658    12935.359   -1551.3652    8136.9262    309.98963    15571 
279000000   -3050.8576    3365.6458    12966.857   -1604.6891    8021.1925    310.74446    15595 
280000000   -2954.7877    3733.7911     13037.14   -1522.9889    8211.5677    312.42876    15567 
281000000   -2934.9856    3562.9287    12921.939   -1589.1499    8087.0642    309.66803    15591 
282000000   -2939.7028    3544.0917    13017.865   -1617.9438    8101.7383    311.96685    15579 
283000000   -2938.1589    3606.9083    13032.856    -1626.648    8171.7152     312.3261    15580 
284000000   -3054.2678     3528.975    12915.808   -1646.3284    8229.5712    309.52111    15599 
285000000   -2942.9355    3690.5644    12816.785   -1503.8979    8137.3978    307.14807    15577 
286000000   -2882.0586     3492.362    13142.908   -1621.9903    7996.4109    314.96345    15582 
287000000   -3002.4325    3542.2745    12891.188   -1573.6908    8118.3978    308.93109    15587 
288000000   -3019.5796     3652.629    12857.819   -1542.4869    8214.6954    308.13142    15572 
289000000   -3006.6974    3612.4115    12930.255   -1467.4685    8086.5773    309.86731    15571 
290000000    -3054.592    3604.8614    12889.629   -1446.1302    8105.5835    308.89374    15566 
291000000   -3075.2585    3515.6161    13087.833   -1541.0617    8131.9363    313.64361    15561 
292000000    -3062.009    3534.3904    12931.335   -1540.6541    8137.0534    309.89319    15577 
293000000   -3108.2066    3429.2082    13046.073   -1515.3581    8052.7729    312.64285    15590 
294000000   -3039.6944     3711.271    13041.964   -1567.3738    8318.3392    312.54437    15571 
295000000   -3027.6282    3452.9229    12914.282   -1612.2289    8092.7801    309.48453    15598 
296000000   -2979.7271    3594.3765    12783.225   -1576.7321    8150.8357    306.34381    15581 
297000000   -3083.2436    3435.9557    12981.563   -1609.8645    8129.0639    311.09689    15578 
298000000   -2939.9001     3619.425    12911.849   -1486.1663    8045.4913    309.42623    15560 
299000000   -3007.1988    3539.8151    13060.433   -1583.3034    8130.3173    312.98697    15583 
300000000   -3121.6077    3557.2918    12819.244   -1556.6971    8235.5966    307.20699    15581 
301000000   -2969.4149    3646.0234    12963.473   -1482.7477    8098.1861    310.66336    15580 
302000000   -3128.5237    3393.3857    12810.745   -1577.7063    8099.6157    307.00332    15585 
303000000   -3019.9395    3595.8829    12950.248   -1489.8648    8105.6872    310.34645    15574 
304000000   -2976.4233    3608.4032    12851.446   -1515.3629    8100.1895    307.97869    15575 
305000000   -3034.2498    3554.4259    12904.137   -1561.9973     8150.673    309.24142    15569 
306000000   -3132.2256    3417.5335     13062.17   -1541.1814    8090.9405    313.02861    15582 
307000000   -3201.2535    3501.0736    13134.906   -1493.0636    8195.3907    314.77169    15563 
308000000   -3045.3565    3489.5688    12980.731   -1645.4155    8180.3407    311.07696    15583 
309000000    -2871.371    3599.3487    12975.672   -1631.4857    8102.2055    310.95571    15582 
310000000   -2957.8125    3663.5255    12843.316   -1639.9925    8261.3305    307.78386    15598 
311000000   -2941.6915    3599.5116     12909.63   -1557.4494    8098.6525    309.37305    15587 
312000000   -2989.7662    3644.3112    12944.729   -1505.3097    8139.3872    310.21418    15560 
313000000   -3002.0604     3339.321    12803.455   -1675.8407    8017.2221    306.82862    15597 
314000000   -3044.6975    3604.9754    12845.418   -1514.7636    8164.4366    307.83425    15574 
315000000   -3006.4443     3628.681    12887.013   -1520.8478    8155.9732    308.83105    15584 
316000000   -2875.4798    3486.5482     12889.97   -1659.0609    8021.0889    308.90192    15582 
317000000   -2984.4903       3500.4    12937.475   -1561.1951    8046.0854    310.04035    15575 
318000000   -3030.0579    3625.3478    12905.679   -1563.5796    8218.9852    309.27837    15577 
319000000   -3035.0436    3566.1374    12975.011   -1546.6489      8147.83    310.93988    15564 
320000000    -3088.599    3555.3742     12858.66   -1543.9556    8187.9288    308.15158    15579 
321000000   -3068.9101    3485.6692    12665.156   -1522.2362    8076.8155    303.51435    15572 
322000000   -3068.2261    3486.7289    13070.412   -1553.3124    8108.2674    313.22611    15585 
323000000   -2885.1835    3745.0549    13211.562   -1514.1026    8144.3409    316.60871    15554 
324000000   -3001.6316    3732.2685    12978.494   -1467.3647    8201.2649    311.02333    15557 
325000000   -2966.6894    3609.2063    12914.763    -1524.614    8100.5097    309.49605    15574 
326000000   -3027.1699    3418.4223    13035.273   -1649.3248     8094.917    312.38403    15589 
327000000    -3038.919    3554.3435    12934.646   -1536.5288    8129.7913    309.97255    15588 
328000000   -3103.7654    3461.7587    12930.789    -1544.226    8109.7501    309.88012    15590 
329000000   -2967.1452     3551.235    12917.533    -1570.505    8088.8852    309.56244    15588 
330000000    -3062.613    3534.7054     13005.16   -1473.5382    8070.8566    311.66238    15583 
331000000   -3077.9479    3327.2977    12946.806   -1640.2268    8045.4725    310.26397    15593 
332000000   -2970.8933    3581.3107    12736.332    -1570.422     8122.626    305.22004    15573 
333000000   -2999.6573    3440.2521     13079.35   -1635.3839    8075.2934    313.44032    15582 
334000000   -2952.2835    3695.4272    12993.694   -1542.2452    8189.9559     311.3876    15583 
335000000   -2935.8993    3555.8997    12888.156   -1570.3638    8062.1628    308.85844    15585 
336000000    -2987.175    3602.3756    12950.929   -1532.9239    8122.4745    310.36277    15575 
