LAMMPS (5 Jun 2019)
Reading restart file ...
  restart file = 5 Jun 2019, LAMMPS = 5 Jun 2019
  restoring atom style full from restart
  orthogonal box = (-420 -420 -420) to (420 420 420)
  2 by 2 by 7 MPI processor grid
  restoring pair style lj/cut from restart
  restoring bond style hybrid from restart
  restoring angle style cosine from restart
  14000 atoms
  15574 bonds
  13600 angles
Finding 1-2 1-3 1-4 neighbors ...
  special bond factors lj:   0          1          1         
  special bond factors coul: 0          0          0         
  3 = max # of 1-2 neighbors
  6 = max # of 1-3 neighbors
  17 = max # of 1-4 neighbors
  56 = max # of special neighbors
  special bonds CPU = 0.00221533 secs
  read_restart CPU = 0.10802 secs
Finding 1-2 1-3 1-4 neighbors ...
  special bond factors lj:   0          1          1         
  special bond factors coul: 0          0          0         
  3 = max # of 1-2 neighbors
  6 = max # of 1-3 neighbors
  17 = max # of 1-4 neighbors
  38108 = # of 1-3 neighbors before angle trim
  27200 = # of 1-3 neighbors after angle trim
  56 = max # of special neighbors
  special bonds CPU = 0.0014795 secs
Neighbor list info ...
  update every 1 steps, delay 1 steps, check yes
  max neighbors/atom: 2000, page size: 100000
  master list distance cutoff = 26.9
  ghost atom cutoff = 26.9
  binsize = 13.45, bins = 63 63 63
  1 neighbor lists, perpetual/occasional/extra = 1 0 0
  (1) pair lj/cut, perpetual
      attributes: half, newton on
      pair build: half/bin/newton
      stencil: half/bin/3d/newton
      bin: standard
Setting up Verlet run ...
  Unit style    : real
  Current step  : 400000000
  Time step     : 0.1
Per MPI rank memory allocation (min/avg/max) = 1.103 | 9.306 | 16.65 Mbytes
Step Temp E_pair E_mol TotEng Press 
400000000    309.51744   -2947.7919    6573.5496    16541.413  0.027065477 
400010000    308.63579   -2968.0115    6680.8117    16591.665  -0.16514003 
Loop time of 3.7516 on 28 procs for 10000 steps with 14000 atoms

Performance: 23.030 ns/day, 1.042 hours/ns, 2665.530 timesteps/s
99.4% CPU use with 28 MPI tasks x no OpenMP threads

MPI task timing breakdown:
Section |  min time  |  avg time  |  max time  |%varavg| %total
---------------------------------------------------------------
Pair    | 0.00040778 | 0.40849    | 1.8191     |  80.5 | 10.89
Bond    | 0.00058111 | 0.11883    | 0.45661    |  37.4 |  3.17
Neigh   | 0.013726   | 0.014138   | 0.015459   |   0.4 |  0.38
Comm    | 0.0018718  | 1.128      | 2.3442     |  69.4 | 30.07
Output  | 4.8982e-05 | 0.00029326 | 0.00059346 |   0.0 |  0.01
Modify  | 0.0010349  | 0.26208    | 1.0036     |  55.4 |  6.99
Other   |            | 1.82       |            |       | 48.51

Nlocal:    500 ave 1912 max 0 min
Histogram: 13 2 1 4 2 2 1 1 1 1
Nghost:    476.607 ave 1340 max 0 min
Histogram: 8 4 3 1 1 2 3 3 1 2
Neighs:    5370.96 ave 21190 max 0 min
Histogram: 13 3 0 4 2 2 1 1 1 1

Total # of neighbors = 150387
Ave neighs/atom = 10.7419
Ave special neighs/atom = 7.47457
Neighbor list builds = 7
Dangerous builds = 0
4000 atoms in group rxnSites
Neighbor list info ...
  update every 1 steps, delay 1 steps, check yes
  max neighbors/atom: 2000, page size: 100000
  master list distance cutoff = 26.9
  ghost atom cutoff = 26.9
  binsize = 13.45, bins = 63 63 63
  2 neighbor lists, perpetual/occasional/extra = 1 1 0
  (1) pair lj/cut, perpetual
      attributes: half, newton on
      pair build: half/bin/newton
      stencil: half/bin/3d/newton
      bin: standard
  (2) fix bond/create/random, occasional, copy from (1)
      attributes: half, newton on
      pair build: copy
      stencil: none
      bin: none
Setting up Verlet run ...
  Unit style    : real
  Current step  : 0
  Time step     : 25
Per MPI rank memory allocation (min/avg/max) = 17.82 | 18.3 | 19.07 Mbytes
Step E_pair PotEng KinEng E_bond E_angle Temp Bonds 
       0   -2968.0115    3712.8002    12878.865   -1542.4183      8223.23    308.63579    15574 
 1000000   -2957.9292    3468.0335     13002.26   -1605.1785    8031.1413    311.59289    15588 
