LAMMPS (5 Jun 2019)
Reading restart file ...
  restart file = 5 Jun 2019, LAMMPS = 5 Jun 2019
  restoring atom style full from restart
  orthogonal box = (-420 -420 -420) to (420 420 420)
  2 by 2 by 7 MPI processor grid
  restoring pair style lj/cut from restart
  restoring bond style hybrid from restart
  restoring angle style cosine from restart
  14000 atoms
  15574 bonds
  13600 angles
Finding 1-2 1-3 1-4 neighbors ...
  special bond factors lj:   0          1          1         
  special bond factors coul: 0          0          0         
  3 = max # of 1-2 neighbors
  6 = max # of 1-3 neighbors
  17 = max # of 1-4 neighbors
  56 = max # of special neighbors
  special bonds CPU = 0.629363 secs
  read_restart CPU = 0.726332 secs
Finding 1-2 1-3 1-4 neighbors ...
  special bond factors lj:   0          1          1         
  special bond factors coul: 0          0          0         
  3 = max # of 1-2 neighbors
  6 = max # of 1-3 neighbors
  17 = max # of 1-4 neighbors
  38016 = # of 1-3 neighbors before angle trim
  27200 = # of 1-3 neighbors after angle trim
  56 = max # of special neighbors
  special bonds CPU = 0.00265544 secs
Neighbor list info ...
  update every 1 steps, delay 1 steps, check yes
  max neighbors/atom: 2000, page size: 100000
  master list distance cutoff = 26.9
  ghost atom cutoff = 26.9
  binsize = 13.45, bins = 63 63 63
  1 neighbor lists, perpetual/occasional/extra = 1 0 0
  (1) pair lj/cut, perpetual
      attributes: half, newton on
      pair build: half/bin/newton
      stencil: half/bin/3d/newton
      bin: standard
Setting up Verlet run ...
  Unit style    : real
  Current step  : 400000000
  Time step     : 0.1
WARNING: Inconsistent image flags (../domain.cpp:784)
Per MPI rank memory allocation (min/avg/max) = 1.103 | 8.206 | 16.68 Mbytes
Step Temp E_pair E_mol TotEng Press 
400000000    310.66035   -3044.8516     6715.645     16634.14  0.090116835 
400010000     311.7143   -2982.6993    6570.6903    16595.317   0.20263467 
Loop time of 4.38533 on 28 procs for 10000 steps with 14000 atoms

Performance: 19.702 ns/day, 1.218 hours/ns, 2280.331 timesteps/s
99.6% CPU use with 28 MPI tasks x no OpenMP threads

MPI task timing breakdown:
Section |  min time  |  avg time  |  max time  |%varavg| %total
---------------------------------------------------------------
Pair    | 0.0003326  | 0.40485    | 2.0293     |  94.0 |  9.23
Bond    | 0.0005254  | 0.1152     | 0.50535    |  43.4 |  2.63
Neigh   | 0.015449   | 0.01669    | 0.019162   |   1.0 |  0.38
Comm    | 0.0020911  | 1.5324     | 3.0593     |  92.3 | 34.94
Output  | 8.7948e-05 | 0.00032801 | 0.00065881 |   0.0 |  0.01
Modify  | 0.00095607 | 0.25146    | 1.0814     |  63.7 |  5.73
Other   |            | 2.064      |            |       | 47.08

Nlocal:    500 ave 2206 max 0 min
Histogram: 15 2 3 2 0 2 1 1 1 1
Nghost:    471.143 ave 1692 max 0 min
Histogram: 12 3 1 3 3 1 3 0 1 1
Neighs:    5423.11 ave 25248 max 0 min
Histogram: 15 4 0 3 1 2 0 1 1 1

Total # of neighbors = 151847
Ave neighs/atom = 10.8462
Ave special neighs/atom = 7.454
Neighbor list builds = 7
Dangerous builds = 0
4000 atoms in group rxnSites
Neighbor list info ...
  update every 1 steps, delay 1 steps, check yes
  max neighbors/atom: 2000, page size: 100000
  master list distance cutoff = 26.9
  ghost atom cutoff = 26.9
  binsize = 13.45, bins = 63 63 63
  2 neighbor lists, perpetual/occasional/extra = 1 1 0
  (1) pair lj/cut, perpetual
      attributes: half, newton on
      pair build: half/bin/newton
      stencil: half/bin/3d/newton
      bin: standard
  (2) fix bond/create/random, occasional, copy from (1)
      attributes: half, newton on
      pair build: copy
      stencil: none
      bin: none
Setting up Verlet run ...
  Unit style    : real
  Current step  : 0
  Time step     : 25
WARNING: Inconsistent image flags (../domain.cpp:784)
Per MPI rank memory allocation (min/avg/max) = 17.83 | 18.27 | 19.32 Mbytes
Step E_pair PotEng KinEng E_bond E_angle Temp Bonds 
       0   -2982.6993    3587.9909    13007.326   -1596.2302    8166.9204     311.7143    15574 
 1000000   -3033.2869    3690.3521    12882.546   -1453.6762    8177.3152    308.72401    15574 
 2000000   -3028.5868    3659.9739    12935.664   -1573.3762    8261.9369    309.99695    15584 
 3000000    -2982.947    3843.4889    12966.959   -1353.4852     8179.921    310.74691    15557 
 4000000   -3019.2948    3492.6045    12664.419   -1656.1261    8168.0253    303.49669    15576 
 5000000   -2975.3491     3722.823    12945.554   -1431.1058    8129.2778    310.23395    15556 
 6000000   -2969.8878    3586.1062    12907.706   -1673.1144    8229.1084    309.32695    15589 
 7000000   -2941.4359    3564.7555    12904.726   -1580.9631    8087.1545    309.25553    15592 
 8000000   -2973.4119    3629.2624    13041.687   -1517.6863    8120.3606    312.53774    15575 
 9000000    -3023.259    3647.1857    12941.119   -1559.8948    8230.3395    310.12766    15579 
10000000   -3080.8281    3521.5697     12758.84   -1599.8202    8202.2179    305.75943    15574 
11000000    -3023.118    3475.6859    13002.955   -1578.2333    8077.0371    311.60954    15567 
12000000   -3027.3827    3472.9138    12958.008   -1596.1957    8096.4921     310.5324    15589 
13000000   -3051.0767    3595.2959     12906.29   -1469.6413    8116.0139    309.29302    15564 
14000000   -3079.4494    3489.7981    12914.131   -1673.8491    8243.0966    309.48091    15600 
15000000   -3011.5331    3572.4816    12906.852   -1541.5808    8125.5955    309.30648    15586 
16000000   -3004.0059    3570.4863    12965.421   -1613.0518     8187.544    310.71005    15562 
17000000   -3024.2584     3661.169    12966.016   -1531.4309    8216.8583    310.72431    15575 
18000000   -3001.1433     3650.148    12914.981    -1479.609    8130.9002    309.50128    15576 
19000000   -2850.1255    3737.3676    12916.459   -1575.0702    8162.5633    309.53671    15573 
20000000   -2934.4579    3700.9025    13008.475   -1556.6139    8191.9744    311.74182    15575 
21000000   -2934.2578     3699.412    13048.198   -1442.8027    8076.4725    312.69377    15569 
22000000   -2930.6176    3549.6524    12906.043   -1632.2398    8112.5098    309.28708    15585 
23000000   -2986.3726    3686.7322    13013.137   -1567.2573    8240.3622    311.85355    15582 
24000000   -2971.6854    3791.7036    12883.834   -1450.0263    8213.4153    308.75487    15560 
25000000   -3089.5659    3444.9067    12924.716   -1594.7262    8129.1987    309.73458    15560 
26000000   -2949.1545    3657.1157    12925.717   -1478.7931    8085.0632    309.75856    15578 
27000000   -2979.7089    3577.2566    12897.067    -1682.704    8239.6695    309.07198    15572 
28000000   -2924.6832    3570.3442    12856.425   -1598.2083    8093.2357    308.09803    15582 
29000000   -2896.5038    3575.7643    12767.052   -1625.4567    8097.7248    305.95623    15590 
30000000   -3107.0798    3429.4072    12863.136   -1663.6722    8200.1592    308.25885    15591 
31000000   -2917.6123    3709.9121    12861.712   -1587.5284    8215.0528    308.22473    15593 
32000000   -2956.7726    3674.7064    12833.855   -1509.4636    8140.9426    307.55714    15572 
33000000   -2929.1634    3663.9985    12783.143   -1593.9025    8187.0644    306.34184    15580 
34000000   -3033.6294    3516.3885    12921.474   -1597.1666    8147.1845    309.65688    15560 
35000000   -2916.6588    3581.4562    12764.696   -1597.8463    8095.9613    305.89977    15590 
36000000   -3055.8083    3574.8625    12883.863   -1590.1416    8220.8124    308.75555    15562 
37000000   -3033.9563    3532.6885    12981.267   -1593.1747    8159.8195    311.08979    15560 
38000000   -2951.3631    3459.4767    12838.938   -1586.1457    7996.9855    307.67895    15592 
39000000   -2949.1937    3745.4545    13018.685   -1493.8191    8188.4673     311.9865    15584 
40000000    -2978.198    3461.8713    12913.162   -1638.7963    8078.8655     309.4577    15599 
41000000   -2929.2577    3544.0253    12953.838   -1579.1534    8052.4364    310.43246    15588 
42000000   -2960.8487    3474.1724    13034.404   -1648.5546    8083.5756     312.3632    15586 
43000000   -3007.0692    3704.7413    12871.712   -1531.0529    8242.8634    308.46436    15584 
44000000   -3024.2548    3493.5002    12894.333   -1604.4625    8122.2175    309.00647    15577 
45000000   -2985.9064    3611.7042    12771.783   -1502.4319    8100.0426    306.06962    15579 
46000000   -2964.0081    3670.7703    12955.293   -1502.9147    8137.6931    310.46735    15560 
47000000    -2984.731    3518.6742    12909.199   -1634.8403    8138.2454    309.36273    15584 
48000000   -2962.6367    3580.8887    13028.373   -1638.6617     8182.187    312.21867    15583 
49000000   -2913.9838    3727.0976    12873.772   -1594.4119    8235.4934    308.51374    15574 
50000000   -3028.9084    3652.7248    12839.453   -1479.5998     8161.233     307.6913    15558 
51000000    -2961.567    3606.7061    12756.399   -1568.1943    8136.4674    305.70094    15579 
52000000   -2936.0619    3395.2041    12976.398   -1626.8067    7958.0727    310.97312    15604 
53000000    -3029.001     3510.796    13048.937   -1566.3969    8106.1939    312.71148    15580 
54000000     -2930.98    3615.7088    12900.476    -1549.438    8096.1268    309.15368    15583 
55000000   -2933.9002    3690.9819    12894.765   -1568.9747    8193.8568    309.01682    15586 
56000000   -2913.0567    3695.7727    12795.076   -1512.6657    8121.4951    306.62782    15581 
57000000   -2943.5729    3690.2456     12949.17   -1539.1036    8172.9221    310.32062    15575 
58000000    -2994.642    3586.4784     12879.53   -1589.9178    8171.0382    308.65172    15576 
59000000   -2958.2797    3629.6471    12998.535   -1538.9443     8126.871    311.50362    15592 
60000000   -3087.8484    3556.9922     12943.41   -1561.4369    8206.2776    310.18256    15573 
61000000   -2959.1978    3619.2797    12797.226   -1529.5422    8108.0196    306.67935    15591 
62000000    -2991.714    3563.2609    12851.737   -1573.2142    8128.1891    307.98566    15574 
63000000   -3084.9634      3541.59    12897.696   -1582.0688    8208.6222    309.08705    15574 
64000000   -2971.9155    3572.6607    12938.401   -1565.0454    8109.6216    310.06253    15583 
65000000   -3020.6814    3471.8713    12942.097   -1576.0562     8068.609     310.1511    15583 
66000000   -2992.5716    3615.0819    12780.503   -1515.7422    8123.3957    306.27858    15575 
67000000   -3045.3371    3620.5494     12873.55      -1448.4    8114.2866    308.50842    15569 
68000000   -2910.4759    3764.2668     12912.96   -1557.6033     8232.346    309.45285    15585 
69000000   -2927.5827    3475.0505    12820.464   -1616.9198     8019.553    307.23623    15572 
70000000   -2909.4026    3766.8619    12857.803   -1472.2742    8148.5387    308.13104    15574 
71000000   -3061.8342    3677.3348    12952.585   -1514.8133    8253.9822    310.40244    15581 
72000000   -2952.8602    3676.4674    12956.159   -1466.9169    8096.2444    310.48811    15579 
73000000   -2821.7845    3802.6691    12933.299   -1544.9009    8169.3545    309.94027    15578 
74000000    -3002.273    3579.2329    12996.609   -1597.7585    8179.2645    311.45747    15591 
75000000   -3085.9295    3568.4897    12898.129    -1540.488    8194.9072    309.09744    15565 
76000000   -3061.9519     3621.368    12980.211   -1517.1267    8200.4466    311.06449    15582 
77000000    -3061.623    3412.9778    12933.329   -1667.2115    8141.8122    309.94099    15597 
78000000   -2874.4217    3587.1133    12945.866   -1591.9109    8053.4458    310.24143    15576 
79000000   -3011.0647    3443.0632    13017.917   -1603.4499    8057.5778     311.9681    15585 
80000000   -2945.0875    3626.0629    12783.796   -1628.1535    8199.3038     306.3575    15579 
81000000   -3032.0025    3459.6493    12899.186   -1710.3151    8201.9668    309.12277    15581 
82000000   -2999.5384    3465.6655    13041.013   -1548.5399    8013.7438    312.52157    15580 
83000000   -2931.2426    3722.8866    12988.721   -1519.8031    8173.9323    311.26842    15585 
84000000   -2997.7847    3488.5442    12863.646   -1584.4782    8070.8071    308.27107    15576 
85000000   -3040.1503     3539.496    12993.092   -1528.3535    8107.9999    311.37318    15563 
86000000   -3032.7408    3482.7296    12979.594   -1628.4886     8143.959    311.04971    15570 
87000000    -3011.915    3515.1079    12753.389   -1613.3725    8140.3955    305.62881    15582 
88000000   -3066.3028    3474.7933    12935.103   -1622.3688    8163.4649    309.98351    15581 
89000000   -3099.0879    3543.6179    12975.464   -1547.7805    8190.4863    310.95073    15573 
90000000   -3208.4346    3442.6058    12838.782   -1565.1508    8216.1913    307.67522    15605 
91000000   -3174.1312    3634.8787    12970.774   -1534.4033    8343.4133    310.83834    15574 
92000000   -3043.7566    3571.8431    12873.827    -1534.014    8149.6137    308.51506    15574 
93000000   -3107.0307    3526.8058    12980.652   -1553.0223    8186.8588    311.07505    15584 
94000000   -2918.6703    3797.3725    12903.482   -1470.2872      8186.33    309.22572    15566 
95000000   -3039.8703     3521.625    12926.877   -1554.4169    8115.9122    309.78636    15577 
96000000   -3050.6638    3494.8787    12943.431   -1651.7731    8197.3156    310.18308    15589 
97000000   -2991.3266    3522.1135    13042.153   -1619.0048    8132.4449    312.54891    15587 
98000000   -3089.9841    3470.4841    12928.589    -1516.549    8077.0173    309.82739    15576 
99000000   -3116.8451    3431.2286    12981.889   -1582.8327    8130.9065    311.10469    15578 
100000000   -3125.1298     3391.605    12951.487    -1482.069    7998.8038    310.37612    15564 
101000000   -3072.0402    3424.6843    13093.415   -1472.2807    7969.0052    313.77738    15575 
102000000   -3031.2164     3507.865    13027.708   -1590.5439    8129.6252    312.20273    15571 
103000000   -3125.5761    3329.4273    12935.683   -1585.2004    8040.2037     309.9974    15568 
104000000   -3058.1037    3431.2318    12983.855   -1527.4996    8016.8351    311.15182    15573 
105000000   -3115.1762    3409.7092        12957   -1561.6814    8086.5669    310.50826    15581 
106000000   -3026.1951    3625.5242    12763.089   -1585.6194    8237.3387    305.86128    15574 
107000000   -2990.4474    3571.9956    12995.891   -1540.5281    8102.9712    311.44025    15595 
108000000   -2996.8379    3611.3497    12944.736   -1530.4747    8138.6623    310.21434    15558 
109000000   -3045.6228    3462.3482    12763.536   -1558.4176    8066.3885    305.87198    15574 
110000000   -2956.4156    3619.8598    13042.569   -1559.0145    8135.2899    312.55886    15573 
111000000   -2988.5073    3478.6064    12821.148   -1594.2492    8061.3629    307.25263    15590 
112000000   -3077.3724    3591.9409    12753.622   -1521.1189    8190.4322     305.6344    15564 
113000000   -3009.9634    3664.3434    12917.706   -1487.3675    8161.6743     309.5666    15590 
114000000   -3037.5292    3637.5301    12754.771   -1544.6401    8219.6994    305.66192    15577 
115000000   -3108.9305    3491.4704    12878.052   -1572.0545    8172.4554    308.61629    15578 
116000000   -2990.2215    3620.6118    13043.111   -1493.4385    8104.2718    312.57187    15577 
117000000    -3028.627    3511.9335    12880.503   -1627.5814    8168.1419    308.67504    15592 
118000000   -3037.6585    3487.4595    12963.476   -1619.4003    8144.5183    310.66344    15595 
119000000   -2944.0873     3627.349    12889.154   -1509.8644    8081.3007    308.88236    15582 
120000000   -3010.8283    3452.7278    13054.669   -1667.3485    8130.9046    312.84885    15587 
121000000   -3063.3364    3567.0532     12998.91   -1627.2072    8257.5967    311.51261    15572 
122000000   -3062.4856    3444.2751    12934.341   -1528.8469    8035.6075    309.96524    15588 
123000000   -3120.8433    3356.2252    12773.275   -1734.6626    8211.7311    306.10537    15606 
124000000   -3123.4256    3508.9737    12759.669   -1551.1058    8183.5051    305.77931    15583 
125000000   -3143.7693    3417.0949    13101.632   -1631.0961    8191.9602    313.97428    15583 
126000000   -2948.6723    3590.9385    12974.452   -1547.5918    8087.2026    310.92647    15575 
127000000   -3005.3567    3586.7944    12830.855   -1559.9798    8152.1309    307.48525    15600 
128000000   -2993.1222    3580.2451    13010.461    -1545.202    8118.5693    311.78941    15580 
129000000   -2994.7145    3523.9467    12878.491   -1576.5464    8095.2076    308.62682    15574 
130000000   -3019.7355    3625.1679    12830.148    -1505.519    8150.4224    307.46831    15570 
131000000   -2969.8979    3696.6872     12916.22   -1479.0013    8145.5863    309.53098    15572 
132000000   -2969.8464    3579.2641    12928.295   -1591.3144    8140.4248    309.82035    15568 
133000000   -2997.8671    3597.5086    13061.312   -1600.3927    8195.7683    313.00805    15596 
134000000   -3010.7056    3525.0103    12918.508   -1597.1844    8132.9003    309.58581    15590 
135000000   -3054.0642    3544.2159    12907.557   -1589.9265    8188.2066    309.32337    15566 
136000000   -2957.0878    3711.4998    12994.542   -1503.4603    8172.0479    311.40793    15555 
137000000   -2951.0697    3550.1147    12845.262    -1610.512    8111.6964    307.83051    15591 
138000000   -3038.1731     3457.649    12949.864   -1550.7953    8046.6174    310.33723    15573 
139000000    -2977.125    3708.0633    13061.591   -1512.2323    8197.4206    313.01471    15584 
140000000   -3087.4086    3500.6047    13043.786   -1585.5263    8173.5396    312.58805    15572 
141000000   -3070.5139    3706.6981    12992.775   -1409.5353    8186.7473    311.36558    15550 
142000000   -3005.7143     3789.951    12858.731   -1475.4972    8271.1625    308.15328    15565 
143000000   -2945.4847    3553.7979    12973.924   -1600.3561    8099.6387    310.91383    15565 
144000000   -2927.0825    3566.3061    12829.833    -1687.379    8180.7677    307.46075    15606 
145000000   -3044.5004    3550.0302    12982.176   -1527.4067    8121.9373    311.11158    15575 
146000000   -2947.1839    3769.8296    12877.723   -1493.2163    8210.2299    308.60842    15586 
147000000   -2928.6359    3691.2195    12950.126   -1529.3543    8149.2098    310.34351    15573 
148000000   -3024.8245    3517.1667    12982.578   -1653.3886    8195.3799     311.1212    15588 
149000000   -3026.1684    3616.6541    13039.524   -1605.2329    8248.0555     312.4859    15586 
150000000   -3153.3595    3281.7785    12894.107   -1676.8379    8111.9759    309.00106    15584 
151000000   -3011.4522    3611.2946    13096.388   -1487.5206    8110.2674    313.84862    15570 
152000000   -3187.3118    3418.7233    12892.971   -1533.7638    8139.7989    308.97383    15564 
153000000   -2991.6177    3537.6655    12918.991   -1608.4328    8137.7159    309.59739    15578 
154000000   -3083.2523    3507.2496    12980.906   -1666.1155    8256.6173    311.08114    15597 
155000000   -3065.3758    3631.5273    12882.455   -1568.3982    8265.3012    308.72181    15589 
156000000   -2970.9803    3603.8428    12861.853   -1567.5317    8142.3549    308.22811    15563 
157000000    -2940.547    3550.7219    13085.887   -1645.9477    8137.2165    313.59697    15586 
158000000   -2976.2603    3678.7731    12788.863   -1548.1706     8203.204    306.47893    15589 
159000000   -3001.8315    3574.9038    12885.097   -1582.8148    8159.5501    308.78513    15586 
160000000   -2951.8592    3719.4974    13010.812   -1475.4645    8146.8211    311.79782    15553 
161000000   -2967.4207    3678.1088    12912.362   -1512.4804    8158.0099    309.43851    15561 
162000000   -3022.8543     3478.047    12979.517   -1636.4797     8137.381    311.04785    15573 
163000000   -2959.3932    3582.2967    12933.295   -1523.6222    8065.3121    309.94018    15580 
164000000    -3018.279    3603.9742     12875.53   -1468.6599    8090.9132    308.55587    15585 
165000000   -3007.4539    3455.2844    13002.902   -1552.4582    8015.1964    311.60827    15566 
166000000   -2930.5625    3652.3074     12905.69   -1608.4704    8191.3403    309.27864    15586 
167000000   -3009.9984    3751.7828    12875.231   -1420.3402    8182.1214    308.54869    15544 
168000000    -3051.934    3554.1108    12905.415   -1526.6789    8132.7237    309.27203    15571 
169000000   -2982.6208    3522.9932    12895.757   -1679.0195    8184.6336    309.04058    15596 
170000000   -2993.9713    3536.8265    12919.972   -1541.4334    8072.2312     309.6209    15579 
171000000   -2995.2705    3493.1666     12944.28   -1629.7889     8118.226    310.20342    15578 
172000000   -3093.6431    3529.0141    12879.063   -1558.5444    8181.2017    308.64052    15571 
173000000      -3021.2     3554.748    12901.569   -1610.3805    8186.3285    309.17988    15575 
174000000   -2992.3662    3664.8491    12838.596   -1405.6131    8062.8285    307.67077    15561 
175000000   -3004.5894    3404.9421    12960.531   -1640.3705    8049.9021    310.59286    15579 
176000000   -3098.9006    3578.4742    12896.844   -1587.5931    8264.9679    309.06663    15585 
177000000   -2987.9042    3527.2061    12836.051   -1572.8173    8087.9275    307.60976    15564 
178000000   -2906.1694    3754.3044    12900.478   -1419.8639    8080.3377    309.15373    15571 
179000000   -2955.6519    3536.5336    13104.546   -1578.9287    8071.1142    314.04412    15562 
180000000   -3003.8473    3501.6569    13005.329    -1629.966    8135.4702    311.66643    15587 
181000000   -2990.2417    3562.2449    13013.771   -1622.2637    8174.7503    311.86874    15591 
182000000   -2988.2325    3621.6441    12847.283    -1596.807    8206.6836    307.87893    15568 
183000000   -3023.2796    3519.3854    12856.563   -1572.0464    8114.7114    308.10133    15564 
184000000   -3003.6767    3575.9416    12811.126   -1549.0204    8128.6387    307.01246    15570 
185000000   -2994.0466    3580.2547    12861.006   -1536.7657    8111.0671    308.20779    15591 
186000000   -2939.3584    3540.9595    12840.949   -1621.9461     8102.264    307.72714    15577 
187000000   -3013.4555    3630.1483    12868.427    -1519.051    8162.6548    308.38563    15569 
188000000    -2975.703    3619.0533      13058.1   -1622.1959    8216.9523    312.93107    15568 
189000000   -2978.8615    3483.7183    12945.903   -1574.1879    8036.7677     310.2423    15569 
190000000   -2974.7474    3582.3654    12846.843   -1545.2841    8102.3969    307.86839    15570 
191000000   -3032.2086    3572.6914    13070.481   -1559.0234    8163.9235    313.22777    15594 
192000000   -3044.1828    3467.0549    12900.046    -1612.174    8123.4117    309.14337    15597 
193000000   -3044.9395    3615.4208    12844.085   -1478.4324    8138.7927    307.80231    15573 
194000000   -3108.5866    3563.5783    12949.951   -1470.8298    8142.9947    310.33931    15549 
195000000    -3051.609     3455.624    12964.265   -1572.4758    8079.7088    310.68235    15586 
196000000   -3035.5878    3733.0584     12940.07   -1501.9526    8270.5988    310.10252    15558 
197000000   -3018.4812    3408.6911    13077.418    -1557.759    7984.9312    313.39402    15563 
198000000   -3018.2643    3396.0175    12985.703   -1582.6924    7996.9742    311.19611    15571 
199000000   -3005.5787    3575.4369     12962.59   -1567.4945    8148.5101    310.64222    15568 
200000000    -3083.589    3602.1432     12909.56   -1504.0207    8189.7529    309.37138    15576 
201000000   -3162.1379     3399.411    12780.602   -1636.2087    8197.7576    306.28095    15591 
202000000   -3190.5475    3564.6726    13006.341   -1503.9227    8259.1428    311.69069    15561 
203000000   -3077.4101    3684.2482    12784.967   -1559.2488    8320.9071    306.38557    15562 
204000000   -3096.6781    3727.1417     12727.04   -1452.8663    8276.6861    304.99736    15555 
205000000   -3058.7571    3614.2589    12831.973   -1514.0971    8187.1131    307.51204    15578 
206000000   -3022.2437    3601.9828    12823.163   -1616.8941    8241.1206    307.30091    15586 
207000000   -2979.6641    3511.9356     12881.36    -1621.971    8113.5707    308.69558    15603 
208000000   -3034.0477    3602.2761     12828.46   -1515.1123     8151.436    307.42786    15555 
209000000   -3006.3747    3565.8399    12891.743   -1612.1149    8184.3294     308.9444    15568 
210000000   -3030.2288     3587.456    12930.539   -1535.1489    8152.8337    309.87412    15565 
211000000   -2914.5232    3794.9927    12816.944   -1486.6513    8196.1672    307.15187    15560 
212000000   -2996.8752    3584.6858    12945.366   -1612.5893    8194.1502    310.22945    15576 
213000000   -2966.1431    3679.4343    12944.816   -1499.4514    8145.0288    310.21626    15592 
214000000   -3116.8166     3595.837    12969.011   -1449.6365    8162.2902    310.79609    15573 
215000000   -2998.5368    3697.9114    12928.741   -1496.7839    8193.2321    309.83103    15574 
216000000   -2881.1904    3741.4664    12846.922   -1489.6394    8112.2962    307.87028    15566 
217000000   -2848.2045    3799.2471     12750.65   -1513.4668    8160.9185    305.56317    15573 
218000000   -2909.1249    3709.7955    13100.299   -1569.9704    8188.8908    313.94233    15580 
219000000   -2970.2618    3644.8407    12907.309   -1549.9645    8165.0671    309.31742    15588 
220000000   -2896.0292    3717.1311    12783.201   -1545.3325    8158.4928    306.34324    15573 
221000000   -2908.8471    3584.9939    12784.527   -1561.6884    8055.5294    306.37503    15579 
222000000   -3048.3044    3375.5511    12953.009   -1629.4285    8053.2839     310.4126    15572 
223000000   -3061.7236    3584.3717    12844.765   -1590.4394    8236.5346    307.81859    15567 
224000000   -2991.4652     3506.122    12967.362   -1657.0143    8154.6014    310.75656    15583 
225000000   -3061.8139     3484.126    12920.934    -1628.601    8174.5409    309.64395    15587 
226000000   -2991.2764    3472.2911    12903.635   -1630.4983    8094.0658    309.22939    15587 
227000000   -3117.0944    3436.1165    13086.787   -1623.6788    8176.8897    313.61854    15595 
228000000   -2998.8785    3436.3897    12931.302   -1666.8409     8102.109    309.89241    15600 
229000000   -2906.1886    3567.6528    12820.128   -1565.2646     8039.106    307.22817    15577 
230000000     -3038.39    3696.0487    12807.381   -1463.2224    8197.6612    306.92271    15574 
231000000   -3015.2983    3446.2271    12860.082   -1556.8399    8018.3653    308.18565    15588 
232000000   -3008.3238     3622.465     12794.71   -1514.8804    8145.6692    306.61905    15574 
233000000   -3051.0081    3523.8802    12820.646   -1598.2549    8173.1431    307.24059    15589 
234000000   -2975.4131    3557.7149    12785.881   -1587.0747    8120.2027    306.40747    15561 
235000000   -2980.3572    3804.8823    13003.247   -1442.2163    8227.4558    311.61653    15559 
236000000   -2935.6496    3664.4679    13050.755   -1571.3097    8171.4272    312.75504    15581 
237000000   -2934.6102    3543.5727    12875.115   -1595.6846    8073.8675    308.54592    15572 
238000000   -2975.9922    3505.2607    13025.047   -1600.9188    8082.1718    312.13895    15587 
239000000   -2964.0458    3355.9562    13131.943   -1595.5129     7915.515    314.70066    15585 
240000000   -2992.0425    3571.1147    12973.365   -1526.7106    8089.8678    310.90042    15569 
241000000   -2989.4609    3586.1291    13031.669   -1623.3886    8198.9786    312.29766    15579 
242000000   -2927.3935    3672.6824    12962.643    -1499.201    8099.2769    310.64349    15583 
243000000   -2988.0602    3558.7628    12986.688   -1620.1486    8166.9716    311.21972    15604 
244000000   -2955.9093    3542.6963    12741.363   -1639.8498    8138.4553    305.34062    15583 
245000000   -2945.7883    3480.7695    13071.839   -1624.8626    8051.4204     313.2603    15567 
246000000   -2991.1332    3680.4175    12970.338   -1571.6248    8243.1755    310.82789    15589 
247000000   -2932.7004    3558.2961    12855.622   -1562.9286     8053.925    308.07878    15578 
248000000   -2948.4405    3501.8315    13056.641   -1591.2786    8041.5505     312.8961    15599 
249000000   -2940.9784    3598.8436    12977.965   -1616.4828    8156.3047    311.01066    15588 
250000000   -3014.4174    3473.2544    12949.158   -1609.0956    8096.7675    310.32033    15594 
251000000   -3014.5207    3383.2215    13008.614   -1545.1208     7942.863    311.74516    15586 
252000000   -3024.4384    3545.2295    12912.852   -1570.7407    8140.4086    309.45027    15583 
253000000   -2991.4796    3500.6754    13081.704   -1652.0689     8144.224    313.49673    15592 
254000000   -3069.3763    3450.7944    12906.454   -1617.0386    8137.2094    309.29694    15567 
255000000   -2966.4411    3756.9454    12810.771   -1470.8849    8194.2714    307.00395    15565 
256000000     -2951.75     3505.546    12898.011   -1613.8873    8071.1833    309.09462    15585 
257000000   -2987.3739    3625.0567    12891.206    -1484.985    8097.4156    308.93152    15574 
258000000   -2966.3668    3754.6297    12906.638   -1436.1793    8157.1757    309.30135    15576 
259000000   -3079.7421    3479.6089    12975.817   -1618.3383    8177.6893    310.95919    15565 
260000000   -2968.0233    3734.1289    12912.299   -1561.0278      8263.18    309.43702    15579 
261000000   -3003.4707    3670.9256    12912.768   -1440.6753    8115.0716    309.44826    15569 
262000000    -2975.757    3464.7514    12982.681   -1619.9159    8060.4242    311.12369    15593 
263000000   -3067.6551    3608.1624    12907.859   -1526.4238    8202.2413     309.3306    15569 
264000000   -2900.0149    3715.4658    13093.578   -1499.3153     8114.796    313.78129    15569 
265000000   -2874.9623     3678.826    13007.339    -1507.964    8061.7523    311.71459    15573 
266000000   -2964.8953    3707.3317     12956.66   -1578.7762    8251.0032     310.5001    15567 
267000000   -2866.7847    3685.3389    12896.277   -1622.9457    8175.0693    309.05305    15564 
268000000   -2809.4425    3947.4132    12936.995   -1476.5193     8233.375    310.02884    15556 
269000000   -2962.7285    3688.2231    12981.304   -1586.6084    8237.5599    311.09069    15569 
270000000   -2858.4347    3681.2233    12907.385   -1523.5507    8063.2088    309.31924    15590 
271000000   -2894.3407      3888.95    12994.037   -1528.5281    8311.8188    311.39582    15587 
272000000   -2952.8504    3513.5113    13001.011   -1667.9645    8134.3261    311.56296    15592 
273000000   -2971.7931     3643.328    13063.179   -1465.1761    8080.2972    313.05277    15581 
274000000   -2912.7479    3696.2416    12790.773   -1540.6424    8149.6319     306.5247    15581 
275000000    -2900.052    3486.9374    13017.309   -1610.6698    7997.6593    311.95352    15600 
276000000    -2942.668    3537.0057    12726.827   -1584.3943     8064.068    304.99227    15601 
277000000   -3020.5536    3694.6112     13014.04   -1502.4883    8217.6532     311.8752    15565 
278000000   -3034.0344    3633.7845    12879.599   -1510.0572    8177.8761    308.65338    15577 
279000000   -2886.9461    3729.7909    12935.215   -1503.9319    8120.6689    309.98617    15572 
280000000    -2879.916     3758.908    12881.677   -1481.8372    8120.6613    308.70318    15570 
281000000   -3057.4808    3541.5035    12964.635   -1525.9986    8124.9829    310.69123    15573 
282000000    -2976.036    3665.1726     12883.91   -1491.3599    8132.5685    308.75667    15564 
283000000   -2990.1051    3646.6449    12846.977   -1508.9795    8145.7296     307.8716    15556 
284000000   -2977.3051     3480.611    12827.799   -1626.4163    8084.3324    307.41202    15576 
285000000   -2982.1422    3583.3291    12760.523   -1622.8438    8188.3152    305.79977    15597 
286000000   -2873.5719    3549.4471    13043.101   -1689.3091    8112.3281    312.57162    15591 
287000000   -2991.1036    3709.6543    12909.528   -1471.2861    8172.0439    309.37061    15550 
288000000   -2985.0648    3545.0606     12822.73   -1573.7064    8103.8318    307.29053    15570 
289000000   -3037.7904    3512.5407     12948.79   -1660.2562    8210.5873    310.31149    15601 
290000000   -3093.8119    3575.3891    12673.971   -1530.1581    8199.3591    303.72558    15574 
291000000   -2985.5874    3544.7268    13018.116   -1564.6479    8094.9622    311.97287    15576 
292000000    -2960.717     3715.152    12876.086   -1533.3692    8209.2382    308.56918    15571 
293000000   -2914.0416    3717.5689    12972.973   -1472.2126     8103.823    310.89104    15561 
294000000   -2949.2265    3557.8753    12952.018   -1484.0542     7991.156    310.38886    15571 
295000000   -2898.8613     3935.198    13019.718    -1414.327    8248.3862    312.01125    15563 
296000000   -2830.1612    3757.1324    12893.253   -1519.7558    8107.0494    308.98058    15586 
297000000   -2948.3752    3670.0129    13028.451   -1518.9564    8137.3445    312.22054    15561 
298000000   -2884.0836      3614.29    12932.402   -1640.4615    8138.8351    309.91878    15581 
299000000   -3014.4169    3564.0716    12939.574   -1597.5058    8175.9943    310.09064    15586 
300000000   -2894.4026    3659.0697    12800.402   -1495.4222    8048.8945    306.75544    15571 
301000000   -2989.7074     3554.866    12883.354   -1557.5735     8102.147    308.74337    15584 
302000000   -3041.3318    3464.7276    12968.984   -1600.9345    8106.9939    310.79545    15584 
303000000   -2857.8745    3594.6801    12890.761   -1707.5008    8160.0554    308.92087    15573 
304000000   -2876.4223    3596.5636    13030.516   -1608.4948    8081.4808    312.27002    15587 
305000000   -2931.8347    3569.4404    12883.359   -1589.5659    8090.8411    308.74348    15563 
306000000   -2939.8767    3816.5402    12961.468   -1490.1771     8246.594    310.61532    15581 
307000000   -2974.7881    3584.4013    12971.258   -1603.9407    8163.1301    310.84993    15580 
308000000   -2853.8017    3595.4504    12878.233   -1658.1219     8107.374    308.62064    15592 
309000000   -2963.0415    3506.5954     12978.56    -1613.407     8083.044    311.02492    15565 
310000000   -2901.3223     3661.045    13087.489   -1577.1153    8139.4825    313.63534    15584 
311000000   -2953.8753    3587.2726    12973.118   -1547.5194    8088.6673    310.89451    15576 
312000000   -2893.9307    3597.4192    12884.489   -1644.3793    8135.7292    308.77055    15578 
313000000   -2923.7951     3720.384    12955.691   -1539.9995    8184.1785    310.47689    15574 
314000000   -2979.3385    3671.9404      13003.7   -1552.3104    8203.5893     311.6274    15575 
315000000   -2886.1936    3819.0049     12898.98   -1585.7883    8290.9868    309.11782    15574 
316000000   -2897.6167    3636.8302    13079.068   -1504.3603    8038.8072    313.43355    15574 
317000000   -2812.3397    3747.9329    12985.666   -1500.4164    8060.6889    311.19521    15583 
318000000   -2997.8096    3522.6212    12966.148   -1638.4563     8158.887    310.72748    15588 
319000000   -2917.5308     3617.982    12790.853   -1648.9954    8184.5082    306.52661    15594 
320000000   -2976.0166    3609.1903    12892.529   -1523.0609    8108.2677    308.96323    15570 
321000000   -2928.3493    3731.5365    12984.653   -1545.8442      8205.73    311.17095    15582 
322000000   -2963.6685    3513.1626    12969.333   -1599.4799     8076.311     310.8038    15581 
323000000   -3040.3689    3677.4281    12982.432   -1566.8553    8284.6523    311.11773    15574 
324000000   -2991.5546    3503.2595    12903.597   -1604.0244    8098.8386    309.22847    15580 
325000000   -2818.9415    3867.0746    12927.201   -1501.6514    8187.6676    309.79413    15564 
326000000    -2908.459    3734.7192    12943.798   -1586.1796    8229.3578    310.19187    15570 
327000000   -2931.9113    3615.1991    12957.647   -1628.1285    8175.2389    310.52375    15600 
328000000   -3058.0773    3617.3457    13070.043   -1545.6185    8221.0415    313.21727    15586 
329000000   -2973.7838    3661.1558    12940.616   -1516.5211    8151.4606    310.11561    15577 
330000000   -2966.1876    3419.0451     12925.92   -1700.2196    8085.4522    309.76342    15599 
331000000    -3053.736    3527.3223    12923.235   -1570.1994    8151.2577     309.6991    15589 
332000000   -2948.1254    3672.4042    12931.578   -1499.1492    8119.6788    309.89903    15563 
333000000   -3055.1546    3664.2311    12970.008   -1489.4297    8208.8155    310.81998    15574 
334000000   -3036.4979    3585.6312    12862.853   -1608.0952    8230.2243    308.25206    15586 
335000000   -3067.3769    3601.2608    12906.063   -1490.1877    8158.8254    309.28756    15554 
336000000    -3010.366    3483.9707    12977.512   -1623.3651    8117.7017    310.99981    15575 
337000000   -3000.3289    3558.5917    12997.632   -1571.1323    8130.0529    311.48197    15579 
338000000   -2950.1496    3501.8057    13136.556   -1624.4549    8076.4101    314.81123    15602 
339000000   -2956.4554    3680.4522    12960.375   -1504.8437    8141.7513    310.58912    15555 
340000000   -2973.8054    3578.2574    13032.437    -1541.624    8093.6868    312.31606    15568 
341000000   -3036.0794    3440.8729    12821.358   -1676.7884    8153.7408    307.25765    15588 
342000000   -3140.8712    3304.9115    12817.916   -1750.8396    8196.6224    307.17517    15581 
343000000   -3079.7297    3697.2077    13017.377    -1466.752    8243.6894    311.95517    15567 
344000000   -2956.3961    3506.6562    12942.398   -1591.1791    8054.2315    310.15832    15581 
345000000   -2946.9841    3748.4672    12990.971   -1531.8022    8227.2535    311.32236    15567 
346000000    -2902.987    3753.8147    12737.282   -1498.0383      8154.84    305.24281    15567 
347000000   -2968.0631    3414.4563    12899.525   -1644.5615    8027.0809    309.13089    15582 
348000000    -3022.188    3693.4459    12862.351   -1475.6159    8191.2497    308.24004    15567 
349000000   -3025.6421     3656.341    12932.421   -1510.9875    8192.9706    309.91923    15578 
350000000   -3105.6982    3466.9161    12922.663   -1573.9168    8146.5311    309.68538    15579 
351000000   -2975.4113      3687.12    12919.269    -1448.218    8110.7493    309.60404    15569 
352000000   -3041.5294     3673.699    12841.319   -1510.9799    8226.2083      307.736    15553 
353000000   -3126.3775    3330.3694    12739.908   -1678.6344    8135.3814    305.30575    15595 
354000000    -3025.713     3640.372    13046.587   -1534.5486    8200.6337    312.65516    15562 
355000000   -3037.7679    3580.8271    12831.336   -1577.9491    8196.5441    307.49677    15582 
356000000   -3089.9698    3621.9109    12887.435   -1495.2412    8207.1219    308.84115    15564 
357000000   -3035.3133    3475.0294    12942.449    -1587.822    8098.1646    310.15954    15556 
358000000   -2993.8483    3616.0368    13031.981   -1601.0879     8210.973    312.30513    15573 
359000000   -3019.0081    3596.7888    12827.054   -1588.6571     8204.454    307.39416    15571 
360000000    -3039.242    3480.0288    12940.715   -1527.4583    8046.7292      310.118    15565 
361000000   -3073.4633     3438.497    12845.714   -1596.3096    8108.2699    307.84134    15568 
362000000   -3150.1394    3537.7953    12916.415   -1494.9356    8182.8703    309.53564    15566 
363000000   -3149.0694     3409.064    12889.628   -1486.4564    8044.5897    308.89371    15544 
364000000   -3026.6203    3542.2379    12969.478   -1576.1276    8144.9858    310.80728    15573 
365000000   -3075.6864    3569.3649    12929.319   -1521.9742    8167.0254     309.8449    15565 
366000000   -3106.1517    3238.9716    12877.341    -1652.764    7997.8873    308.59926    15592 
367000000   -3113.2889    3450.5412    12875.706   -1585.2331    8149.0632    308.56007    15570 
368000000   -3075.3578    3431.8985    12961.038   -1652.8524    8160.1087    310.60502    15579 
369000000   -3102.1616    3501.5761    13050.392   -1559.8861    8163.6237    312.74635    15563 
370000000   -2991.1821    3430.8223    12980.963   -1657.5841    8079.5885    311.08251    15588 
371000000   -2994.8012    3697.6144    12963.801   -1469.1657    8161.5814    310.67123    15551 
372000000   -3107.0703    3554.6764    12940.239   -1382.6789    8044.4256    310.10659    15555 
373000000   -3035.0993    3507.4781    13026.438   -1498.0376     8040.615     312.1723    15569 
374000000   -3180.0376    3385.0668    13034.383   -1524.9502    8090.0546    312.36269    15572 
375000000   -3101.0381     3653.234    12888.575   -1427.4641    8181.7363    308.86848    15551 
376000000   -3119.1743    3577.6496      12932.2   -1455.2758    8152.0998    309.91392    15561 
377000000   -3057.6264    3603.0395    13045.022   -1436.3604    8097.0263    312.61765    15559 
378000000    -3060.289    3593.5536    12892.639   -1518.3052    8172.1478    308.96587    15567 
379000000   -3073.6689    3594.6023     12778.51   -1526.5863    8194.8575    306.23083    15572 
380000000   -3049.7833    3358.6357    12970.196   -1668.9357    8077.3547    310.82447    15602 
381000000    -2915.268     3732.993    12922.448   -1518.6875    8166.9485    309.68022    15593 
382000000   -2986.3529    3491.3705    12768.945   -1601.2583    8078.9818     306.0016    15569 
383000000   -3021.2593    3575.4085    12890.161   -1600.0335    8196.7014     308.9065    15577 
384000000   -3065.0858    3579.5059     13010.52   -1481.5687    8126.1604    311.79083    15575 
385000000   -3081.8575    3660.3775    12759.964   -1367.5141    8109.7491    305.78639    15558 
386000000   -3010.9066    3607.4314    12845.971   -1461.8968    8080.2348    307.84748    15560 
387000000   -3051.9547    3516.5397    12985.282   -1563.2397    8131.7341    311.18602    15569 
388000000   -3124.5394    3473.2401    13031.329   -1584.4874    8182.2669    312.28951    15570 
389000000   -3013.9328    3596.5533     13069.59   -1537.9154    8148.4014    313.20641    15575 
390000000   -3035.1439    3376.7272    13077.966   -1599.3913    8011.2623    313.40715    15576 
391000000   -3065.2734    3460.2714    12918.842   -1629.1935    8154.7384     309.5938    15587 
392000000   -3134.2551    3475.5394      12852.8    -1504.034    8113.8285    308.01115    15577 
393000000   -3045.6266    3582.5684    12925.057   -1512.9272    8141.1221    309.74275    15590 
394000000   -3068.0492    3544.7951    13067.558   -1591.7671    8204.6113    313.15773    15581 
395000000   -2994.1695    3487.2141     13002.55   -1612.0935    8093.4771    311.59984    15576 
396000000   -2959.1539    3617.0811    12959.065   -1649.9097    8226.1448    310.55773    15585 
397000000   -3033.1754    3627.2981    12842.545   -1467.7089    8128.1825     307.7654    15573 
398000000     -3096.62     3523.272    12901.874   -1493.4879      8113.38    309.18719    15556 
399000000   -3084.3018    3440.1042    12945.472   -1558.4793    8082.8853    310.23198    15583 
400000000   -3004.1568    3373.8512    12956.672   -1583.8061     7961.814     310.5004    15558 
Loop time of 158752 on 28 procs for 400000000 steps with 14000 atoms

Performance: 5442.468 ns/day, 0.004 hours/ns, 2519.661 timesteps/s
99.5% CPU use with 28 MPI tasks x no OpenMP threads

MPI task timing breakdown:
Section |  min time  |  avg time  |  max time  |%varavg| %total
---------------------------------------------------------------
Pair    | 15592      | 19193      | 23932      |1340.8 | 12.09
Bond    | 4719.2     | 6157       | 9138.4     |2225.3 |  3.88
Neigh   | 49388      | 49996      | 50756      | 158.9 | 31.49
Comm    | 40211      | 47581      | 53550      |1609.3 | 29.97
Output  | 0.64618    | 0.64701    | 0.64869    |   0.1 |  0.00
Modify  | 21695      | 22174      | 22498      | 189.7 | 13.97
Other   |            | 1.365e+04  |            |       |  8.60

Nlocal:    500 ave 519 max 482 min
Histogram: 2 3 3 3 2 5 3 2 3 2
Nghost:    719.107 ave 1048 max 363 min
Histogram: 2 2 2 4 4 5 1 1 4 3
Neighs:    5455.29 ave 6938 max 3771 min
Histogram: 1 1 3 2 7 3 4 3 2 2

Total # of neighbors = 152748
Ave neighs/atom = 10.9106
Ave special neighs/atom = 8.15271
Neighbor list builds = 79928493
Dangerous builds = 0
System init for write_restart ...
Total wall time: 44:05:57
