LAMMPS (5 Jun 2019)
Reading restart file ...
  restart file = 5 Jun 2019, LAMMPS = 5 Jun 2019
  restoring atom style full from restart
  orthogonal box = (-420 -420 -420) to (420 420 420)
  2 by 2 by 7 MPI processor grid
  restoring pair style lj/cut from restart
  restoring bond style hybrid from restart
  restoring angle style cosine from restart
  14000 atoms
  15579 bonds
  13600 angles
Finding 1-2 1-3 1-4 neighbors ...
  special bond factors lj:   0          1          1         
  special bond factors coul: 0          0          0         
  3 = max # of 1-2 neighbors
  6 = max # of 1-3 neighbors
  17 = max # of 1-4 neighbors
  56 = max # of special neighbors
  special bonds CPU = 0.616295 secs
  read_restart CPU = 0.942243 secs
Finding 1-2 1-3 1-4 neighbors ...
  special bond factors lj:   0          1          1         
  special bond factors coul: 0          0          0         
  3 = max # of 1-2 neighbors
  6 = max # of 1-3 neighbors
  17 = max # of 1-4 neighbors
  38140 = # of 1-3 neighbors before angle trim
  27200 = # of 1-3 neighbors after angle trim
  56 = max # of special neighbors
  special bonds CPU = 0.00330198 secs
Neighbor list info ...
  update every 1 steps, delay 1 steps, check yes
  max neighbors/atom: 2000, page size: 100000
  master list distance cutoff = 26.9
  ghost atom cutoff = 26.9
  binsize = 13.45, bins = 63 63 63
  1 neighbor lists, perpetual/occasional/extra = 1 0 0
  (1) pair lj/cut, perpetual
      attributes: half, newton on
      pair build: half/bin/newton
      stencil: half/bin/3d/newton
      bin: standard
Setting up Verlet run ...
  Unit style    : real
  Current step  : 400000000
  Time step     : 0.1
Per MPI rank memory allocation (min/avg/max) = 1.103 | 7.639 | 16.74 Mbytes
Step Temp E_pair E_mol TotEng Press 
400000000    310.11775   -2972.1508    6618.1911    16586.745 -0.0098724808 
400010000    310.26208   -2965.4942    6720.9638    16702.197 -0.008295662 
Loop time of 6.38308 on 28 procs for 10000 steps with 14000 atoms

Performance: 13.536 ns/day, 1.773 hours/ns, 1566.642 timesteps/s
99.5% CPU use with 28 MPI tasks x no OpenMP threads

MPI task timing breakdown:
Section |  min time  |  avg time  |  max time  |%varavg| %total
---------------------------------------------------------------
Pair    | 0.00038553 | 0.43896    | 3.367      | 128.6 |  6.88
Bond    | 0.00059785 | 0.12298    | 0.75154    |  55.5 |  1.93
Neigh   | 0.024234   | 0.025091   | 0.02781    |   0.7 |  0.39
Comm    | 0.0019619  | 2.2489     | 4.6109     | 122.4 | 35.23
Output  | 8.5241e-05 | 0.000489   | 0.00094333 |   0.0 |  0.01
Modify  | 0.0011396  | 0.26649    | 1.613      |  80.3 |  4.17
Other   |            | 3.28       |            |       | 51.39

Nlocal:    500 ave 3039 max 0 min
Histogram: 17 4 1 2 2 0 0 0 0 2
Nghost:    467.786 ave 1971 max 0 min
Histogram: 13 3 3 2 2 3 0 0 0 2
Neighs:    5408.54 ave 37090 max 0 min
Histogram: 19 3 1 3 0 0 0 0 0 2

Total # of neighbors = 151439
Ave neighs/atom = 10.8171
Ave special neighs/atom = 7.47186
Neighbor list builds = 7
Dangerous builds = 0
4000 atoms in group rxnSites
Neighbor list info ...
  update every 1 steps, delay 1 steps, check yes
  max neighbors/atom: 2000, page size: 100000
  master list distance cutoff = 26.9
  ghost atom cutoff = 26.9
  binsize = 13.45, bins = 63 63 63
  2 neighbor lists, perpetual/occasional/extra = 1 1 0
  (1) pair lj/cut, perpetual
      attributes: half, newton on
      pair build: half/bin/newton
      stencil: half/bin/3d/newton
      bin: standard
  (2) fix bond/create/random, occasional, copy from (1)
      attributes: half, newton on
      pair build: copy
      stencil: none
      bin: none
Setting up Verlet run ...
  Unit style    : real
  Current step  : 0
  Time step     : 25
Per MPI rank memory allocation (min/avg/max) = 17.8 | 18.24 | 19.65 Mbytes
Step E_pair PotEng KinEng E_bond E_angle Temp Bonds 
       0   -2965.4942    3755.4696    12946.728   -1515.2765    8236.2403    310.26208    15579 
 1000000    -2983.597     3554.564     12965.87    -1592.188    8130.3489    310.72083    15590 
