LAMMPS (5 Jun 2019)
Reading restart file ...
  restart file = 5 Jun 2019, LAMMPS = 5 Jun 2019
  restoring atom style full from restart
  orthogonal box = (-420 -420 -420) to (420 420 420)
  2 by 2 by 7 MPI processor grid
  restoring pair style lj/cut from restart
  restoring bond style hybrid from restart
  restoring angle style cosine from restart
  14000 atoms
  15566 bonds
  13600 angles
Finding 1-2 1-3 1-4 neighbors ...
  special bond factors lj:   0          1          1         
  special bond factors coul: 0          0          0         
  3 = max # of 1-2 neighbors
  6 = max # of 1-3 neighbors
  17 = max # of 1-4 neighbors
  56 = max # of special neighbors
  special bonds CPU = 0.870429 secs
  read_restart CPU = 1.14124 secs
Finding 1-2 1-3 1-4 neighbors ...
  special bond factors lj:   0          1          1         
  special bond factors coul: 0          0          0         
  3 = max # of 1-2 neighbors
  6 = max # of 1-3 neighbors
  17 = max # of 1-4 neighbors
  38044 = # of 1-3 neighbors before angle trim
  27200 = # of 1-3 neighbors after angle trim
  56 = max # of special neighbors
  special bonds CPU = 0.0012588 secs
Neighbor list info ...
  update every 1 steps, delay 1 steps, check yes
  max neighbors/atom: 2000, page size: 100000
  master list distance cutoff = 26.9
  ghost atom cutoff = 26.9
  binsize = 13.45, bins = 63 63 63
  1 neighbor lists, perpetual/occasional/extra = 1 0 0
  (1) pair lj/cut, perpetual
      attributes: half, newton on
      pair build: half/bin/newton
      stencil: half/bin/3d/newton
      bin: standard
Setting up Verlet run ...
  Unit style    : real
  Current step  : 400000000
  Time step     : 0.1
Per MPI rank memory allocation (min/avg/max) = 1.103 | 9.818 | 16.65 Mbytes
Step Temp E_pair E_mol TotEng Press 
400000000    306.52342   -2968.1654    6551.1691    16373.723 -0.086255017 
400010000    313.58291   -2960.9784    6510.0046    16634.327   0.10091832 
Loop time of 3.65958 on 28 procs for 10000 steps with 14000 atoms

Performance: 23.609 ns/day, 1.017 hours/ns, 2732.555 timesteps/s
99.7% CPU use with 28 MPI tasks x no OpenMP threads

MPI task timing breakdown:
Section |  min time  |  avg time  |  max time  |%varavg| %total
---------------------------------------------------------------
Pair    | 0.00038076 | 0.37781    | 1.7324     |  81.3 | 10.32
Bond    | 0.00057491 | 0.11016    | 0.41093    |  36.6 |  3.01
Neigh   | 0.012798   | 0.013194   | 0.014704   |   0.3 |  0.36
Comm    | 0.0017173  | 1.3172     | 2.4041     |  59.0 | 35.99
Output  | 8.5391e-05 | 0.00027814 | 0.00057461 |   0.0 |  0.01
Modify  | 0.00099423 | 0.24024    | 0.90356    |  53.9 |  6.56
Other   |            | 1.601      |            |       | 43.74

Nlocal:    500 ave 1878 max 0 min
Histogram: 12 3 2 3 3 0 1 2 1 1
Nghost:    523.321 ave 1523 max 0 min
Histogram: 10 2 2 3 1 5 1 2 0 2
Neighs:    5400.61 ave 21908 max 0 min
Histogram: 13 3 2 3 2 1 1 1 1 1

Total # of neighbors = 151217
Ave neighs/atom = 10.8012
Ave special neighs/atom = 7.46157
Neighbor list builds = 7
Dangerous builds = 0
4000 atoms in group rxnSites
Neighbor list info ...
  update every 1 steps, delay 1 steps, check yes
  max neighbors/atom: 2000, page size: 100000
  master list distance cutoff = 26.9
  ghost atom cutoff = 26.9
  binsize = 13.45, bins = 63 63 63
  2 neighbor lists, perpetual/occasional/extra = 1 1 0
  (1) pair lj/cut, perpetual
      attributes: half, newton on
      pair build: half/bin/newton
      stencil: half/bin/3d/newton
      bin: standard
  (2) fix bond/create/random, occasional, copy from (1)
      attributes: half, newton on
      pair build: copy
      stencil: none
      bin: none
Setting up Verlet run ...
  Unit style    : real
  Current step  : 0
  Time step     : 25
Per MPI rank memory allocation (min/avg/max) = 17.81 | 18.32 | 19.3 Mbytes
Step E_pair PotEng KinEng E_bond E_angle Temp Bonds 
       0   -2960.9784    3549.0263      13085.3   -1609.3782    8119.3829    313.58291    15566 
 1000000    -3014.734    3620.8389    12827.063   -1501.0996    8136.6726    307.39438    15577 
