LAMMPS (5 Jun 2019)
Reading restart file ...
  restart file = 5 Jun 2019, LAMMPS = 5 Jun 2019
  restoring atom style full from restart
  orthogonal box = (-420 -420 -420) to (420 420 420)
  2 by 2 by 7 MPI processor grid
  restoring pair style lj/cut from restart
  restoring bond style hybrid from restart
  restoring angle style cosine from restart
  14000 atoms
  15574 bonds
  13600 angles
Finding 1-2 1-3 1-4 neighbors ...
  special bond factors lj:   0          1          1         
  special bond factors coul: 0          0          0         
  3 = max # of 1-2 neighbors
  6 = max # of 1-3 neighbors
  17 = max # of 1-4 neighbors
  56 = max # of special neighbors
  special bonds CPU = 0.00239564 secs
  read_restart CPU = 0.114025 secs
Finding 1-2 1-3 1-4 neighbors ...
  special bond factors lj:   0          1          1         
  special bond factors coul: 0          0          0         
  3 = max # of 1-2 neighbors
  6 = max # of 1-3 neighbors
  17 = max # of 1-4 neighbors
  38016 = # of 1-3 neighbors before angle trim
  27200 = # of 1-3 neighbors after angle trim
  56 = max # of special neighbors
  special bonds CPU = 0.00174054 secs
Neighbor list info ...
  update every 1 steps, delay 1 steps, check yes
  max neighbors/atom: 2000, page size: 100000
  master list distance cutoff = 26.9
  ghost atom cutoff = 26.9
  binsize = 13.45, bins = 63 63 63
  1 neighbor lists, perpetual/occasional/extra = 1 0 0
  (1) pair lj/cut, perpetual
      attributes: half, newton on
      pair build: half/bin/newton
      stencil: half/bin/3d/newton
      bin: standard
Setting up Verlet run ...
  Unit style    : real
  Current step  : 400000000
  Time step     : 0.1
WARNING: Inconsistent image flags (../domain.cpp:784)
Per MPI rank memory allocation (min/avg/max) = 1.103 | 8.206 | 16.68 Mbytes
Step Temp E_pair E_mol TotEng Press 
400000000    310.66035   -3044.8516     6715.645     16634.14  0.090116835 
400010000     311.7143   -2982.6993    6570.6903    16595.317   0.20263467 
Loop time of 4.23297 on 28 procs for 10000 steps with 14000 atoms

Performance: 20.411 ns/day, 1.176 hours/ns, 2362.409 timesteps/s
99.5% CPU use with 28 MPI tasks x no OpenMP threads

MPI task timing breakdown:
Section |  min time  |  avg time  |  max time  |%varavg| %total
---------------------------------------------------------------
Pair    | 0.00039353 | 0.38697    | 2.0412     |  92.1 |  9.14
Bond    | 0.00056639 | 0.10978    | 0.49092    |  42.2 |  2.59
Neigh   | 0.015147   | 0.015956   | 0.017605   |   0.6 |  0.38
Comm    | 0.0017762  | 1.4456     | 2.7561     |  88.7 | 34.15
Output  | 5.6882e-05 | 0.00030985 | 0.00063404 |   0.0 |  0.01
Modify  | 0.0010183  | 0.24197    | 1.0614     |  62.3 |  5.72
Other   |            | 2.032      |            |       | 48.01

Nlocal:    500 ave 2206 max 0 min
Histogram: 15 2 3 2 0 2 1 1 1 1
Nghost:    471.143 ave 1692 max 0 min
Histogram: 12 3 1 3 3 1 3 0 1 1
Neighs:    5423.11 ave 25248 max 0 min
Histogram: 15 4 0 3 1 2 0 1 1 1

Total # of neighbors = 151847
Ave neighs/atom = 10.8462
Ave special neighs/atom = 7.454
Neighbor list builds = 7
Dangerous builds = 0
4000 atoms in group rxnSites
Neighbor list info ...
  update every 1 steps, delay 1 steps, check yes
  max neighbors/atom: 2000, page size: 100000
  master list distance cutoff = 26.9
  ghost atom cutoff = 26.9
  binsize = 13.45, bins = 63 63 63
  2 neighbor lists, perpetual/occasional/extra = 1 1 0
  (1) pair lj/cut, perpetual
      attributes: half, newton on
      pair build: half/bin/newton
      stencil: half/bin/3d/newton
      bin: standard
  (2) fix bond/create/random, occasional, copy from (1)
      attributes: half, newton on
      pair build: copy
      stencil: none
      bin: none
Setting up Verlet run ...
  Unit style    : real
  Current step  : 0
  Time step     : 25
WARNING: Inconsistent image flags (../domain.cpp:784)
Per MPI rank memory allocation (min/avg/max) = 17.83 | 18.27 | 19.32 Mbytes
Step E_pair PotEng KinEng E_bond E_angle Temp Bonds 
       0   -2982.6993    3587.9909    13007.326   -1596.2302    8166.9204     311.7143    15574 
