LAMMPS (5 Jun 2019)
Reading restart file ...
  restart file = 5 Jun 2019, LAMMPS = 5 Jun 2019
  restoring atom style full from restart
  orthogonal box = (-420 -420 -420) to (420 420 420)
  2 by 2 by 7 MPI processor grid
  restoring pair style lj/cut from restart
  restoring bond style hybrid from restart
  restoring angle style cosine from restart
  14000 atoms
  15574 bonds
  13600 angles
Finding 1-2 1-3 1-4 neighbors ...
  special bond factors lj:   0          1          1         
  special bond factors coul: 0          0          0         
  3 = max # of 1-2 neighbors
  6 = max # of 1-3 neighbors
  17 = max # of 1-4 neighbors
  56 = max # of special neighbors
  special bonds CPU = 2.15074 secs
  read_restart CPU = 2.47966 secs
Finding 1-2 1-3 1-4 neighbors ...
  special bond factors lj:   0          1          1         
  special bond factors coul: 0          0          0         
  3 = max # of 1-2 neighbors
  6 = max # of 1-3 neighbors
  17 = max # of 1-4 neighbors
  38016 = # of 1-3 neighbors before angle trim
  27200 = # of 1-3 neighbors after angle trim
  56 = max # of special neighbors
  special bonds CPU = 0.00373992 secs
Neighbor list info ...
  update every 1 steps, delay 1 steps, check yes
  max neighbors/atom: 2000, page size: 100000
  master list distance cutoff = 26.9
  ghost atom cutoff = 26.9
  binsize = 13.45, bins = 63 63 63
  1 neighbor lists, perpetual/occasional/extra = 1 0 0
  (1) pair lj/cut, perpetual
      attributes: half, newton on
      pair build: half/bin/newton
      stencil: half/bin/3d/newton
      bin: standard
Setting up Verlet run ...
  Unit style    : real
  Current step  : 400000000
  Time step     : 0.1
WARNING: Inconsistent image flags (../domain.cpp:784)
Per MPI rank memory allocation (min/avg/max) = 1.103 | 8.206 | 16.68 Mbytes
Step Temp E_pair E_mol TotEng Press 
400000000    310.66035   -3044.8516     6715.645     16634.14  0.090116835 
400010000     311.7143   -2982.6993    6570.6903    16595.317   0.20263467 
Loop time of 4.44882 on 28 procs for 10000 steps with 14000 atoms

Performance: 19.421 ns/day, 1.236 hours/ns, 2247.789 timesteps/s
99.5% CPU use with 28 MPI tasks x no OpenMP threads

MPI task timing breakdown:
Section |  min time  |  avg time  |  max time  |%varavg| %total
---------------------------------------------------------------
Pair    | 0.00033985 | 0.39935    | 2.0294     |  91.3 |  8.98
Bond    | 0.00050294 | 0.11382    | 0.48471    |  41.7 |  2.56
Neigh   | 0.015027   | 0.015893   | 0.01768    |   0.7 |  0.36
Comm    | 0.002368   | 1.5754     | 2.8678     |  88.3 | 35.41
Output  | 0.00035127 | 0.00058899 | 0.00092672 |   0.0 |  0.01
Modify  | 0.0010062  | 0.24932    | 1.0479     |  61.2 |  5.60
Other   |            | 2.094      |            |       | 47.08

Nlocal:    500 ave 2206 max 0 min
Histogram: 15 2 3 2 0 2 1 1 1 1
Nghost:    471.143 ave 1692 max 0 min
Histogram: 12 3 1 3 3 1 3 0 1 1
Neighs:    5423.11 ave 25248 max 0 min
Histogram: 15 4 0 3 1 2 0 1 1 1

Total # of neighbors = 151847
Ave neighs/atom = 10.8462
Ave special neighs/atom = 7.454
Neighbor list builds = 7
Dangerous builds = 0
4000 atoms in group rxnSites
Neighbor list info ...
  update every 1 steps, delay 1 steps, check yes
  max neighbors/atom: 2000, page size: 100000
  master list distance cutoff = 26.9
  ghost atom cutoff = 26.9
  binsize = 13.45, bins = 63 63 63
  2 neighbor lists, perpetual/occasional/extra = 1 1 0
  (1) pair lj/cut, perpetual
      attributes: half, newton on
      pair build: half/bin/newton
      stencil: half/bin/3d/newton
      bin: standard
  (2) fix bond/create/random, occasional, copy from (1)
      attributes: half, newton on
      pair build: copy
      stencil: none
      bin: none
Setting up Verlet run ...
  Unit style    : real
  Current step  : 0
  Time step     : 25
WARNING: Inconsistent image flags (../domain.cpp:784)
Per MPI rank memory allocation (min/avg/max) = 17.83 | 18.27 | 19.32 Mbytes
Step E_pair PotEng KinEng E_bond E_angle Temp Bonds 
       0   -2982.6993    3587.9909    13007.326   -1596.2302    8166.9204     311.7143    15574 
 1000000   -3051.9527    3410.1589    12856.477   -1640.9465    8103.0581    308.09927    15588 
 2000000   -3092.2192    3434.1189    12940.188   -1581.7616    8108.0997    310.10536    15598 
 3000000   -3093.2156    3469.0768    12989.377   -1575.2921    8137.5845    311.28415    15574 
 4000000   -3007.7562    3497.2719     12939.66   -1624.0518    8129.0799     310.0927    15584 
 5000000    -3026.291    3452.6499    12799.872   -1596.2158    8075.1567    306.74275    15575 
 6000000   -3068.1373     3573.203      12890.8   -1539.8116    8181.1519     308.9218    15574 
 7000000   -3034.5973    3649.6655    13036.189   -1491.5334    8175.7961    312.40598    15550 
 8000000   -3121.6238    3554.2525    12930.106   -1578.4095    8254.2857    309.86374    15570 
 9000000   -3099.1611     3259.568    12900.953   -1707.9185    8066.6475    309.16512    15608 
10000000   -3003.0659      3580.86    13000.927   -1573.5309    8157.4568    311.56095    15564 
11000000   -2895.9922    3689.3315    12954.757   -1550.1023    8135.4259     310.4545    15577 
12000000   -2992.3877    3549.5735    12793.274   -1574.1177    8116.0789    306.58464    15576 
13000000   -3032.5826    3583.0578    12908.085    -1523.941    8139.5814    309.33602    15573 
14000000   -2970.9089    3637.5406    13156.901   -1459.1369    8067.5865    315.29878    15572 
15000000   -3146.8842    3457.6521    12861.844   -1507.2434    8111.7798    308.22787    15566 
16000000   -3071.3127     3599.748    12954.492   -1506.9505    8178.0111    310.44814    15590 
17000000   -3086.0946    3439.5198    13097.553   -1595.5957    8121.2102    313.87654    15563 
18000000   -3098.3257    3257.6158    13083.073   -1692.1452    8048.0866    313.52954    15587 
19000000   -3019.0143    3381.4104    12827.289   -1615.8601    8016.2847    307.39978    15589 
20000000   -3012.1576    3587.0924    12977.183   -1557.0941    8156.3441    310.99193    15565 
21000000   -2975.5613    3605.2413    12982.488    -1532.488    8113.2907    311.11907    15568 
22000000   -3009.8209    3582.9552    13030.992    -1540.473    8133.2491    312.28144    15575 
23000000   -3078.3514    3704.3394    12917.744     -1498.53    8281.2208     309.5675    15579 
24000000    -3097.331    3641.8505    12915.139   -1515.0793    8254.2608    309.50507    15576 
25000000   -3133.1717    3580.2521    12859.408   -1577.9875    8291.4113    308.16951    15567 
26000000   -3079.9425    3542.7342    12849.397   -1555.9885    8178.6653    307.92959    15587 
27000000   -3036.0063    3535.8169    12932.924   -1643.8119    8215.6351    309.93129    15578 
28000000   -2947.6418    3587.4692    12877.992   -1576.2418    8111.3528    308.61485    15573 
29000000   -2897.5292    3586.6068    12943.261   -1611.0967    8095.2327    310.17901    15574 
30000000   -3064.1869    3521.7153    12853.603   -1608.1173    8194.0195     308.0304    15586 
31000000   -3024.2908    3577.2669    13049.876   -1575.8973     8177.455    312.73397    15574 
32000000   -3014.0957    3546.5677    12799.693   -1636.2504    8196.9139    306.73847    15576 
33000000   -2964.9326    3642.1576    13134.652   -1547.9461    8155.0363     314.7656    15580 
34000000   -2955.5015    3749.1607    12922.601   -1466.7105    8171.3727    309.68389    15575 
35000000   -2987.6482    3436.5545    12855.874   -1685.6662    8109.8689    308.08482    15588 
36000000   -3042.0196    3518.4883    12779.867   -1546.1345    8106.6423    306.26333    15594 
37000000   -2939.8517    3838.4654    12831.558   -1398.6383    8176.9555     307.5021    15574 
38000000   -3029.3065    3442.5646    12930.746   -1716.5081    8188.3791    309.87908    15588 
39000000   -2972.7406    3774.2319    12977.509   -1492.3452    8239.3178    310.99973    15587 
40000000   -3085.0361    3549.7143    13026.481   -1500.6786    8135.4289    312.17332    15560 
41000000   -3093.4864    3496.6535    12787.589    -1539.904    8130.0439     306.4484    15587 
42000000   -3044.8074     3456.644    12906.945   -1541.2147     8042.666    309.30871    15584 
43000000    -3024.179    3453.7783     12933.83   -1570.9983    8048.9556    309.95299    15567 
44000000   -3053.8513    3571.7997    12962.615   -1565.1142    8190.7652    310.64281    15592 
45000000   -3032.7678    3538.6687    13020.078   -1586.3354    8157.7719    312.01989    15589 
46000000   -2888.9543    3773.7859    12964.679   -1486.6545    8149.3947    310.69227    15548 
47000000   -2960.4699     3757.216    12967.847   -1502.7069    8220.3929    310.76818    15577 
48000000   -2918.9262    3856.9876    12969.997   -1468.5138    8244.4276    310.81973    15548 
49000000   -2945.9127    3652.9875    12868.905   -1559.0625    8157.9627     308.3971    15566 
50000000    -3024.246    3443.1094    12900.829   -1639.9464    8107.3019    309.16214    15562 
51000000   -2961.9983    3580.0527     12938.01   -1555.9641     8098.015    310.05316    15567 
52000000   -2975.1973    3434.2371    12907.564    -1629.003    8038.4374    309.32354    15588 
53000000   -3067.9368    3430.4366    12934.003   -1649.6012    8147.9746    309.95713    15586 
54000000   -2960.1581    3618.2289    13056.346   -1550.3834    8128.7704    312.88904    15566 
55000000    -3004.736    3613.9594    12852.911    -1597.641    8216.3365     308.0138    15607 
56000000   -3017.8847    3601.7723    12940.436   -1541.9554    8161.6123     310.1113    15585 
57000000   -2932.4486    3801.7329     12981.71   -1445.0326    8179.2142    311.10042    15578 
58000000   -2988.4171    3744.1059     12947.87   -1477.1244    8209.6474    310.28945    15576 
59000000   -2964.0908     3760.536    12963.137   -1529.5526    8254.1793    310.65532    15581 
60000000   -2969.6536    3605.9443    13014.394   -1586.2716    8161.8695    311.88368    15578 
61000000   -2886.3934    3655.3861    12779.512   -1666.4755     8208.255    306.25484    15586 
62000000    -2833.253    3629.2678    12910.386   -1723.5415    8186.0623    309.39118    15592 
63000000   -2801.0403    3866.1888    13102.275   -1495.4794    8162.7084     313.9897    15578 
64000000   -2897.4256    3614.4757    12996.621   -1627.2999    8139.2012    311.45774    15591 
65000000   -2832.5239    3765.5237    12915.697   -1562.1046    8160.1522    309.51845    15577 
66000000   -2878.7546    3801.3222     12897.94   -1551.6177    8231.6946    309.09291    15566 
67000000   -2953.4317    3537.7028    12873.894   -1697.1264     8188.261    308.51666    15578 
68000000   -2965.4843    3618.8168    12938.832   -1610.9722    8195.2733    310.07286    15572 
69000000   -2959.4839    3649.3129    12845.445   -1588.9676    8197.7644    307.83489    15585 
70000000   -3074.3558    3555.9586    12979.047   -1507.8572    8138.1717     311.0366    15564 
71000000   -3040.0518    3609.1466    13008.898   -1567.4072    8216.6056    311.75196    15564 
72000000   -3079.9532    3760.0556    12924.346   -1411.8141    8251.8228    309.72571    15555 
73000000   -3009.1764    3461.0448    12958.228   -1598.8703    8069.0915    310.53768    15561 
74000000    -2922.259    3864.6141    12957.042   -1416.5129     8203.386    310.50925    15566 
75000000   -2987.7652    3571.7879    13124.297   -1602.9692    8162.5223    314.51744    15571 
76000000   -2890.0284    3668.6867    12833.464   -1521.3151    8080.0302    307.54776    15585 
77000000     -2993.42    3570.5276    12903.089   -1590.5729    8154.5205     309.2163    15569 
78000000   -2979.9404    3450.8346    12989.936   -1676.4467    8107.2217    311.29755    15598 
79000000   -2907.3616     3699.309    12985.323   -1551.0363    8157.7069    311.18699    15576 
80000000   -3040.6758    3515.0673    12921.073   -1547.1154    8102.8585    309.64729    15568 
81000000   -3056.1658    3808.7382    12819.929   -1394.9283    8259.8323     307.2234    15564 
82000000   -2979.6031    3674.2503    12999.559   -1597.0143    8250.8677    311.52816    15580 
83000000    -2954.709    3439.6514    12804.299   -1623.4984    8017.8588    306.84883    15580 
84000000   -2930.4669    3743.2989    12937.904   -1522.7952     8196.561    310.05063    15578 
85000000   -3007.3945    3724.2862    12827.675    -1505.555    8237.2356    307.40904    15573 
86000000   -3051.7991    3507.8045    12922.006   -1576.6129    8136.2165    309.66965    15566 
87000000   -3015.2227    3598.4704     13137.74   -1557.0021    8170.6953    314.83959    15571 
88000000   -2942.9703    3602.4946    13038.925   -1682.3129    8227.7779    312.47153    15585 
89000000   -3035.6257     3674.246    12953.025   -1442.2945    8152.1662    310.41299    15558 
90000000   -3006.1072    3553.7742    12677.494   -1610.6372    8170.5186    303.81002    15584 
91000000   -3031.3759    3424.1281    13000.582     -1617.36     8072.864    311.55268    15564 
92000000   -3116.2501    3339.6424    12777.964    -1683.089    8138.9815    306.21774    15588 
93000000   -3052.8562    3757.4962    12913.908   -1408.8753    8219.2277    309.47557    15579 
94000000   -3037.5022    3628.7672    12723.726   -1463.4377     8129.707    304.91796    15557 
95000000    -3095.681     3358.755    12881.837    -1545.307     7999.743    308.70702    15565 
96000000   -2991.7929    3471.5434     13017.76   -1662.2307     8125.567    311.96433    15589 
97000000   -2938.9372    3591.4948    12936.218   -1609.8396    8140.2715    310.01023    15584 
98000000   -3000.7697    3718.2478     12928.04   -1499.5046    8218.5222    309.81424    15570 
99000000   -2942.7026    3749.6465      12874.8   -1495.3214    8187.6704    308.53838    15573 
100000000   -3047.9096    3478.0804    13059.006    -1683.053     8209.043    312.95278    15578 
101000000   -2984.2241    3615.4957    12839.951   -1609.8467    8209.5665    307.70323    15592 
102000000    -3000.497    3628.5803    13009.337   -1482.1573    8111.2345    311.76248    15583 
103000000   -3012.6045    3488.4396     12847.46   -1657.5708    8158.6149    307.88318    15583 
104000000   -2909.3632    3598.8832    12906.119   -1633.9537    8142.2001    309.28892    15600 
105000000   -2961.4075    3606.5747    12952.873    -1601.487    8169.4693    310.40935    15571 
106000000   -3020.2925    3640.0697    12968.037   -1547.2361    8207.5983    310.77274    15583 
107000000   -2971.4136    3529.7002    12887.906   -1663.0703    8164.1841    308.85244    15591 
108000000   -3012.0351    3520.4269    13006.512   -1551.4101    8083.8721    311.69479    15573 
109000000   -3009.9496    3487.9478    12962.123   -1546.3625      8044.26    310.63103    15597 
110000000   -2908.3637    3569.9038    13098.804   -1658.0462    8136.3138    313.90651    15586 
111000000   -2969.3019    3526.2275    12794.062   -1658.1275    8153.6569    306.60353    15600 
112000000   -2968.1827    3687.3969      12801.7   -1511.2467    8166.8264    306.78657    15561 
113000000   -2978.1202    3611.0241    12852.509   -1482.5417    8071.6861    308.00417    15560 
114000000   -2973.9461    3692.3581    12947.486   -1505.1554    8171.4596    310.28026    15561 
115000000    -2973.161    3590.6782    12817.411   -1614.4285    8178.2676    307.16306    15576 
116000000   -3043.7113    3556.0735    12915.495   -1580.3476    8180.1323    309.51361    15562 
117000000   -3066.8468    3562.8037    12860.041   -1564.0444    8193.6949    308.18468    15578 
118000000   -2948.6003    3627.1769    12815.297   -1587.7333    8163.5106    307.11241    15592 
119000000   -2855.5142    3857.9144    12877.284   -1577.6438    8291.0724     308.5979    15584 
120000000   -2883.9796    3811.2874    13029.079     -1525.18     8220.447     312.2356    15593 
121000000   -3059.9102    3547.2976    13046.782   -1580.9297    8188.1375    312.65983    15565 
122000000   -2978.4835    3582.4474    13025.805   -1623.9026    8184.8335    312.15712    15598 
123000000   -2900.8993    3691.9631    12942.605   -1578.4939    8171.3563    310.16329    15571 
124000000   -3008.1188    3477.1305    12844.183   -1627.8262    8113.0756    307.80465    15592 
125000000     -3036.51    3406.6034    12913.492   -1593.7123    8036.8258    309.46561    15583 
126000000   -3076.5097    3770.5275    12924.622   -1404.0438    8251.0811    309.73233    15563 
127000000   -2986.4313    3699.6523    12936.127   -1488.2071    8174.2906    310.00803    15560 
128000000   -2884.4925    3534.4264    12951.224   -1759.3287    8178.2475    310.36982    15593 
129000000   -2950.7018    3668.6661    12887.563    -1610.482    8229.8499    308.84423    15584 
130000000   -2916.3775    3851.5662    12947.288   -1424.7909    8192.7346    310.27551    15555 
131000000   -2824.2771    3774.2351    12889.478   -1538.4721    8136.9842    308.89011    15583 
132000000   -2940.8682    3510.3584    12886.086   -1693.6615    8144.8882    308.80882    15595 
133000000   -3130.1691    3496.9923    13014.102   -1476.2109    8103.3722    311.87667    15544 
134000000   -2990.9844     3542.334    13001.574   -1665.5822    8198.9006    311.57645    15602 
135000000   -2933.7171    3691.2242    13020.831   -1507.2938     8132.235    312.03793    15570 
136000000   -2949.0119    3714.2918    12902.688    -1506.846    8170.1497     309.2067    15580 
137000000   -3018.0882     3665.035    12950.341   -1546.9181    8230.0412    310.34867    15570 
138000000   -2967.9588    3602.4754    12898.829   -1526.5199     8096.954    309.11421    15585 
139000000   -2987.6742     3736.039    12776.338   -1521.0667    8244.7799    306.17877    15565 
140000000   -2956.9899    3537.4206    12926.914   -1697.1256    8191.5361    309.78726    15583 
141000000   -2962.5251    3653.4316    13052.516   -1515.6126    8131.5692    312.79724    15567 
142000000   -2958.7053    3478.4972    13001.352   -1655.2311    8092.4335    311.57113    15589 
143000000   -2929.0836    3715.0337    12834.403   -1495.1697     8139.287    307.57026    15563 
144000000   -2998.8174    3645.8037    12832.284   -1529.0659     8173.687    307.51948    15582 
145000000   -2922.1628    3874.6228    12999.117   -1506.3855     8303.171    311.51756    15567 
146000000   -2956.4576     3521.853    13024.772   -1654.8395    8133.1501    312.13237    15587 
147000000   -2898.3856    3816.4268    12876.375    -1459.394    8174.2064    308.57611    15577 
148000000   -3019.5146    3635.2018    13166.511    -1540.579    8195.2954    315.52907    15575 
149000000    -3006.607    3637.3189    12962.211   -1624.5239    8268.4497    310.63312    15583 
150000000    -2994.219    3456.6012    12924.245   -1679.4739    8130.2941     309.7233    15579 
151000000   -3078.2151    3407.8993    12963.522   -1591.0934    8077.2079    310.66455    15595 
152000000   -2999.3036    3728.2898    12944.531   -1452.8428    8180.4361    310.20944    15577 
153000000   -2966.8127    3734.8031    12892.471    -1498.991    8200.6068    308.96185    15569 
154000000   -3027.3649    3481.8945    12917.718    -1674.167    8183.4264    309.56689    15588 
155000000   -3037.0065    3553.2719    12948.897   -1539.8286    8130.1069    310.31406    15578 
156000000   -2972.3281    3479.6445    12801.417   -1594.8767    8046.8494    306.77979    15579 
157000000    -2934.861     3589.931    13027.087   -1516.3772    8041.1692    312.18785    15563 
158000000   -3050.2759    3419.9812    12876.769    -1616.416    8086.6731    308.58555    15580 
159000000   -3039.0827    3353.4579    12956.529   -1660.4496    8052.9902    310.49697    15588 
160000000   -3016.5342    3574.9148    12949.309   -1543.5164    8134.9653    310.32393    15579 
161000000   -2932.0282    3653.9328    12879.766   -1585.7153    8171.6763    308.65737    15580 
162000000   -3009.7209    3447.3433    13048.918   -1606.0948     8063.159    312.71101    15575 
163000000   -2954.3344    3698.5725    12762.858   -1546.2355    8199.1424    305.85573    15579 
164000000   -3017.4077    3473.7985    13045.347   -1622.1237    8113.3299    312.62545    15588 
165000000   -3013.2709    3640.8072    13019.198   -1519.2605    8173.3386    311.99879    15562 
166000000   -2986.3476    3610.0878    12884.769   -1547.9529    8144.3884    308.77726    15567 
167000000   -2965.7367    3620.9934     12904.21   -1529.1813    8115.9114    309.24316    15577 
168000000   -3036.6854    3483.0876    12908.793    -1626.981    8146.7539    309.35298    15593 
169000000   -2992.0483    3643.5832    13052.703   -1514.2237    8149.8551    312.80172    15574 
170000000   -3015.6017    3599.3837    12903.806   -1573.7244    8188.7098    309.23348    15552 
171000000   -3019.8248    3752.3738    12949.629   -1497.1408    8269.3394     310.3316    15580 
172000000    -3054.828    3591.9107    12796.212    -1530.022    8176.7607    306.65504    15562 
173000000   -2875.4305    3719.9777    12997.798   -1625.1545    8220.5626    311.48595    15573 
174000000   -3023.9195    3505.3281    12985.407   -1544.2217    8073.4693      311.189    15570 
175000000   -2961.7403    3543.7098    12779.174   -1665.0718    8170.5219    306.24673    15590 
176000000   -3044.5942    3686.1976    12845.573   -1461.4298    8192.2215    307.83797    15573 
177000000   -2963.1937    3611.9656    12910.424   -1589.6035    8164.7629    309.39207    15572 
178000000    -3021.993    3449.6606    12860.388   -1650.1038    8121.7574    308.19299    15577 
179000000    -2992.349     3680.695    12953.202   -1557.9936    8231.0376    310.41724    15575 
180000000   -2878.9452    3831.4025    12996.797   -1484.3724      8194.72    311.46197    15564 
181000000   -2914.1574    3570.0019    12999.496   -1629.5827    8113.7419    311.52665    15576 
182000000   -3011.8951    3574.6575    12806.024   -1515.2829    8101.8355    306.89018    15560 
183000000   -2994.9616    3606.5818    12888.617   -1511.8328    8113.3762    308.86948    15571 
184000000   -2922.3517    3831.0315    12988.674   -1397.9229    8151.3061     311.2673    15544 
185000000    -2993.692    3748.6736    12899.465   -1491.8536    8234.2192    309.12946    15570 
186000000   -2953.8122    3633.8488    12941.905   -1533.2313    8120.8923    310.14652    15575 
187000000   -2940.7901    3770.7246    12810.866   -1493.5986    8205.1134    307.00622    15551 
188000000   -3024.1669    3741.1699    12847.073   -1421.8722     8187.209    307.87391    15550 
189000000   -3023.7973    3677.5594    12955.165   -1479.6339    8180.9906    310.46427    15560 
190000000   -2978.7238    3503.5837    13039.627   -1617.5807    8099.8882    312.48837    15570 
191000000   -3009.3721    3669.7311    12971.316   -1527.4671    8206.5703    310.85133    15577 
192000000   -3100.4108    3404.5027    12840.929   -1642.5525     8147.466    307.72668    15573 
193000000   -3089.3279    3513.3219    12888.594   -1616.4239    8219.0737    308.86893    15580 
194000000   -3003.6169    3530.7059    13030.981   -1535.5994    8069.9222    312.28118    15573 
195000000   -2975.8903    3695.4516    12859.427   -1484.4105    8155.7523    308.16997    15557 
196000000   -3041.4249    3599.8693    12782.822   -1568.6701    8209.9643    306.33417    15575 
197000000   -3086.8316    3437.8213    12986.921   -1612.2584    8136.9114    311.22528    15602 
198000000   -3043.3269    3642.2417    12954.233   -1565.6918    8251.2603    310.44195    15578 
199000000   -3054.2029    3504.3635    12783.719   -1586.2285    8144.7949    306.35565    15576 
200000000   -3086.3765    3705.8528    12999.024   -1456.4334    8248.6626    311.51533    15556 
201000000   -3013.6724    3660.0034     12929.39   -1459.8235    8133.4992    309.84659    15558 
202000000   -3009.0965     3577.424    12983.754   -1437.4193    8023.9398    311.14939    15560 
203000000   -3101.5396    3457.9071    12957.005   -1525.1397    8084.5865    310.50837    15558 
204000000   -3090.7628    3591.4613    12856.642   -1577.5573    8259.7813    308.10321    15559 
205000000   -3144.3358    3586.7772    12919.976   -1500.3089    8231.4219    309.62098    15566 
206000000   -3075.9545    3496.9748    12959.607    -1600.232    8173.1613    310.57073    15591 
207000000   -3016.9144    3545.6346    12967.924   -1559.7352    8122.2842    310.77003    15569 
208000000   -3137.8584    3425.8808    12810.158   -1525.0902    8088.8293    306.98926    15583 
209000000   -3088.8863    3475.5639    12823.946   -1550.6776    8115.1277    307.31966    15568 
210000000   -3114.0315    3347.2971    12857.797   -1646.1023    8107.4309    308.13091    15575 
211000000   -3103.0071    3511.0271    12798.725   -1546.7883    8160.8226    306.71526    15569 
212000000    -3134.956    3311.3578    12861.294   -1553.8486    8000.1623     308.2147    15569 
213000000   -3005.7329    3471.1391    12971.034   -1558.2375    8035.1095    310.84457    15566 
214000000   -3140.6787    3419.8856    12928.145   -1461.0871    8021.6514    309.81674    15581 
215000000   -3110.0467    3431.2395    12769.559   -1604.4682    8145.7544    306.01632    15584 
216000000   -3089.9162    3462.1082    12991.431   -1607.0788    8159.1032    311.33336    15576 
217000000   -3051.7366    3539.8702    12999.649   -1597.8412     8189.448    311.53031    15583 
218000000   -2996.8669    3635.2457    12812.376   -1491.5554     8123.668     307.0424    15588 
219000000   -2941.5118    3552.3056    13023.341   -1576.4004    8070.2178    312.09807    15566 
220000000   -2963.4283    3619.8192    12953.803   -1596.7259    8179.9735    310.43164    15581 
221000000   -2998.1688    3461.4134    12922.794   -1489.6093    7949.1915    309.68851    15560 
222000000   -3034.1793    3606.8852    13019.114    -1499.616    8140.6805    311.99679    15577 
223000000    -2941.512    3590.9236    13010.866   -1536.8696    8069.3052    311.79913    15586 
224000000    -3028.058    3468.7683    13131.401   -1611.7862    8108.6125    314.68769    15574 
225000000   -3026.8877    3554.7118    13151.598   -1496.4446    8078.0441     315.1717    15565 
226000000    -3039.971    3472.9739    12945.561   -1621.6314    8134.5763    310.23413    15592 
227000000   -2872.1561    3658.9663    12810.303   -1527.9651    8059.0875    306.99272    15573 
228000000   -2898.9388    3579.5973    12892.656   -1638.1597    8116.6958    308.96628    15583 
229000000    -2838.441    3711.6085    12953.706   -1483.2509    8033.3004     310.4293    15570 
230000000   -2941.1576    3507.5919    12817.581   -1588.4716    8037.2211    307.16713    15584 
231000000   -3008.7021    3525.6517    12865.288   -1550.2065    8084.5603    308.31041    15564 
232000000   -2937.0341      3517.59    13013.689   -1683.1504    8137.7745    311.86677    15578 
233000000   -3064.6057    3574.9842    12870.927   -1501.0555    8140.6453    308.44555    15562 
234000000   -2958.6671    3534.8073    12944.293   -1586.5861    8080.0605    310.20373    15589 
235000000      -2962.6     3452.147    12888.429   -1718.6414    8133.3883    308.86497    15596 
236000000   -3063.8478    3467.9444    12790.625    -1544.646    8076.4382    306.52115    15571 
237000000   -2913.6962    3662.7261     12959.59   -1560.6437     8137.066    310.57031    15573 
238000000   -2940.5168     3637.456    13081.008   -1564.7356    8142.7084    313.48004    15578 
239000000   -2922.9965    3778.9048    12951.531   -1516.0337     8217.935    310.37719    15580 
240000000   -3009.1412    3628.2403    12849.287   -1627.3242    8264.7057    307.92697    15589 
241000000   -3010.4878     3387.266    12928.453   -1666.0621    8063.8159    309.82413    15582 
242000000   -3093.3312    3646.3788    13134.942   -1467.2906    8207.0007    314.77255    15561 
243000000   -3012.1977    3543.6451    13069.662   -1504.5639    8060.4066    313.20814    15568 
244000000   -3043.3938    3409.6181    12773.879   -1584.3715    8037.3833    306.11984    15583 
245000000   -3071.3317    3646.6522    12836.061   -1500.2516    8218.2354       307.61    15566 
246000000   -2964.0016     3609.272    12837.889   -1576.8452    8150.1188    307.65382    15578 
247000000   -3044.7282    3552.5913    13056.389   -1588.1044     8185.424    312.89006    15592 
248000000   -3027.6256    3518.1524    12867.515     -1597.92    8143.6981    308.36378    15571 
249000000   -3014.3001    3600.1376    12986.885   -1597.8413     8212.279    311.22443    15568 
250000000   -3083.1996    3450.5487    12855.401   -1669.3341    8203.0824    308.07348    15583 
251000000   -2941.7436    3514.2791    12957.858   -1621.1669    8077.1895     310.5288    15584 
252000000   -3056.3907    3593.0315    13009.202   -1501.9005    8151.3227    311.75925    15561 
253000000   -3030.9941    3578.1205    12848.259   -1483.2404    8092.3549    307.90232    15552 
254000000    -2928.922    3690.9322    13010.497   -1531.7543    8151.6086    311.79028    15566 
255000000   -3024.0796    3614.8152    12958.031   -1551.5663    8190.4611    310.53296    15584 
256000000   -2987.7258    3655.1348    12905.451   -1488.9367    8131.7973    309.27291    15574 
257000000   -3005.0488    3532.9858    13034.858   -1603.2104    8141.2451    312.37408    15566 
258000000   -3006.8291    3543.6665    12942.921   -1670.1308    8220.6264    310.17086    15585 
259000000   -3001.4266     3624.371    13023.691   -1500.4768    8126.2744    312.10647    15573 
260000000   -3101.5582    3502.2722    12871.576    -1583.353    8187.1833    308.46109    15593 
261000000    -3112.637    3375.1745    12893.648   -1600.4343    8088.2457    308.99006    15579 
262000000   -3026.7118    3598.6419    12918.193   -1523.6118    8148.9655    309.57827    15558 
263000000   -3062.8973    3423.1809    13030.362   -1591.9115    8077.9897    312.26633    15583 
264000000   -3122.5419    3483.7731    13015.477   -1486.7688    8093.0838    311.90963    15562 
265000000   -3006.7701    3542.8311    12971.309   -1540.2174    8089.8186    310.85116    15575 
266000000   -3051.8648    3600.3211    13021.605   -1452.6816    8104.8675    312.05647    15562 
267000000   -3067.3075    3486.8952    13059.697     -1617.27    8171.4728    312.96935    15578 
268000000   -2986.6769    3679.6673    12934.303   -1550.2764    8216.6206    309.96432    15579 
269000000   -2935.1918    3703.9953    12820.432   -1580.7968    8219.9839    307.23547    15579 
270000000   -2985.1437    3712.6918    13091.917   -1494.5216    8192.3571    313.74148    15569 
271000000   -2911.6049    3665.3005    12672.363   -1611.0511    8187.9565    303.68705    15592 
272000000   -3022.7994     3482.328    12957.481   -1577.2782    8082.4057    310.51979    15587 
273000000   -2962.3538    3669.1647    12976.607   -1493.3213    8124.8398    310.97812    15574 
274000000   -2981.6895    3456.9282    12922.214    -1658.349    8096.9667    309.67462    15602 
275000000   -3043.1518    3686.0585    12842.383   -1472.3697      8201.58    307.76151    15587 
276000000   -2946.1168    3578.7303    12797.199   -1584.5295    8109.3767    306.67869    15575 
277000000   -3015.0583    3643.7258    13014.705   -1536.2935    8195.0775    311.89112    15577 
278000000   -2979.8118    3752.5437    13009.618   -1535.3829    8267.7385    311.76921    15593 
279000000   -2936.2844    3728.6565    12737.923   -1483.1798    8148.1207    305.25818    15555 
280000000   -3015.1211    3678.0917    12779.653   -1534.6753    8227.8881    306.25821    15583 
281000000   -2943.2575    3566.5382    12841.933    -1559.219    8069.0147    307.75073    15578 
282000000   -2970.4459    3715.8798    12938.568   -1587.8548    8274.1804    310.06655    15591 
283000000   -2949.9548    3604.2466     12678.66   -1574.1733    8128.3747    303.83797    15572 
284000000   -2979.9643    3561.8132    13013.339   -1630.1774     8171.955    311.85838    15581 
285000000   -2971.0461    3554.7787    12934.102   -1656.2529    8182.0777    309.95951    15593 
286000000   -3082.1317    3486.8952    12887.694   -1617.4962    8186.5232    308.84736    15579 
287000000   -3005.4785    3589.8866    12881.227   -1600.0963    8195.4614    308.69237    15584 
288000000   -2997.5597    3383.5495    13050.308    -1664.528    8045.6372    312.74434    15589 
289000000   -2878.6085    3644.8653    12943.826   -1632.9219    8156.3957    310.19253    15583 
290000000   -2997.2864    3619.0497     12867.34   -1628.1565    8244.4926    308.35958    15567 
291000000   -2798.4708    3827.2515    12863.763   -1520.7064    8146.4286    308.27388    15578 
292000000   -2877.0546    3726.5641    12955.608   -1573.8028    8177.4215    310.47489    15556 
293000000   -2843.9521    3792.1663     12808.83   -1545.6499    8181.7683    306.95744    15568 
294000000   -2957.7879    3556.5908    12884.204   -1607.1733    8121.5519    308.76372    15582 
295000000   -2926.9359    3755.2313    12851.757   -1548.2613    8230.4285    307.98614    15598 
296000000   -2906.3283     3611.625     12824.69    -1571.333    8089.2863    307.33752    15578 
297000000   -2912.2776    3640.3112    12895.668   -1632.1786    8184.7675    309.03845    15590 
298000000   -2999.3659    3565.3001    12797.461   -1622.0994    8186.7654    306.68497    15578 
299000000   -2872.4545    3539.3966     12781.82   -1703.9455    8115.7965    306.31015    15604 
300000000   -2965.5707    3606.5215    12881.207    -1590.724    8162.8163     308.6919    15573 
301000000   -2912.4568    3664.3204     12808.03    -1462.836    8039.6132    306.93826    15573 
302000000   -2941.7661    3556.2393    12846.548   -1571.7153    8069.7206    307.86133    15605 
303000000   -2957.1212    3563.9924    12874.186    -1682.059    8203.1726    308.52366    15590 
304000000   -2970.7566    3639.5426    12984.302   -1542.6566    8152.9558    311.16252    15569 
305000000   -2985.4827    3613.1789    12993.571   -1528.3082    8126.9698    311.38466    15588 
306000000   -3022.7895    3579.0293     13027.25   -1548.4232    8150.2421    312.19176    15579 
307000000   -3024.7192    3484.9141    12936.119    -1637.677    8147.3102    310.00786    15580 
308000000   -2908.1983    3718.0723     12905.52   -1579.3082    8205.5789    309.27457    15600 
309000000   -3101.7639    3624.7842    13114.017   -1422.1586    8148.7067    314.27109    15568 
310000000   -2981.0702    3535.2662    12927.474   -1681.0783    8197.4148    309.80068    15596 
311000000   -2956.4968    3608.7097    13212.397   -1596.2281    8161.4347    316.62871    15575 
312000000   -2982.6511     3593.493    12978.499   -1573.3031    8149.4472    311.02346    15567 
313000000   -2953.5679    3723.7601    13113.373   -1503.5725    8180.9005    314.25566    15570 
314000000   -2984.4639    3629.4301    12833.044   -1565.2286    8179.1226     307.5377    15554 
315000000   -2986.6839    3480.6071    12920.521   -1573.6397    8040.9307    309.63405    15590 
316000000   -2992.6786    3613.1151    12970.605   -1481.6906    8087.4843    310.83429    15588 
317000000   -3081.2331    3670.3258     13079.73   -1392.8882    8144.4471    313.44941    15564 
318000000   -3126.0697    3619.5853     12921.38   -1477.0194    8222.6744    309.65463    15557 
319000000   -3080.7885     3345.488    12799.937   -1647.6496    8073.9261    306.74432    15598 
320000000   -3042.2988    3503.9703    12904.308   -1527.0113    8073.2804    309.24551    15565 
321000000   -3069.6779     3425.661    12956.844   -1633.2006    8128.5395    310.50452    15591 
322000000   -3150.2069     3447.472    12881.792   -1596.2676    8193.9466    308.70593    15566 
323000000   -3052.3243    3541.8279    13033.982    -1595.133    8189.2851    312.35309    15601 
324000000   -3049.0623    3443.5091    12924.114   -1669.2746    8161.8459    309.72015    15587 
325000000   -2923.1916    3691.6007    13132.251   -1480.3584    8095.1508    314.70805    15566 
326000000   -2938.5414    3753.3351    12913.619    -1549.951    8241.8275    309.46865    15576 
327000000   -2956.4617    3557.4168    12919.553   -1622.5824    8136.4609    309.61086    15581 
328000000   -3059.9511    3626.6184    12946.571   -1550.8307    8237.4002    310.25832    15583 
329000000   -3047.2931    3685.5527    12894.332   -1425.3665    8158.2123    309.00643    15546 
330000000    -3009.486    3447.0997    12968.726   -1648.2352    8104.8209    310.78925    15588 
331000000   -2958.0098    3707.5545    12925.364   -1531.1043    8196.6685     309.7501    15588 
332000000   -3082.7554    3453.8094    12994.018   -1538.4192    8074.9841    311.39536    15569 
333000000   -3043.2328    3462.6539    12991.778   -1591.9037    8097.7904    311.34168    15569 
334000000   -3035.8837    3645.5768    12868.369    -1475.979    8157.4395    308.38426    15566 
335000000   -3022.8638     3481.164    12811.058   -1638.7416    8142.7693    307.01082    15590 
336000000    -3040.394    3470.3373    12781.357   -1680.3777    8191.1091    306.29904    15584 
337000000    -3006.353    3731.5844    13047.858   -1455.8858    8193.8232    312.68563    15562 
338000000     -2867.04    3605.4826    12930.616   -1568.4542    8040.9768    309.87597    15588 
339000000   -2943.4585    3592.3097    12970.828   -1576.5551    8112.3234    310.83962    15576 
340000000   -2869.3449    3701.5901    12899.989   -1539.8233    8110.7584    309.14202    15577 
341000000   -2993.7076    3590.1727    12999.001   -1490.3395    8074.2198    311.51479    15576 
342000000   -2888.7199    3622.6997    12914.455   -1651.5626    8162.9823    309.48867    15600 
343000000   -2940.2797    3677.1294    12919.346   -1490.4568    8107.8658    309.60588    15581 
344000000   -2955.9753    3657.9136    12796.399   -1612.2094    8226.0984    306.65953    15606 
345000000     -2862.58    3701.9569    12935.951   -1554.5268    8119.0637    310.00381    15579 
346000000   -2895.5873    3646.9191    12846.823    -1624.887    8167.3934    307.86791    15588 
347000000   -2964.9468    3618.4414    12834.239   -1596.3312    8179.7194    307.56634    15589 
348000000   -3093.5124    3391.3938    13116.786   -1678.8347    8163.7409    314.33746    15586 
349000000      -3057.8    3488.1033     12957.22   -1533.7498    8079.6531    310.51353    15578 
350000000   -3019.6081    3551.4508     12852.78   -1605.4092    8176.4681    308.01067    15579 
351000000    -2966.563    3840.3245    12906.349   -1380.0824    8186.9698    309.29443    15551 
352000000    -2996.502    3592.7667    12944.204   -1509.1335    8098.4022    310.20159    15578 
353000000   -3007.6744    3405.9057    12890.328   -1615.0506    8028.6307    308.91049    15572 
354000000   -3025.0681    3632.6553    12887.165   -1434.5021    8092.2255    308.83469    15557 
355000000   -2946.9404      3543.33    12849.209   -1549.5521    8039.8225    307.92509    15590 
356000000   -3084.4886    3547.4889    12877.477   -1425.7328    8057.7103    308.60252    15571 
357000000   -3021.6901    3483.7733    12819.206   -1572.5813    8078.0447    307.20609    15584 
358000000   -3018.7197    3614.7781    12925.144   -1497.8469    8131.3447    309.74482    15590 
359000000   -2913.9547    3762.1876    12802.268   -1612.8181    8288.9604    306.80016    15573 
360000000   -2951.7118    3583.7266    12992.998   -1601.4702    8136.9086    311.37093    15586 
361000000   -2968.9782    3591.4833    12816.336   -1521.4534    8081.9149     307.1373    15575 
362000000   -2926.4688    3638.6092    12950.926   -1607.5467    8172.6247    310.36268    15588 
363000000   -2948.9503    3815.4897    12868.333   -1504.6672    8269.1071     308.3834    15577 
364000000     -2891.47    3579.4405    13074.208   -1598.5672    8069.4778    313.31709    15570 
365000000   -2890.7121    3809.3691    12848.763   -1508.7174    8208.7987     307.9144    15578 
366000000   -2978.9626    3762.2558    13010.925    -1451.917    8193.1354    311.80053    15572 
367000000   -2987.0124    3465.0499    13061.337   -1570.9821    8023.0444    313.00863    15580 
368000000   -2967.1545    3777.4654    12869.599   -1521.1939    8265.8137    308.41373    15568 
369000000   -2828.7604    3847.0043    12889.663   -1530.3974    8206.1621    308.89455    15561 
370000000   -2890.8925    3606.6772    13034.498   -1567.7451    8065.3148    312.36545    15580 
371000000   -3089.3515    3430.5779     12994.96   -1581.7574    8101.6868    311.41793    15575 
372000000   -2976.4041    3707.8209     12972.88   -1582.4696    8266.6946    310.88881    15566 
373000000   -2983.9984     3593.919    12916.379   -1590.1131    8168.0305    309.53479    15570 
374000000   -3034.6872    3574.3042    12935.627   -1558.6177    8167.6091    309.99605    15581 
375000000   -3066.7654    3420.2859    12972.898   -1640.8429    8127.8942    310.88925    15587 
376000000   -2955.8932    3490.3214    13007.872   -1655.4275     8101.642    311.72738    15592 
377000000   -3101.1787    3424.7872    12899.249   -1620.9652    8146.9311    309.12428    15594 
378000000   -3124.9934    3526.5164    12902.768   -1622.2334    8273.7433     309.2086    15588 
379000000   -3050.8804    3562.1377     12888.62   -1695.6444    8308.6625    308.86957    15606 
380000000   -3005.9831     3569.655    12825.936   -1582.3419      8157.98    307.36737    15569 
381000000   -2948.8058    3675.7573    12850.713    -1537.937    8162.5001    307.96113    15556 
382000000   -3044.5294    3652.6159    13014.366   -1497.8707     8195.016      311.883    15557 
383000000   -3103.6231    3574.1846    12922.373    -1535.579    8213.3867    309.67843    15581 
384000000   -3058.7852    3479.4782    13019.394   -1525.4841    8063.7475    312.00348    15575 
385000000   -3012.4551     3574.076    12922.269   -1577.3932    8163.9242    309.67595    15553 
386000000   -2981.5307    3705.0586    12949.401   -1548.5809    8235.1703    310.32613    15571 
387000000   -2984.4837    3567.7717    12938.527   -1513.7109    8065.9662    310.06556    15568 
388000000   -3009.2601    3438.7751    12980.214    -1618.215    8066.2501    311.06455    15561 
389000000   -3040.0613    3700.6599    12896.881   -1451.8409    8192.5621    309.06752    15554 
390000000   -3057.3496    3543.3033    12742.242   -1563.1397    8163.7926    305.36167    15595 
391000000   -3071.7731    3523.6356    12914.201   -1562.9004     8158.309    309.48258    15589 
392000000   -3010.3239    3542.7666    12910.507   -1566.4286     8119.519    309.39406    15574 
393000000   -3139.6056    3488.6968    13013.592   -1599.8834    8228.1858    311.86445    15578 
394000000   -3011.7263    3768.6261    12971.416    -1498.004    8278.3565    310.85372    15552 
395000000    -2956.763    3650.2625    12808.807   -1525.6426    8132.6681    306.95687    15577 
396000000   -2927.3971    3692.6277     12846.54   -1526.3606    8146.3854    307.86112    15567 
397000000   -3012.7898    3601.4543     13011.45   -1552.1686    8166.4127    311.81312    15565 
398000000   -2958.0743    3565.6418      12828.8   -1629.1323    8152.8485    307.43601    15581 
399000000   -2966.9566    3789.7073    12959.628    -1496.779    8253.4428    310.57123    15560 
400000000   -2972.4668     3542.876    12784.928   -1546.1084    8061.4512    306.38464    15570 
Loop time of 165069 on 28 procs for 400000000 steps with 14000 atoms

Performance: 5234.178 ns/day, 0.005 hours/ns, 2423.231 timesteps/s
99.5% CPU use with 28 MPI tasks x no OpenMP threads

MPI task timing breakdown:
Section |  min time  |  avg time  |  max time  |%varavg| %total
---------------------------------------------------------------
Pair    | 14885      | 18888      | 23168      |1470.4 | 11.44
Bond    | 4644.5     | 6054.8     | 9536.8     |2317.2 |  3.67
Neigh   | 50251      | 50914      | 51822      | 191.4 | 30.84
Comm    | 42288      | 49267      | 54219      |1432.0 | 29.85
Output  | 0.66801    | 0.81784    | 0.82693    |   3.2 |  0.00
Modify  | 22565      | 22972      | 23680      | 262.9 | 13.92
Other   |            | 1.697e+04  |            |       | 10.28

Nlocal:    500 ave 504 max 498 min
Histogram: 3 9 0 7 0 5 3 0 0 1
Nghost:    738.429 ave 1092 max 448 min
Histogram: 2 4 5 0 5 5 1 3 2 1
Neighs:    5359.43 ave 6342 max 4276 min
Histogram: 2 3 2 5 0 3 2 4 6 1

Total # of neighbors = 150064
Ave neighs/atom = 10.7189
Ave special neighs/atom = 8.14129
Neighbor list builds = 79928062
Dangerous builds = 0
System init for write_restart ...
Total wall time: 45:51:16
