LAMMPS (5 Jun 2019)
Reading restart file ...
  restart file = 5 Jun 2019, LAMMPS = 5 Jun 2019
  restoring atom style full from restart
  orthogonal box = (-420 -420 -420) to (420 420 420)
  2 by 2 by 7 MPI processor grid
  restoring pair style lj/cut from restart
  restoring bond style hybrid from restart
  restoring angle style cosine from restart
  14000 atoms
  15579 bonds
  13600 angles
Finding 1-2 1-3 1-4 neighbors ...
  special bond factors lj:   0          1          1         
  special bond factors coul: 0          0          0         
  3 = max # of 1-2 neighbors
  6 = max # of 1-3 neighbors
  17 = max # of 1-4 neighbors
  56 = max # of special neighbors
  special bonds CPU = 0.504532 secs
  read_restart CPU = 0.581533 secs
Finding 1-2 1-3 1-4 neighbors ...
  special bond factors lj:   0          1          1         
  special bond factors coul: 0          0          0         
  3 = max # of 1-2 neighbors
  6 = max # of 1-3 neighbors
  17 = max # of 1-4 neighbors
  38140 = # of 1-3 neighbors before angle trim
  27200 = # of 1-3 neighbors after angle trim
  56 = max # of special neighbors
  special bonds CPU = 0.00251797 secs
Neighbor list info ...
  update every 1 steps, delay 1 steps, check yes
  max neighbors/atom: 2000, page size: 100000
  master list distance cutoff = 26.9
  ghost atom cutoff = 26.9
  binsize = 13.45, bins = 63 63 63
  1 neighbor lists, perpetual/occasional/extra = 1 0 0
  (1) pair lj/cut, perpetual
      attributes: half, newton on
      pair build: half/bin/newton
      stencil: half/bin/3d/newton
      bin: standard
Setting up Verlet run ...
  Unit style    : real
  Current step  : 400000000
  Time step     : 0.1
Per MPI rank memory allocation (min/avg/max) = 1.103 | 7.639 | 16.74 Mbytes
Step Temp E_pair E_mol TotEng Press 
400000000    310.11775   -2972.1508    6618.1911    16586.745 -0.0098724808 
400010000    310.26208   -2965.4942    6720.9638    16702.197 -0.008295662 
Loop time of 5.71924 on 28 procs for 10000 steps with 14000 atoms

Performance: 15.107 ns/day, 1.589 hours/ns, 1748.483 timesteps/s
99.5% CPU use with 28 MPI tasks x no OpenMP threads

MPI task timing breakdown:
Section |  min time  |  avg time  |  max time  |%varavg| %total
---------------------------------------------------------------
Pair    | 0.00034619 | 0.39447    | 3.0087     | 121.2 |  6.90
Bond    | 0.00055838 | 0.11112    | 0.67308    |  51.6 |  1.94
Neigh   | 0.021374   | 0.022182   | 0.02483    |   0.7 |  0.39
Comm    | 0.0018221  | 2.0112     | 4.1146     | 114.9 | 35.17
Output  | 9.8775e-05 | 0.00046326 | 0.00086715 |   0.0 |  0.01
Modify  | 0.0010036  | 0.24077    | 1.4466     |  75.4 |  4.21
Other   |            | 2.939      |            |       | 51.39

Nlocal:    500 ave 3039 max 0 min
Histogram: 17 4 1 2 2 0 0 0 0 2
Nghost:    467.786 ave 1971 max 0 min
Histogram: 13 3 3 2 2 3 0 0 0 2
Neighs:    5408.54 ave 37090 max 0 min
Histogram: 19 3 1 3 0 0 0 0 0 2

Total # of neighbors = 151439
Ave neighs/atom = 10.8171
Ave special neighs/atom = 7.47186
Neighbor list builds = 7
Dangerous builds = 0
4000 atoms in group rxnSites
Neighbor list info ...
  update every 1 steps, delay 1 steps, check yes
  max neighbors/atom: 2000, page size: 100000
  master list distance cutoff = 26.9
  ghost atom cutoff = 26.9
  binsize = 13.45, bins = 63 63 63
  2 neighbor lists, perpetual/occasional/extra = 1 1 0
  (1) pair lj/cut, perpetual
      attributes: half, newton on
      pair build: half/bin/newton
      stencil: half/bin/3d/newton
      bin: standard
  (2) fix bond/create/random, occasional, copy from (1)
      attributes: half, newton on
      pair build: copy
      stencil: none
      bin: none
Setting up Verlet run ...
  Unit style    : real
  Current step  : 0
  Time step     : 25
Per MPI rank memory allocation (min/avg/max) = 17.8 | 18.24 | 19.65 Mbytes
Step E_pair PotEng KinEng E_bond E_angle Temp Bonds 
       0   -2965.4942    3755.4696    12946.728   -1515.2765    8236.2403    310.26208    15579 
 1000000   -2998.9676    3499.6269    12916.387   -1619.5223    8118.1168    309.53498    15580 
 2000000   -3016.6662    3452.3702    12979.696    -1682.625    8151.6614    311.05216    15592 
 3000000   -3059.0813    3436.5091    12860.942    -1568.655    8064.2454    308.20626    15564 
 4000000   -3001.5815    3643.4361    12783.418   -1484.4791    8129.4967    306.34844    15547 
 5000000   -2979.9552    3614.7048    12982.458   -1575.0466    8169.7067    311.11834    15579 
 6000000   -3079.3188    3449.1116    12932.832   -1642.9866     8171.417    309.92907    15600 
 7000000   -3069.6359    3484.6355     12978.55   -1519.4196     8073.691    311.02469    15562 
 8000000   -3059.6452     3489.994    12927.984   -1599.2461    8148.8853     309.8129    15594 
 9000000   -3048.1767     3548.624    12951.135   -1499.9512    8096.7519    310.36769    15567 
10000000   -3152.3234    3492.0572    13010.806   -1554.4754     8198.856    311.79769    15583 
11000000   -3076.1931    3533.4646    12807.722   -1499.3204    8108.9781    306.93088    15573 
12000000   -3052.4517    3368.9345     12920.21   -1644.7962    8066.1824    309.62659    15565 
13000000   -3091.1372      3613.46     12920.39   -1492.3995    8196.9967    309.63091    15576 
14000000   -3053.4752    3521.5677    12861.871   -1517.2074    8092.2502    308.22853    15557 
15000000   -3080.9991    3330.5787    12903.935   -1682.0944    8093.6722    309.23658    15585 
16000000   -3009.1999    3386.6372    12922.798   -1555.3224    7951.1595    309.68862    15592 
17000000   -3116.6232    3478.0714    12926.754   -1561.3218    8156.0164    309.78343    15558 
18000000   -3079.8279    3326.0942    12793.629   -1605.1525    8011.0745    306.59315    15564 
19000000   -3173.0345    3459.5926    12891.094   -1501.0587    8133.6858    308.92884    15578 
20000000   -3042.5247    3525.0971    12814.628   -1579.5996    8147.2214    307.09637    15583 
21000000   -3051.5558    3539.7854     12791.67    -1543.387    8134.7281    306.54619    15581 
22000000   -3092.4816    3540.4388    12980.807   -1529.7073    8162.6276    311.07878    15553 
23000000   -3059.2639    3374.1026    13190.661   -1681.6462    8115.0127    316.10783    15567 
24000000   -3082.4328    3316.8639    12985.142   -1670.9276    8070.2243    311.18266    15592 
25000000    -3078.961    3514.3132    12888.132   -1533.1541    8126.4282    308.85787    15582 
26000000   -3170.1788    3348.4142    12954.321   -1524.7005    8043.2935    310.44405    15571 
27000000   -3005.4279    3521.9269    12913.286   -1579.7024    8107.0572    309.46066    15589 
28000000   -3065.4246    3378.9424    12861.999   -1611.1826    8055.5496    308.23159    15573 
29000000   -3103.0032    3558.1105    13020.341   -1407.6819    8068.7957    312.02619    15560 
30000000   -3075.1494    3409.4163    12851.083   -1612.2795    8096.8452    307.97001    15570 
31000000    -3085.083    3529.9187    12955.228   -1589.9283      8204.93    310.46578    15560 
32000000   -3017.9877    3577.3387    12982.292   -1571.0021    8166.3286    311.11437    15567 
33000000   -3060.4363    3611.0174    13073.833   -1459.0752    8130.5288    313.30808    15552 
34000000    -3092.268    3460.0806     12960.35   -1596.9515    8149.3001    310.58854    15576 
35000000   -3111.0404    3484.5594    13063.761   -1624.5617    8220.1615    313.06673    15598 
36000000   -3053.5097    3403.8498    13011.885    -1520.444    7977.8035    311.82355    15575 
37000000   -3097.0144    3536.5797     13018.18   -1525.3503    8158.9445    311.97439    15579 
38000000   -3055.2203    3474.3935    13028.976    -1578.154    8107.7679    312.23311    15585 
39000000   -3028.6166    3468.4773    13030.213   -1631.0998    8128.1936    312.26277    15576 
40000000   -3120.7633    3437.6504     12996.12   -1539.0915    8097.5052    311.44574    15573 
41000000   -3078.8152    3572.6678    12906.636   -1495.5864    8147.0694     309.3013    15575 
42000000   -2968.9565    3564.4078    13003.323   -1589.7001    8123.0644    311.61835    15571 
43000000   -2953.8989    3627.7816    13018.542   -1618.5776     8200.258    311.98308    15577 
44000000   -3034.6082     3568.654    12963.379   -1594.6998     8197.962    310.66113    15574 
45000000   -3076.0266    3604.7605    12886.364   -1534.1014    8214.8885     308.8155    15578 
46000000   -3035.9983      3736.91    13069.238   -1494.6033    8267.5116    313.19797    15558 
47000000   -3087.5808    3489.6999    12815.804   -1478.7172    8055.9978    307.12455    15579 
48000000   -3055.5756       3515.5    12980.783   -1580.0376    8151.1131    311.07821    15582 
49000000    -3026.694    3612.9992    12980.641   -1528.6117    8168.3048    311.07479    15586 
50000000   -3067.5638    3559.4435    12996.422   -1489.0323    8116.0396    311.45298    15557 
51000000   -3006.4703    3396.2348    13107.949   -1660.2522    8062.9572    314.12567    15571 
52000000   -2989.8417    3455.6342    12968.341   -1653.8744    8099.3503    310.78002    15606 
53000000   -2957.1927     3408.303    13007.305   -1667.3472    8032.8428    311.71379    15607 
54000000   -2989.3191    3500.9226    12814.818   -1625.3232    8115.5649    307.10093    15582 
55000000    -3044.357    3408.3695    12887.788   -1623.4861    8076.2126    308.84961    15596 
56000000   -2976.7386    3590.3117    12991.398   -1617.4716    8184.5219    311.33259    15580 
57000000   -3191.6206    3467.8296    13035.972   -1467.0395    8126.4897    312.40079    15571 
58000000   -3142.5399    3516.6161    12870.031   -1661.0691    8320.2251    308.42407    15582 
59000000   -3108.0655    3456.4011    12778.769   -1622.9626    8187.4291    306.23703    15582 
60000000   -3026.2891    3417.8929    13014.545   -1744.1618    8188.3437    311.88728    15592 
61000000   -3030.6409     3546.766    12871.479   -1451.2597    8028.6666    308.45879    15575 
62000000   -3035.0055     3449.847    13032.521   -1551.9664    8036.8189    312.31808    15579 
63000000   -3005.1703    3819.3219    12875.165   -1402.1743    8226.6666     308.5471    15558 
64000000   -3046.2658     3575.112     12696.25   -1470.8122      8092.19    304.25951    15568 
65000000   -3029.0142    3616.2396     12916.33   -1545.0283    8190.2821    309.53361    15574 
66000000   -2992.6376    3779.5259     12944.53    -1449.993    8222.1565    310.20942    15558 
67000000   -3082.5575    3656.3341    12987.359   -1465.0699    8203.9615     311.2358    15545 
68000000   -3105.4666    3674.3344     12860.79   -1397.6142    8177.4152    308.20263    15552 
69000000   -3040.1558    3481.8983    12847.971   -1557.2368    8079.2908    307.89542    15584 
70000000   -3066.6987    3652.6633    12909.345   -1505.2603    8224.6224    309.36622    15575 
71000000   -3105.0029     3445.267    12836.851   -1574.3177    8124.5875    307.62893    15565 
72000000   -3002.6894    3667.8548    12911.651   -1521.6847    8192.2289    309.42148    15568 
73000000   -2966.6894    3832.2319    12929.586   -1447.3097    8246.2311    309.85128    15568 
74000000   -3027.1796    3681.9612    12906.147   -1497.7859    8206.9267    309.28958    15577 
75000000   -3057.4874     3497.302    12931.138   -1506.1242    8060.9136    309.88848    15565 
76000000   -3012.2878    3404.1642    12998.784   -1612.6696    8029.1216    311.50959    15586 
77000000   -2988.3873    3562.4297    12801.092   -1528.3725    8079.1895      306.772    15561 
78000000   -2930.5625    3689.1837    13008.622   -1480.4155    8100.1618    311.74535    15565 
79000000   -3053.9455    3590.7639    12830.205   -1561.9464    8206.6558    307.46966    15570 
80000000   -2960.9779    3573.5343    12995.004   -1606.1187    8140.6309      311.419    15588 
81000000   -2954.3731    3502.6018    12911.594   -1609.3902     8066.365    309.42011    15603 
82000000   -2920.7993    3703.7583    12951.233   -1560.3785    8184.9361    310.37005    15570 
83000000   -2989.9784     3632.606    12850.101   -1534.7034    8157.2878    307.94648    15575 
84000000   -2992.8112    3615.7414     12842.79   -1527.0698    8135.6223    307.77125    15575 
85000000   -3025.5021    3589.4523    13016.025   -1553.7769    8168.7313    311.92277    15595 
86000000   -3011.0896    3583.8781    12946.017   -1625.5477    8220.5155    310.24506    15577 
87000000   -3046.0107    3553.3246    12909.926   -1562.5795    8161.9149    309.38014    15573 
88000000   -2938.0729    3639.9223    12946.152   -1591.2963    8169.2915    310.24829    15586 
89000000   -2930.6359    3501.7529    12915.263   -1627.1524    8059.5413    309.50805    15595 
90000000   -3030.3342    3551.2241    12860.433   -1639.2722    8220.8306    308.19406    15582 
91000000   -2994.3641    3488.2675    12806.181    -1573.611    8056.2425    306.89396    15588 
92000000   -3010.1487    3729.0032    12971.306   -1447.0923    8186.2442    310.85109    15566 
93000000   -3003.1716    3734.2094    13011.228   -1512.1225    8249.5035     311.8078    15576 
94000000   -2965.4785    3491.9893     12897.61   -1624.9856    8082.4534      309.085    15571 
95000000   -2903.0537    3746.0335    12885.297   -1495.0809    8144.1681    308.78992    15578 
96000000    -2982.756     3654.492     12938.48   -1467.4272    8104.6752    310.06442    15574 
97000000   -3055.8773    3452.9299    12907.205   -1712.8108    8221.6181    309.31493    15592 
98000000   -3078.9583    3499.3337    13116.488   -1529.7898    8108.0818    314.33031    15579 
99000000    -3007.676    3653.3262    13014.048   -1457.8297    8118.8319    311.87537    15570 
100000000   -3011.4903    3627.4771     12951.84   -1484.6511    8123.6184    310.38458    15572 
101000000   -3009.5933    3656.4428    13095.348   -1565.4983    8231.5343     313.8237    15584 
102000000   -2949.6576    3604.2837    12949.296     -1582.93    8136.8713    310.32363    15568 
103000000   -2991.0507    3543.9272    12992.301   -1581.0311    8116.0091    311.35421    15578 
104000000   -2973.3614    3674.9693    12974.159   -1578.4323    8226.7631    310.91946    15584 
105000000   -3053.4391    3498.1227     12924.19   -1588.8459    8140.4077    309.72199    15575 
106000000   -3092.1665    3590.1427    12914.893   -1593.4906    8275.7999    309.49918    15606 
107000000   -2966.5368     3549.188     13021.26   -1645.2349    8160.9597    312.04821    15613 
108000000   -2936.5857    3674.6838    12890.056   -1546.7298    8157.9994    308.90396    15585 
109000000   -2959.0544    3720.6011    12994.095   -1441.7249    8121.3804     311.3972    15575 
110000000   -3057.1495    3536.1007    12959.219   -1584.8293    8178.0796    310.56143    15573 
111000000   -2989.2314    3617.2412     12984.36   -1527.8789    8134.3515    311.16392    15582 
112000000   -2874.9836    3631.2812    12943.522   -1615.9159    8122.1806    310.18527    15569 
113000000   -2995.1582    3617.0647    12843.385   -1619.4667    8231.6896    307.78551    15593 
114000000   -2919.1362    3662.1834    12889.762   -1588.4223    8169.7419    308.89692    15583 
115000000   -2899.9343    3713.4774    12963.171     -1518.57    8131.9817    310.65614    15565 
116000000   -3011.0585    3656.8866    12901.595   -1558.9547    8226.8999     309.1805    15564 
117000000   -3013.5596    3479.6757    12997.985   -1578.6201    8071.8554    311.49043    15587 
118000000   -3022.5634    3553.7557    12992.536   -1695.5819     8271.901    311.35986    15595 
119000000   -2949.8935    3520.3711    12978.443   -1600.2887    8070.5533    311.02212    15589 
120000000   -2957.6513    3696.1713    13093.573   -1570.8768    8224.6994    313.78116    15574 
121000000   -2921.2892    3752.8592    12935.593   -1495.6132    8169.7616    309.99523    15566 
122000000   -2970.7713    3705.8965    12876.645   -1575.4825    8252.1503    308.58258    15580 
123000000   -2960.4344    3803.1926    12859.602   -1440.8171     8204.444    308.17416    15562 
124000000   -2895.6317    3718.0631    12812.816   -1475.3759    8089.0707    307.05294    15559 
125000000   -2951.5044    3772.3027    12867.888   -1481.8023    8205.6094    308.37272    15569 
126000000   -3002.2925    3640.9627    13001.839   -1578.8377    8222.0929    311.58279    15571 
127000000    -3002.026    3616.4086     12900.64   -1598.3798    8216.8144    309.15762    15591 
128000000   -2901.0579    3571.2171    12952.313   -1673.9079    8146.1829    310.39592    15597 
129000000   -2957.7658    3602.0772    12942.358   -1613.0213    8172.8643    310.15735    15576 
130000000   -3007.7371    3461.7734    12930.581   -1600.8669    8070.3774    309.87513    15573 
131000000   -2960.3568    3802.4266    13004.083   -1504.3951    8267.1786    311.63658    15558 
132000000   -2966.1157     3566.762     13046.08   -1479.7567    8012.6344    312.64302    15577 
133000000   -2957.6299    3675.4651    12965.472   -1580.2039    8213.2989    310.71129    15570 
134000000   -2967.9991    3615.6668    12949.595   -1597.2402     8180.906     310.3308    15602 
135000000   -2862.5546    3744.2713    12881.019   -1618.2858    8225.1117    308.68741    15603 
136000000   -2946.2792    3559.5355    13068.906   -1585.5624    8091.3771    313.19003    15573 
137000000   -3022.9695    3369.5262    12978.724   -1728.4883     8120.984    311.02885    15597 
138000000   -3041.8104    3551.1717    13037.298   -1568.5663    8161.5484    312.43255    15575 
139000000   -2986.2507    3490.2929    12810.438   -1681.8035    8158.3471    306.99596    15588 
140000000   -2981.0242    3570.6356    12975.911   -1554.3012    8105.9609    310.96145    15592 
141000000   -2968.6619    3622.7497    12927.495   -1657.6275    8249.0392    309.80117    15582 
142000000   -2967.8965    3660.3118    13007.974   -1410.5713    8038.7796    311.72982    15554 
143000000   -2933.3241    3637.2049    12892.967   -1506.4334    8076.9623    308.97373    15570 
144000000   -2913.6344    3562.8727    12933.256   -1622.0712    8098.5782    309.93925    15582 
145000000   -2938.1106    3655.6806    12979.734   -1628.1297     8221.921    311.05306    15587 
146000000   -3073.9401    3507.1726    12918.796    -1616.153    8197.2657    309.59272    15586 
147000000   -2983.4172    3482.0695    12978.814   -1523.6238    7989.1105    311.03102    15562 
148000000   -2929.1286    3705.7877    13050.299   -1442.9652    8077.8816    312.74411    15547 
149000000   -3010.3328    3734.5072    12846.686   -1480.5488    8225.3889    307.86462    15551 
150000000   -3024.3734    3661.8609    12952.664   -1453.1795    8139.4139    310.40433    15556 
151000000    -3084.736    3417.3597    12908.275   -1614.3272    8116.4229    309.34057    15582 
152000000   -3018.7823    3424.3117    13012.188   -1599.4442    8042.5382     311.8308    15568 
153000000   -3032.4645    3323.8636    12777.987   -1728.8303    8085.1584    306.21829    15594 
154000000     -3007.21    3561.2492    12954.178   -1484.6212    8053.0805    310.44062    15576 
155000000   -2963.4341    3652.9106    12809.262   -1572.6175    8188.9623    306.96777    15589 
156000000   -2952.8462    3749.4746    12959.439   -1446.8179    8149.1387    310.56669    15548 
157000000   -3065.8082    3483.8417    12844.268   -1561.6619    8111.3118    307.80669    15577 
158000000   -3001.6624    3560.8789    12809.638   -1576.9129    8139.4542     306.9768    15577 
159000000   -3047.2589    3454.2977    12807.577   -1590.7781    8092.3347    306.92741    15593 
160000000   -3024.4561    3493.2877     12917.43   -1718.2518    8235.9956    309.55999    15583 
161000000   -3026.2878     3476.169    13000.823   -1589.1468    8091.6036    311.55844    15580 
162000000   -3011.9722    3692.9509    12768.204   -1560.0764    8264.9996    305.98384    15558 
163000000   -3026.4287     3400.776    13028.066   -1647.1913     8074.396    312.21131    15580 
164000000   -2996.0507    3513.4154    12823.517   -1651.7251    8161.1913     307.3094    15585 
165000000   -3014.3118    3713.9561    12918.019   -1486.8405    8215.1084    309.57408    15561 
166000000   -3028.3806    3558.7473    13075.297   -1559.5695    8146.6974    313.34318    15575 
167000000   -2954.8878    3692.8263    12802.328   -1576.8472    8224.5613    306.80161    15584 
168000000    -2983.404    3543.3852    12897.446   -1645.8883    8172.6775    309.08107    15576 
169000000    -3110.429    3403.9292    12871.701   -1631.2498    8145.6081     308.4641    15590 
170000000   -2998.0417    3580.2941    12981.826   -1539.3332     8117.669     311.1032    15567 
171000000    -3003.012    3629.5007    12873.402   -1456.8401    8089.3527    308.50485    15569 
172000000   -2920.3391    3613.5262    12968.382   -1573.4147    8107.2801    310.78102    15582 
173000000   -3083.3824    3289.6573    12937.533   -1685.8588    8058.8984    310.04174    15573 
174000000   -3086.6284     3387.872    12977.017    -1604.815    8079.3154    310.98794    15566 
175000000   -2945.6516    3620.1541    13003.448   -1490.9184    8056.7241    311.62135    15565 
176000000   -3114.7174     3402.761    12932.005    -1633.086    8150.5644    309.90927    15572 
177000000   -3010.6048    3612.0338    12993.762   -1474.9612    8097.5998    311.38924    15568 
178000000   -3040.8346    3508.7087    12793.582   -1532.8462    8082.3895    306.59202    15564 
179000000   -2997.9461    3450.5523    12916.316   -1619.2851    8067.7834    309.53328    15583 
180000000    -3016.946    3626.0247    13016.691   -1626.5989    8269.5696    311.93872    15585 
181000000   -3036.6309     3547.593    12995.733   -1537.5163    8121.7401    311.43646    15575 
182000000    -2958.385    3513.0529    12987.409   -1580.0228    8051.4606    311.23698    15572 
183000000   -2964.4151    3511.3965    12920.031    -1644.169    8119.9806    309.62229    15571 
184000000   -2933.4658    3569.0349    12923.754   -1532.7877    8035.2884    309.71153    15578 
185000000   -3102.5228    3551.1276    12901.844   -1497.4559    8151.1062    309.18646    15563 
186000000   -3082.4411    3392.5428    12977.683   -1680.1809    8155.1649     311.0039    15613 
187000000   -2940.8916    3680.7173    12876.652   -1487.5613    8109.1701    308.58276    15567 
188000000   -3039.5426    3323.0612    12956.497   -1680.6065    8043.2103    310.49618    15586 
189000000   -3021.8576    3442.4668    12846.411   -1627.3971    8091.7214    307.85804    15593 
190000000   -3007.3469     3519.925    13026.993   -1582.1981      8109.47     312.1856    15571 
191000000   -3044.3084    3414.9452    12950.397   -1690.8054     8150.059    310.35002    15578 
192000000   -3053.5894     3451.793    13089.788   -1580.9622    8086.3446    313.69044    15574 
193000000   -2955.7967    3518.0555    12908.816   -1562.0413    8035.8935    309.35353    15584 
194000000   -3044.6284    3585.2092    12856.867   -1577.6651    8207.5028     308.1086    15570 
195000000   -3067.2589    3595.3536    12944.852   -1522.7117    8185.3242    310.21713    15566 
196000000   -2996.3299     3397.029    12908.689   -1730.7284    8124.0873    309.35049    15590 
197000000   -2984.8056    3727.5686    12734.292   -1541.6496    8254.0237    305.17115    15562 
198000000   -3070.0659    3496.4698    12887.917     -1575.28    8141.8157    308.85272    15576 
199000000   -3041.5886     3533.691    12987.987   -1513.9652    8089.2447    311.25083    15584 
200000000    -2980.731    3742.8572    13000.295   -1537.6293    8261.2175    311.54579    15569 
201000000   -3057.1494    3632.7297    12797.398   -1440.1413    8130.0204    306.68347    15575 
202000000   -2935.4737    3557.2814    12838.117    -1505.585      7998.34    307.65927    15584 
203000000   -2991.2325    3604.8208    13102.626   -1639.6198    8235.6732     313.9981    15566 
204000000   -2997.3898    3650.2742    13126.943   -1562.5433    8210.2073    314.58085    15566 
205000000    -3016.093    3608.8834    12882.153    -1533.192    8158.1684    308.71457    15581 
206000000   -3048.1706    3477.6607    12940.513   -1617.2094    8143.0407    310.11315    15568 
207000000   -3014.1878    3534.4799    12891.771   -1545.4442    8094.1119    308.94507    15593 
208000000   -2997.0944    3514.9614    12804.124   -1709.9304    8221.9862    306.84465    15580 
209000000   -3077.3686    3470.1763    12860.164   -1554.5921     8102.137    308.18762    15581 
210000000   -2994.9746    3591.3429    12970.169   -1644.2194    8230.5369    310.82385    15584 
211000000   -3022.0366    3647.9566    12975.067   -1470.0459    8140.0392    310.94121    15583 
212000000   -2935.8678    3639.0829    12803.561    -1565.871    8140.8218    306.83115    15573 
213000000   -2906.9395    3788.3992    12991.667   -1497.2782    8192.6169    311.33903    15566 
214000000   -2932.3188      3602.65    12868.425   -1604.2725    8139.2414     308.3856    15579 
215000000    -2928.409    3583.2747    12897.288   -1576.3752    8088.0589    309.07729    15582 
216000000   -3002.8579    3564.1592    12840.335   -1559.6752    8126.6924    307.71242    15570 
217000000    -3000.945    3703.5434    13061.845   -1466.6659    8171.1543    313.02082    15570 
218000000   -2971.5694    3541.1544    12810.485   -1525.8723    8038.5961    306.99709    15564 
219000000    -2970.212    3644.7537    12998.168   -1520.1206    8135.0863    311.49483    15549 
220000000   -3007.5633     3543.229    12915.471    -1588.429    8139.2213    309.51304    15574 
221000000   -3003.9404    3659.7252    12770.104    -1504.324    8167.9895    306.02938    15575 
222000000   -2954.8976    3658.4036    12974.779   -1586.4165    8199.7178    310.93433    15582 
223000000   -3131.5974     3461.141    13005.993   -1562.9019    8155.6403    311.68233    15564 
224000000   -3020.1082    3740.1293    12934.789   -1435.7825    8196.0199    309.97598    15559 
225000000   -2947.8445    3540.3107    12895.955   -1623.1166    8111.2718    309.04533    15569 
226000000    -3016.503    3421.1741    12951.268   -1532.4086    7970.0856    310.37088    15577 
227000000    -2957.741    3485.5712    12826.053   -1666.4283    8109.7405    307.37018    15591 
228000000   -3064.3343    3630.0576    12777.321   -1443.5679    8137.9598    306.20233    15579 
229000000   -3065.6446    3599.6907    12963.363   -1564.5698     8229.905    310.66074    15583 
230000000   -3041.8975    3720.2466    12907.632   -1437.2455    8199.3896    309.32516    15574 
231000000   -3011.6086    3689.3637    12839.814   -1456.0293    8157.0015    307.69993    15568 
232000000   -2918.7775    3696.3242    12907.246   -1537.8798    8152.9816    309.31592    15564 
233000000   -3045.9819    3650.3865    12937.518   -1573.8782    8270.2466    310.04138    15582 
234000000   -2973.0932    3619.2051    12920.256     -1544.22    8136.5183    309.62769    15591 
235000000   -2918.0233    3607.8517    12912.671   -1588.2878    8114.1629    309.44593    15594 
236000000   -2923.7058    3550.5722    12873.466    -1655.408     8129.686    308.50639    15597 
237000000   -2965.5222    3613.1714    12915.328   -1609.9381    8188.6317    309.50961    15576 
238000000   -2974.0716    3566.9409    12950.892   -1657.6524     8198.665    310.36188    15569 
239000000   -2974.7919    3740.4334    12964.637   -1522.0806    8237.3059    310.69128    15572 
240000000   -2956.8221    3572.2962    12941.197   -1667.4483    8196.5667    310.12953    15584 
241000000    -3099.725    3814.8668     12864.01   -1423.4622    8338.0541    308.27979    15545 
242000000   -2954.7228    3695.5238    12855.267   -1538.0279    8188.2745    308.07027    15558 
243000000   -2972.2528    3671.2256    12750.083   -1499.4181    8142.8965    305.54959    15592 
244000000   -2977.3246    3671.3704    12768.282   -1457.2639    8105.9589     305.9857    15576 
245000000   -3013.5922    3474.6906    12846.998    -1630.702    8118.9847    307.87211    15580 
246000000   -2980.8786     3635.969    12755.711   -1471.4512    8088.2989    305.68446    15566 
247000000    -3071.762    3570.9089    12969.181   -1610.3961     8253.067    310.80017    15587 
248000000   -3041.4544    3533.7849    12925.565   -1551.5251    8126.7644    309.75493    15563 
249000000    -2982.461    3591.3038    12837.467    -1634.058    8207.8228    307.64369    15568 
250000000   -3011.4814    3611.1021    12861.905   -1543.0133    8165.5968    308.22934    15586 
251000000   -2878.8411    3775.1646    12841.798   -1461.5797    8115.5854     307.7475    15566 
252000000    -2919.591    3643.3082    12980.803   -1618.4296    8181.3288    311.07867    15581 
253000000   -2965.8662    3528.2123    12994.285   -1647.8543    8141.9328    311.40177    15589 
254000000   -3046.3268    3499.5907    12963.435   -1604.5644    8150.4819    310.66246    15583 
255000000   -2973.1759    3562.6414    12916.735   -1630.2768     8166.094    309.54332    15581 
256000000   -2933.8854    3728.3187    13137.331   -1495.9141    8158.1183     314.8298    15574 
257000000   -3054.6924    3448.5558    12884.178   -1597.5218      8100.77     308.7631    15585 
258000000    -2947.043    3524.9419    12914.764   -1695.3632    8167.3481    309.49608    15599 
259000000   -3009.3691    3573.9941    12991.368   -1608.0132    8191.3763    311.33187    15605 
260000000    -3003.719     3608.084    12835.874   -1475.5701    8087.3731    307.60553    15566 
261000000   -3037.0168    3492.1506    12978.019   -1582.9993    8112.1667    311.01196    15585 
262000000   -2978.9157     3770.545    13079.083   -1436.6924     8186.153    313.43391    15567 
263000000   -2890.2768     3696.131     12981.14   -1517.5631    8103.9709    311.08676    15567 
264000000   -2983.6929    3452.3673    12943.838   -1686.2183    8122.2785    310.19283    15604 
265000000   -2979.0517    3667.4621    13012.944   -1547.0836    8193.5973    311.84892    15592 
266000000   -3025.8856    3563.0058    13068.589    -1564.279    8153.1704    313.18243    15577 
267000000   -3041.4001    3625.5545    13081.536   -1599.1554    8266.1101    313.49269    15582 
268000000   -2977.3046    3459.3752    12945.034   -1677.4249    8114.1046    310.22148    15589 
269000000   -2901.5507    3598.7888    13002.843   -1671.6768    8172.0163    311.60685    15605 
270000000   -2947.8872    3620.6929    12991.962   -1500.0117    8068.5918     311.3461    15570 
271000000   -2942.1044    3623.5293    12861.309   -1522.0016    8087.6353    308.21505    15587 
272000000   -2901.0611    3715.0445    12889.777   -1581.9405    8198.0461    308.89729    15574 
273000000   -2920.2028    3451.9699    13021.448   -1721.1211    8093.2939    312.05272    15586 
274000000   -2947.6751    3527.7443    13016.447   -1623.0233    8098.4427    311.93288    15583 
275000000   -2982.7034    3640.4031    12875.588   -1501.1645     8124.271    308.55725    15578 
276000000   -2967.9105    3431.5016    12937.506   -1702.4001    8101.8121    310.04108    15605 
277000000   -2971.3096    3643.7564    12844.961   -1526.9271    8141.9931    307.82329    15574 
278000000   -3057.2058     3515.294    12955.939   -1600.8839    8173.3837    310.48283    15591 
279000000   -2998.9073    3641.3713    12854.761   -1525.4168    8165.6954    308.05814    15585 
280000000   -2985.0691    3658.8712     12988.44   -1521.0684    8165.0087     311.2617    15588 
281000000   -2950.7293    3761.4544    13028.373   -1483.9737    8196.1573    312.21867    15557 
282000000   -3082.6571    3497.6939    12949.168   -1597.0712    8177.4222    310.32057    15587 
283000000   -2954.0503    3618.5901    12889.517   -1588.4225    8161.0629    308.89106    15584 
284000000   -2962.6874    3518.6928    12953.747    -1626.839    8108.2191    310.43029    15596 
285000000   -2857.2063    3587.1611    12912.174   -1643.6942    8088.0616    309.43401    15594 
286000000   -2922.6802    3654.8993    12936.543    -1527.407    8104.9865      310.018    15574 
287000000    -3003.468    3595.9176    12912.389   -1467.8498    8067.2355    309.43916    15566 
288000000    -3079.826    3326.5672    12753.422   -1678.1388    8084.5321     305.6296    15599 
289000000   -3029.4339    3671.1712    12903.263   -1491.4112    8192.0162    309.22048    15563 
290000000   -2965.1456    3607.0313    12988.869   -1570.8655    8143.0423    311.27197    15581 
291000000   -3022.6161    3398.6168    12883.221   -1679.6817    8100.9146    308.74017    15588 
292000000   -2957.7573    3733.3322    12915.452   -1418.0403    8109.1298    309.51257    15551 
293000000   -3019.9766    3589.8926    12878.561   -1482.2884    8092.1576    308.62849    15588 
294000000   -3021.6061    3550.0928    12961.388   -1667.2373    8238.9362    310.61341    15595 
295000000   -3096.2908    3406.8248    12830.101   -1639.9018    8143.0174    307.46719    15592 
296000000   -2995.1865    3577.9415    12802.561   -1584.9344    8158.0623    306.80718    15586 
297000000   -2969.6333    3467.1627    12885.179   -1717.3555    8154.1515    308.78709    15574 
298000000   -2998.4989     3594.131    12942.345   -1517.4407    8110.0706    310.15705    15547 
299000000   -2982.1234    3480.6653    12969.636   -1644.0025    8106.7911    310.81106    15575 
300000000   -3002.1346    3545.7095    12824.244   -1585.3887    8133.2328    307.32683    15583 
301000000   -2978.6428    3543.6631    12898.577   -1566.5754    8088.8813    309.10816    15573 
302000000   -3026.8848     3640.613    12933.658   -1524.9994    8192.4971    309.94886    15589 
303000000    -3007.053    3666.0794    13089.412   -1466.0982    8139.2306    313.68145    15559 
304000000   -2980.8173    3544.5816    12717.089   -1589.8689    8115.2678    304.75889    15575 
305000000    -2952.769    3459.2269    12933.514   -1633.1166    8045.1125    309.94542    15588 
306000000   -3028.2277    3652.3997    12856.063   -1596.2022    8276.8296    308.08934    15572 
307000000   -2996.1958    3659.3283    13035.964   -1512.2542    8167.7783    312.40059    15567 
308000000   -2884.5992    3594.1772    12834.349   -1626.6381    8105.4145    307.56897    15584 
309000000   -3007.7609    3439.2958    12851.613   -1609.4995    8056.5562    307.98269    15574 
310000000   -2928.3699    3843.2879    12852.063   -1482.9457    8254.6035    307.99349    15548 
311000000   -2964.7236    3687.7137    12895.017   -1566.8954    8219.3326    309.02286    15581 
312000000   -3022.3931    3527.0212    12940.072   -1628.4442    8177.8585    310.10257    15591 
313000000   -2962.4925    3639.0426     12807.87   -1629.7991    8231.3342    306.93441    15592 
314000000   -3052.5475     3521.714    12861.546   -1663.8666    8238.1281    308.22075    15592 
315000000   -2979.7354     3525.543    12951.746   -1613.4565    8118.7349    310.38233    15601 
316000000   -3116.1467    3485.7682    12861.534   -1524.0079    8125.9229    308.22046    15565 
317000000   -2927.3341    3479.0211    13095.547    -1701.217    8107.5721    313.82846    15600 
318000000   -2952.5005    3521.3061    12977.213   -1544.4084     8018.215    310.99265    15581 
319000000   -3014.5411    3532.7624    12990.021   -1589.1786    8136.4822    311.29958    15579 
320000000   -2987.6816     3582.084    12884.146   -1644.7838    8214.5494    308.76233    15574 
321000000   -2996.4267    3542.9763    12905.988   -1677.8762    8217.2791    309.28577    15581 
322000000   -2931.9387    3537.8438    12955.756   -1613.2996    8083.0821    310.47845    15572 
323000000   -3053.4243    3689.0894    12955.307   -1543.2375    8285.7512    310.46769    15577 
324000000   -3024.4616    3684.6633    12963.297   -1520.6046    8229.7295    310.65915    15586 
325000000   -3015.5042    3514.5803    13060.021   -1543.2828    8073.3673     312.9771    15578 
326000000   -2937.1424    3646.8919    12928.611   -1570.8369    8154.8712    309.82792    15576 
327000000   -3081.4629    3531.2051    12860.912    -1619.076    8231.7439    308.20554    15571 
328000000   -2985.7928    3517.0625    12962.466   -1635.1188    8137.9742    310.63924    15587 
329000000   -3039.5927    3695.4394    13047.811   -1514.7846    8249.8167     312.6845    15566 
330000000    -3028.735    3606.3524    12767.118   -1549.2643    8184.3516    305.95783    15581 
331000000   -3054.4454     3390.749    12868.431   -1578.0485    8023.2429    308.38574    15586 
332000000    -3043.437    3555.2645    12973.722   -1503.7827    8102.4842    310.90899    15583 
333000000   -3084.6888    3442.5015    12903.221   -1654.5974    8181.7877    309.21947    15581 
334000000   -2964.3413    3678.3625    12880.114   -1550.0297    8192.7336    308.66571    15584 
335000000   -2900.8848    3573.2253    12959.745   -1544.3804    8018.4904    310.57402    15590 
336000000   -2942.3042    3604.2799    12897.409   -1580.4338     8127.018    309.08018    15579 
337000000   -2889.0189    3588.5458    12874.922   -1605.4291    8082.9938    308.54129    15578 
338000000   -2894.7534    3413.2002    12973.137   -1742.6015    8050.5551    310.89498    15598 
339000000   -2873.7978    3748.4097    12860.037   -1570.8085     8193.016    308.18457    15588 
340000000   -2969.1046    3530.7519    12882.763   -1635.5524    8135.4089    308.72919    15603 
341000000   -3087.2579    3425.2918    12917.758   -1585.0063    8097.5561    309.56783    15575 
342000000   -3019.7814    3431.0885    12784.097   -1674.0928    8124.9627    306.36472    15580 
343000000   -2954.2886    3597.8176    13086.507   -1646.0429    8198.1491    313.61183    15587 
344000000    -3007.373    3595.7838    12984.424   -1538.1329    8141.2897    311.16546    15577 
345000000   -3025.5431    3649.7442     12925.53   -1564.1395    8239.4269    309.75409    15591 
346000000   -2969.8223    3621.7643    13002.971   -1535.9052    8127.4918    311.60992    15557 
347000000   -2963.1609     3690.951    12993.228   -1517.3184    8171.4302    311.37644    15581 
348000000   -2965.4133    3649.0249    12913.712   -1575.4433    8189.8816    309.47088    15588 
349000000   -2932.8985    3628.8711      12825.7   -1581.9924     8143.762     307.3617    15574 
350000000    -2898.251    3596.1674    13115.985   -1559.8312    8054.2497    314.31825    15556 
351000000    -3002.312    3418.4276    12950.038   -1733.1588    8153.8983     310.3414    15596 
352000000   -2909.9998    3600.8687     13052.08   -1546.6465    8057.5151     312.7868    15576 
353000000    -2995.099    3693.5819    12770.712   -1569.2326    8257.9135    306.04395    15590 
354000000   -3026.0912     3489.113    12921.167    -1577.804    8093.0082    309.64953    15577 
355000000    -2995.706    3412.3462    13080.571   -1670.2799    8078.3321    313.46957    15573 
356000000   -3139.6038    3560.3508    12841.152   -1578.4273    8278.3818    307.73201    15578 
357000000   -2932.1471    3573.7659    12737.505   -1516.2971    8022.2101    305.24816    15573 
358000000    -3033.372    3502.7928    12954.521   -1547.8633    8084.0281    310.44884    15583 
359000000   -3009.4961    3462.4872    12878.136   -1504.8888    7976.8721     308.6183    15577 
360000000   -2927.4525    3615.5574    13032.653   -1578.5308    8121.5407    312.32124    15573 
361000000   -2998.4415    3651.4676    12820.709   -1542.2034    8192.1124    307.24211    15574 
362000000   -2987.9787    3613.9787    12766.151    -1601.977    8203.9343    305.93465    15575 
363000000   -3011.6594    3480.1625    13015.574   -1612.6758    8104.4976    311.91194    15591 
364000000   -3054.2465    3574.8286    12962.622   -1595.7067    8224.7818    310.64298    15599 
365000000   -2984.7095    3598.5514    12944.218   -1579.5531    8162.8139    310.20193    15579 
366000000   -2973.6376    3371.8528    12831.263   -1638.2572    7983.7475    307.49501    15576 
367000000   -2985.2591    3603.0725    12864.066   -1559.5563    8147.8879    308.28114    15585 
368000000   -3106.7406    3370.2341    13089.399   -1644.0521    8121.0268    313.68112    15582 
369000000   -3030.6945    3467.9371    13033.539   -1493.9483    7992.5799    312.34247    15570 
370000000   -2991.2392    3502.8093    13049.399   -1637.1439    8131.1923    312.72254    15597 
371000000   -3146.3194    3556.3633    12991.897   -1518.6164    8221.2991    311.34454    15574 
372000000    -2975.333    3593.4829    13087.168   -1599.8828    8168.6988    313.62767    15588 
373000000    -3023.963    3553.6766    12871.728   -1560.4524    8138.0919    308.46475    15592 
374000000   -2968.8342    3490.2172    12922.663   -1655.6041    8114.6555    309.68538    15585 
375000000   -3109.5749     3470.442     12728.22   -1632.9692     8212.986    305.02564    15579 
376000000   -2990.2958    3499.1256    13014.575   -1613.5942    8103.0157      311.888    15582 
377000000   -3042.4045    3551.0696    12950.167   -1440.1949    8033.6689     310.3445    15562 
378000000    -3042.101    3482.2954    12831.729   -1590.1142    8114.5107    307.50619    15574 
379000000   -3073.2452    3522.1013    12836.234   -1595.8156    8191.1622    307.61416    15564 
380000000   -3061.3048    3451.7173    13019.898   -1613.5372    8126.5593    312.01557    15580 
381000000   -3066.7498    3497.9957    13007.376   -1578.6734    8143.4188    311.71548    15568 
382000000   -2995.6418    3650.0709    12956.018   -1571.5823     8217.295    310.48472    15569 
383000000   -3009.3393    3695.1256    12940.616   -1410.8657    8115.3307    310.11561    15576 
384000000     -2977.65    3550.5756    12968.045   -1624.0113    8152.2369    310.77293    15590 
385000000   -2956.8617    3587.9224    13059.234   -1554.2447    8099.0287    312.95823    15566 
386000000   -2957.9914    3704.0234    12801.397   -1487.8386    8149.8535    306.77929    15570 
387000000   -3065.9282    3484.6741    12962.215   -1610.0412    8160.6435    310.63322    15582 
388000000    -3030.504    3519.6445    13041.611   -1465.9477    8016.0963     312.5359    15551 
389000000   -3067.2441     3454.518    13061.785   -1536.0756    8057.8378    313.01938    15573 
390000000    -3149.575    3389.5624    12978.284   -1582.9024    8122.0398    311.01831    15572 
391000000   -3083.5138    3478.8418    12927.683   -1521.2168    8083.5724    309.80569    15576 
392000000   -3079.3689    3364.8588     12816.61    -1613.987    8058.2147    307.14387    15585 
393000000   -3117.7704    3313.1899    13028.164   -1679.6139    8110.5742    312.21366    15599 
394000000   -3107.5234    3458.5327     13019.73   -1547.8729     8113.929    312.01154    15569 
395000000    -3089.754    3410.7922    12830.318    -1603.981    8104.5273    307.47237    15582 
396000000    -3045.309    3489.6685    12875.797   -1586.4956    8121.4731    308.56226    15558 
397000000    -2998.334    3566.7114    13058.405   -1567.4521    8132.4975    312.93837    15571 
398000000   -3061.8264    3552.9444    13022.098   -1545.8364    8160.6072    312.06829    15586 
399000000   -3017.9211    3552.5022    13018.024   -1591.5945    8162.0179    311.97067    15583 
400000000   -2942.4318    3467.1395    12825.755   -1711.3976    8120.9689    307.36303    15604 
Loop time of 161190 on 28 procs for 400000000 steps with 14000 atoms

Performance: 5360.119 ns/day, 0.004 hours/ns, 2481.536 timesteps/s
99.5% CPU use with 28 MPI tasks x no OpenMP threads

MPI task timing breakdown:
Section |  min time  |  avg time  |  max time  |%varavg| %total
---------------------------------------------------------------
Pair    | 14433      | 19664      | 24376      |1603.1 | 12.20
Bond    | 4764.1     | 6562.5     | 9370.2     |2387.5 |  4.07
Neigh   | 49631      | 50266      | 51034      | 182.5 | 31.18
Comm    | 39692      | 48148      | 57807      |2062.0 | 29.87
Output  | 0.64176    | 0.64277    | 0.64388    |   0.1 |  0.00
Modify  | 22184      | 22718      | 22932      | 149.9 | 14.09
Other   |            | 1.383e+04  |            |       |  8.58

Nlocal:    500 ave 502 max 498 min
Histogram: 1 0 6 0 0 14 0 6 0 1
Nghost:    721.357 ave 1117 max 439 min
Histogram: 4 2 1 7 5 2 4 1 1 1
Neighs:    5341.39 ave 6501 max 3931 min
Histogram: 2 2 1 3 4 4 4 1 2 5

Total # of neighbors = 149559
Ave neighs/atom = 10.6828
Ave special neighs/atom = 8.14014
Neighbor list builds = 79928199
Dangerous builds = 0
System init for write_restart ...
Total wall time: 44:46:37
