LAMMPS (5 Jun 2019)
Reading restart file ...
  restart file = 5 Jun 2019, LAMMPS = 5 Jun 2019
  restoring atom style full from restart
  orthogonal box = (-420 -420 -420) to (420 420 420)
  2 by 2 by 7 MPI processor grid
  restoring pair style lj/cut from restart
  restoring bond style hybrid from restart
  restoring angle style cosine from restart
  14000 atoms
  15566 bonds
  13600 angles
Finding 1-2 1-3 1-4 neighbors ...
  special bond factors lj:   0          1          1         
  special bond factors coul: 0          0          0         
  3 = max # of 1-2 neighbors
  6 = max # of 1-3 neighbors
  17 = max # of 1-4 neighbors
  56 = max # of special neighbors
  special bonds CPU = 1.48625 secs
  read_restart CPU = 1.8698 secs
Finding 1-2 1-3 1-4 neighbors ...
  special bond factors lj:   0          1          1         
  special bond factors coul: 0          0          0         
  3 = max # of 1-2 neighbors
  6 = max # of 1-3 neighbors
  17 = max # of 1-4 neighbors
  38044 = # of 1-3 neighbors before angle trim
  27200 = # of 1-3 neighbors after angle trim
  56 = max # of special neighbors
  special bonds CPU = 0.00386376 secs
Neighbor list info ...
  update every 1 steps, delay 1 steps, check yes
  max neighbors/atom: 2000, page size: 100000
  master list distance cutoff = 26.9
  ghost atom cutoff = 26.9
  binsize = 13.45, bins = 63 63 63
  1 neighbor lists, perpetual/occasional/extra = 1 0 0
  (1) pair lj/cut, perpetual
      attributes: half, newton on
      pair build: half/bin/newton
      stencil: half/bin/3d/newton
      bin: standard
Setting up Verlet run ...
  Unit style    : real
  Current step  : 400000000
  Time step     : 0.1
Per MPI rank memory allocation (min/avg/max) = 1.103 | 9.818 | 16.65 Mbytes
Step Temp E_pair E_mol TotEng Press 
400000000    306.52342   -2968.1654    6551.1691    16373.723 -0.086255017 
400010000    313.58291   -2960.9784    6510.0046    16634.327   0.10091832 
Loop time of 4.64002 on 28 procs for 10000 steps with 14000 atoms

Performance: 18.621 ns/day, 1.289 hours/ns, 2155.164 timesteps/s
99.4% CPU use with 28 MPI tasks x no OpenMP threads

MPI task timing breakdown:
Section |  min time  |  avg time  |  max time  |%varavg| %total
---------------------------------------------------------------
Pair    | 0.00035888 | 0.41509    | 1.8389     |  85.8 |  8.95
Bond    | 0.00059683 | 0.12036    | 0.43926    |  38.9 |  2.59
Neigh   | 0.014035   | 0.01481    | 0.017467   |   0.7 |  0.32
Comm    | 0.0032689  | 1.8637     | 2.9782     |  61.5 | 40.16
Output  | 0.00012232 | 0.00037794 | 0.00076329 |   0.0 |  0.01
Modify  | 0.00097991 | 0.26373    | 0.9614     |  57.3 |  5.68
Other   |            | 1.962      |            |       | 42.28

Nlocal:    500 ave 1878 max 0 min
Histogram: 12 3 2 3 3 0 1 2 1 1
Nghost:    523.321 ave 1523 max 0 min
Histogram: 10 2 2 3 1 5 1 2 0 2
Neighs:    5400.61 ave 21908 max 0 min
Histogram: 13 3 2 3 2 1 1 1 1 1

Total # of neighbors = 151217
Ave neighs/atom = 10.8012
Ave special neighs/atom = 7.46157
Neighbor list builds = 7
Dangerous builds = 0
4000 atoms in group rxnSites
Neighbor list info ...
  update every 1 steps, delay 1 steps, check yes
  max neighbors/atom: 2000, page size: 100000
  master list distance cutoff = 26.9
  ghost atom cutoff = 26.9
  binsize = 13.45, bins = 63 63 63
  2 neighbor lists, perpetual/occasional/extra = 1 1 0
  (1) pair lj/cut, perpetual
      attributes: half, newton on
      pair build: half/bin/newton
      stencil: half/bin/3d/newton
      bin: standard
  (2) fix bond/create/random, occasional, copy from (1)
      attributes: half, newton on
      pair build: copy
      stencil: none
      bin: none
Setting up Verlet run ...
  Unit style    : real
  Current step  : 0
  Time step     : 25
Per MPI rank memory allocation (min/avg/max) = 17.81 | 18.32 | 19.3 Mbytes
Step E_pair PotEng KinEng E_bond E_angle Temp Bonds 
       0   -2960.9784    3549.0263      13085.3   -1609.3782    8119.3829    313.58291    15566 
 1000000   -2993.6159    3690.1946    12934.521   -1509.2619    8193.0723    309.96955    15566 
 2000000   -2980.4754    3774.4857    12882.233   -1463.7193    8218.6805    308.71649    15561 
 3000000   -2986.4512    3666.1755     12833.41   -1563.9901    8216.6168    307.54648    15568 
 4000000   -2913.8395    3625.0568    12975.156    -1540.336    8079.2323    310.94336    15581 
 5000000    -2954.325    3585.2693    13006.321   -1664.1127     8203.707    311.69022    15583 
 6000000    -3005.232    3531.6681    12974.229    -1536.169    8073.0691    310.92112    15578 
 7000000   -2982.4867    3671.7846    12863.449   -1501.8077     8156.079    308.26635    15579 
 8000000   -3035.9322    3467.0423    12901.269   -1588.3691    8091.3436    309.17268    15584 
 9000000   -3042.3968    3605.2866    13029.957   -1471.9839    8119.6674    312.25663    15571 
10000000   -2969.1008    3422.9819    13010.839   -1709.0178    8101.1006    311.79846    15589 
11000000   -3084.9736     3336.334    13079.463   -1635.6481    8056.9558    313.44301    15582 
12000000   -3004.7437    3678.7323    12927.512    -1540.105     8223.581    309.80159    15591 
13000000   -2977.0083    3674.9866      13115.7   -1564.9256    8216.9205    314.31141    15585 
14000000   -3063.6626    3447.1285    12869.421    -1648.777    8159.5681    308.40947    15570 
15000000   -2966.7871    3618.2448    12876.198   -1497.3954    8082.4272    308.57186    15584 
16000000   -3098.8037    3632.9116    12952.347   -1491.8426    8223.5579    310.39673    15570 
17000000   -2978.8479    3607.4541     12864.69   -1565.7671    8152.0692    308.29608    15578 
18000000   -3037.8464    3433.7255    12846.036   -1629.1711     8100.743    307.84905    15600 
19000000   -2963.2025    3547.9921    13025.366   -1630.7239    8141.9185    312.14661    15590 
20000000   -3025.2323    3561.9487    12714.918   -1525.0624    8112.2434    304.70686    15593 
21000000   -2974.5585    3574.7158    12944.608   -1519.9099    8069.1842    310.21128    15572 
22000000   -3023.7731     3502.291    12950.105   -1608.9891    8135.0532    310.34302    15587 
23000000   -2932.9217    3563.9253    12782.918   -1645.4476    8142.2946    306.33647    15597 
24000000   -2959.4103    3628.3535    12820.269   -1674.4709    8262.2347    307.23157    15591 
25000000   -2883.2414    3585.8566    12985.902   -1701.9964    8171.0944    311.20088    15591 
26000000   -3082.1379     3477.034    12829.516   -1592.7499    8151.9218    307.45316    15603 
27000000   -2882.8865    3639.8613    12889.939   -1579.8744    8102.6223    308.90115    15585 
28000000   -2836.6228    3792.0599    12970.718   -1528.4229    8157.1056      310.837    15583 
29000000   -2930.7253    3601.6683    12740.933   -1644.9869    8177.3805     305.3303    15589 
30000000   -2899.1707    3822.1773    12886.979   -1428.6442    8149.9922    308.83023    15564 
31000000   -3021.8236    3575.7242    12930.148   -1604.0503    8201.5981    309.86476    15597 
32000000   -2872.6544    3801.3732    12944.414   -1542.6963    8216.7239    310.20662    15569 
33000000    -2990.904    3698.4273    13116.906   -1593.2705    8282.6018    314.34032    15581 
34000000   -3033.2336    3429.3572    12982.269    -1542.295    8004.8858    311.11382    15574 
35000000   -3032.2074    3646.9036    12966.522   -1545.4321    8224.5431    310.73644    15574 
36000000    -3108.907    3547.9563     12890.13   -1549.8815    8206.7449    308.90575    15578 
37000000   -2898.2969    3751.2429    12830.617   -1454.2586    8103.7984    307.47955    15565 
38000000   -2942.7808    3629.5366    12984.978   -1593.0522    8165.3695    311.17873    15574 
39000000   -2975.9777    3646.4514    12935.211   -1579.1348    8201.5639     309.9861    15571 
40000000   -2964.0916    3682.9973    12915.855   -1483.6049    8130.6938    309.52223    15558 
41000000    -2917.508    3669.2819    12957.654   -1512.4059    8099.1958    310.52393    15560 
42000000   -3123.5445     3404.964    12919.235   -1678.1626    8206.6711    309.60324    15581 
43000000   -2986.9268    3603.9492     13046.45   -1607.8661     8198.742    312.65188    15579 
44000000   -2933.2879    3705.4767     12909.43   -1568.1033    8206.8679    309.36826    15567 
45000000   -3054.4707    3595.5141    13003.767   -1498.9091    8148.8939      311.629    15578 
46000000   -3039.8613    3659.5804    12809.588   -1522.9212    8222.3629    306.97558    15566 
47000000   -2991.3526    3608.9351     12806.68   -1519.7853     8120.073    306.90591    15562 
48000000   -2963.2502    3597.1166    13035.754   -1458.0382     8018.405    312.39555    15566 
49000000   -2950.3789    3373.4964     12899.76   -1686.0183    8009.8936    309.13652    15590 
50000000   -2989.8687     3612.584    12906.294   -1521.3434    8123.7962    309.29309    15581 
51000000   -2844.7723    3687.9344    12920.896   -1536.1716    8068.8783    309.64303    15560 
52000000   -3006.8762    3495.6711    12915.532   -1612.8175    8115.3649    309.51449    15560 
53000000   -2980.1967    3538.2572    12957.131   -1548.4942     8066.948     310.5114    15567 
54000000   -3013.7534    3649.5175    13088.769   -1574.6869    8237.9578    313.66603    15578 
55000000   -2975.1702    3561.5682    12916.444   -1489.6529    8026.3913    309.53635    15576 
56000000   -2863.3011    3669.6864    12993.622   -1607.6335     8140.621    311.38589    15598 
57000000    -2988.604    3604.5993    12872.131   -1530.6591    8123.8625    308.47441    15586 
58000000   -2907.2071    3656.2938    12790.388   -1589.6305    8153.1315    306.51548    15603 
59000000   -2894.0238    3476.0133    12973.788    -1660.084    8030.1212    310.91056    15591 
60000000    -3022.265    3748.5216    13013.488   -1428.4087    8199.1953    311.86197    15566 
61000000   -2949.8407    3658.6151    13019.421   -1554.0695    8162.5253    312.00414    15564 
62000000   -3011.4681    3726.0934    13017.178   -1504.2574     8241.819    311.95038    15556 
63000000   -2977.6488    3506.0081    12985.269   -1616.8389    8100.4958     311.1857    15571 
64000000   -2991.1817     3568.899    12981.454   -1609.8517    8169.9324    311.09427    15583 
65000000   -2855.1235     3760.571    12980.651   -1510.0215     8125.716    311.07503    15571 
66000000    -2961.854    3677.7039    12834.803   -1536.2873    8175.8453    307.57985    15587 
67000000   -2902.2598    3604.9571     12932.59   -1563.3289    8070.5458    309.92328    15591 
68000000   -2938.0603    3731.5011    13060.357   -1511.3493    8180.9106    312.98515    15579 
69000000     -2924.65    3741.0622    12909.791   -1485.6642    8151.3764    309.37692    15560 
70000000   -3012.6361    3592.8968    12773.991   -1528.8075    8134.3404    306.12253    15574 
71000000   -2961.6989    3585.4463    12871.321    -1580.408    8127.5532    308.45499    15585 
72000000   -2986.4306    3604.4483     13031.03   -1508.5285    8099.4074    312.28234    15556 
73000000   -3100.4049    3488.4639    13069.766   -1635.3724    8224.2412    313.21063    15583 
74000000   -2994.2039    3589.6706    13113.801    -1641.608    8225.4825    314.26592    15587 
75000000   -2992.9494     3510.532    12877.269   -1622.5297    8126.0112    308.59754    15580 
76000000   -2982.7576    3646.7506    12981.656   -1575.7194    8205.2276    311.09911    15574 
77000000   -3023.3477    3649.7841    12897.961   -1513.0352    8186.1671     309.0934    15580 
78000000   -2993.3288    3536.7515    13059.279   -1634.4873    8164.5677    312.95932    15586 
79000000   -2953.0683    3619.8675    13007.213   -1534.0219    8106.9577    311.71159    15574 
80000000   -3020.0217    3544.1201    12878.207   -1510.4516    8074.5933    308.62002    15568 
81000000   -3077.2962    3481.5335    12904.885   -1616.3163     8175.146    309.25934    15583 
82000000   -2923.7326    3608.8985    13072.919   -1633.1816    8165.8127     313.2862    15579 
83000000    -3034.461    3543.8532    12965.542    -1545.934    8124.2481    310.71296    15586 
84000000   -2928.9528    3595.2789     12871.09   -1582.7975    8107.0292    308.44945    15592 
85000000   -2994.7007     3556.918     12899.57    -1551.344    8102.9627    309.13196    15580 
86000000   -2931.9985    3814.0982    13016.509   -1472.3875    8218.4842    311.93435    15577 
87000000   -3001.3843    3701.2622    13004.622   -1472.4695    8175.1161    311.64949    15572 
88000000   -2938.0116    3713.0897    12997.403    -1508.347    8159.4483     311.4765    15569 
89000000   -2865.8215    3686.5693    12982.966   -1567.8947    8120.2856    311.13052    15605 
90000000   -2972.7403    3443.7235    12868.596   -1644.5503    8061.0141    308.38969    15590 
91000000   -3025.8861    3669.3007    12922.626   -1486.6617    8181.8485     309.6845    15577 
92000000   -3019.6601    3528.9975     12992.92   -1574.4245    8123.0821    311.36906    15575 
93000000   -2916.4407    3792.1061      13076.9   -1392.5873    8101.1342    313.38159    15570 
94000000   -2995.5103    3459.5166    12926.604   -1606.5368    8061.5637    309.77982    15579 
95000000    -3055.541    3619.1095    12955.033   -1513.6734    8188.3239    310.46111    15574 
96000000   -3033.6311    3533.7816    12902.372   -1522.4206    8089.8333    309.19912    15568 
97000000   -3012.2799    3682.0117    13036.402   -1487.3984    8181.6899    312.41108    15563 
98000000   -3032.9143    3423.4166    13117.613   -1641.6374    8097.9683    314.35727    15589 
99000000   -3045.2416    3439.6051    12924.899   -1653.7793    8138.6261    309.73897    15584 
100000000   -3014.2831     3484.328    13068.764   -1546.6125    8045.2237    313.18662    15576 
101000000   -2920.2885    3714.1134    12877.153   -1507.7158    8142.1177    308.59475    15580 
102000000   -2984.5899     3501.598    12858.356   -1663.0278    8149.2157    308.14429    15594 
103000000   -2969.2556    3565.9656    12859.167   -1595.3669    8130.5881    308.16373    15570 
104000000   -3045.1572    3569.2256    12978.257    -1527.435    8141.8178    311.01766    15566 
105000000   -2957.6513    3709.1062    12923.625     -1351.68    8018.4376    309.70842    15563 
106000000   -3022.0405    3622.6884    12864.078   -1582.5543    8227.2832    308.28143    15591 
107000000   -2977.5939    3640.1737    13008.711   -1545.5025    8163.2702    311.74747    15570 
108000000   -3020.7613    3688.3091    12986.617   -1590.2366     8299.307    311.21801    15595 
109000000   -2996.9402    3429.3686    12822.867   -1684.1198    8110.4286    307.29382    15600 
110000000   -2944.8618    3768.1125    12843.166   -1493.9293    8206.9036    307.78026    15567 
111000000   -3123.1092    3456.2308    12944.351   -1511.1326    8090.4726    310.20512    15588 
112000000   -2926.9697     3694.603    12904.857   -1611.0119    8232.5845    309.25866    15568 
113000000   -2902.0609     3654.782    13018.731   -1511.3747    8068.2176     311.9876    15562 
114000000   -2941.0737    3575.1469    12983.217   -1624.3571    8140.5778    311.13654    15586 
115000000     -2963.62    3780.3541    13090.424   -1481.2042    8225.1784    313.70569    15559 
116000000   -2914.8539    3660.1256    12972.042   -1592.0325    8167.0119    310.86872    15598 
117000000   -2798.7845    3671.9176     13101.39   -1568.0323    8038.7344    313.96848    15587 
118000000   -3035.1134    3568.9075    12799.985   -1560.9585    8164.9793    306.74546    15569 
119000000   -2975.4234    3631.8657    13104.591   -1561.4773    8168.7665     314.0452    15575 
120000000   -2912.5973    3780.8443    12814.073   -1455.5454    8148.9869    307.08307    15563 
121000000   -2870.3598    3752.7713    12928.233   -1574.2398    8197.3709    309.81887    15577 
122000000   -2904.2161     3775.287    12812.455   -1468.3099    8147.8129    307.04429    15556 
123000000   -2961.8444    3830.1994    13042.192   -1498.2064    8290.2502    312.54984    15591 
124000000   -2980.0473    3639.2205    13034.547   -1592.9337    8212.2014    312.36662    15577 
125000000   -2960.3267    3634.1353    12780.607   -1576.1441    8170.6062    306.28108    15596 
126000000   -2959.0179    3717.9086    12936.378   -1609.4771    8286.4036    310.01406    15605 
127000000   -3019.1971    3599.4971    12954.125   -1572.2971    8190.9913    310.43934    15581 
128000000   -3035.5524    3527.4464    12886.326   -1616.9523    8179.9511    308.81459    15593 
129000000   -2990.4052    3744.4402    12994.901   -1532.9544    8267.7998    311.41653    15583 
130000000     -2895.84    3731.0046    13020.414   -1512.9682    8139.8127    312.02793    15577 
131000000   -2998.6796    3540.2309    12924.169   -1603.9775     8142.888    309.72148    15576 
132000000   -2964.1412    3624.0697    13018.986   -1611.5308    8199.7418    311.99372    15591 
133000000   -3001.3686    3532.1622    12925.275   -1662.8485    8196.3793    309.74799    15589 
134000000   -2911.4055    3725.7557    12923.623    -1597.998    8235.1592    309.70838    15583 
135000000   -2870.4146    3864.1783    12954.936   -1513.5876    8248.1805    310.45879    15585 
136000000   -2972.8776    3683.5714    12874.509   -1537.9894    8194.4384     308.5314    15579 
137000000   -2976.5484     3757.664    12947.433   -1511.3683    8245.5807    310.27898    15566 
138000000   -2980.1286    3615.9704    12824.968   -1624.6707    8220.7697    307.34418    15558 
139000000   -2874.4235    3728.5623    12892.205   -1568.3095    8171.2953    308.95547    15595 
140000000    -2885.336    3680.0966    12941.795   -1598.8461    8164.2787    310.14386    15584 
141000000   -2908.8461    3728.6811    12915.696   -1482.4575    8119.9846    309.51842    15579 
142000000   -3008.7016     3582.609    13040.595   -1643.4791    8234.7897    312.51158    15601 
143000000   -2910.3022    3660.0625    12909.522   -1572.9874    8143.3521    309.37046    15577 
144000000   -2943.7625    3717.9059    12981.083   -1555.3054    8216.9738    311.08539    15580 
145000000   -2880.1212    3788.3957    12930.685   -1538.3239    8206.8409    309.87762    15572 
146000000   -2877.9022    3852.1805    12845.763   -1515.5703     8245.653    307.84251    15576 
147000000   -2926.8271    3739.7932     12844.75   -1499.4985    8166.1188    307.81824    15566 
148000000   -2986.1122     3607.784    12889.037   -1510.8455    8104.7417    308.87955    15563 
149000000   -3099.5416    3650.3178    13081.961   -1594.7362    8344.5957    313.50288    15585 
150000000   -2947.2347    3708.8248    13010.826   -1528.6621    8184.7216    311.79817    15587 
151000000   -2946.4501    3772.9905    13081.937   -1563.6222    8283.0627    313.50229    15591 
152000000   -2895.7358    3733.9905    12938.861   -1548.6474    8178.3737    310.07357    15585 
153000000   -2929.8135    3763.0562    12927.343   -1588.9365    8281.8062    309.79754    15586 
154000000   -2910.3485    3702.8297    12876.538   -1612.3265    8225.5047    308.58002    15596 
155000000   -2931.8987    3824.0007     12899.52   -1489.5639    8245.4633    309.13078    15571 
156000000   -2949.0542    3648.6644    13065.349   -1607.8756    8205.5942    313.10477    15577 
157000000   -2978.3838    3493.6864    12945.216   -1626.4389    8098.5091    310.22584    15582 
158000000   -3006.4209    3694.2081    12863.714   -1536.6686    8237.2977    308.27269    15554 
159000000   -2951.0153    3847.9327    12857.852   -1401.3569     8200.305    308.13222    15557 
160000000   -2913.9578    3672.6957    13007.768   -1515.1878    8101.8412    311.72489    15577 
161000000   -2841.7524    3634.2705    13020.238   -1662.3945    8138.4174    312.02371    15601 
162000000    -2961.306    3519.1431     12895.79   -1546.6903    8027.1395    309.04138    15580 
163000000   -3003.1405    3451.2775    12847.542   -1691.9598    8146.3779    307.88514    15589 
164000000   -2952.0646    3672.0805    13048.172    -1540.344    8164.4892    312.69315    15578 
165000000   -2932.1212    3659.4134    12916.375   -1543.9501    8135.4847    309.53468    15562 
166000000   -2961.8006     3690.308    12887.431   -1528.6615    8180.7701    308.84106    15580 
167000000   -2923.7569    3639.5219    12782.783   -1559.4746    8122.7534    306.33322    15567 
168000000   -3051.8126    3434.4641    12955.915   -1663.7743    8150.0511    310.48225    15583 
169000000   -3051.1222    3677.4807     12987.48   -1480.5259    8209.1288     311.2387    15579 
170000000   -2964.3033    3656.3256    13074.806   -1497.0946    8117.7234    313.33141    15562 
171000000   -3075.3913    3615.1029    13024.101   -1584.9318    8275.4259     312.1163    15577 
172000000   -3034.5197    3575.5908    12721.978   -1563.2234    8173.3339    304.87607    15588 
173000000   -2974.6517    3738.9657    12890.716   -1476.0146    8189.6319    308.91978    15572 
174000000   -3008.0792     3704.679    12946.866   -1483.8905    8196.6487    310.26539    15569 
175000000   -2962.9374    3558.5649    12783.234    -1559.347    8080.8493    306.34403    15592 
176000000   -3003.0184    3558.4554    12888.576   -1581.1662      8142.64    308.86851    15585 
177000000   -2913.9459    3540.0521    12903.909   -1582.1621      8036.16    309.23594    15579 
178000000   -3059.6265    3552.3233    13124.151   -1613.9575    8225.9073    314.51393    15581 
179000000    -2910.147    3684.8947    12916.341   -1495.7582    8090.7999    309.53387    15559 
180000000   -3040.4845    3613.5814    13051.868   -1554.7004    8208.7664    312.78171    15587 
181000000   -2935.5128    3707.4097    12937.053   -1500.8208    8143.7433    310.03022    15544 
182000000   -2939.8153    3654.6336    12977.092   -1583.0177    8177.4665    310.98975    15589 
183000000   -2963.0622    3688.8216    12894.216   -1595.4119    8247.2957    309.00367    15586 
184000000   -2999.2744    3520.9002    12981.301   -1604.2983    8124.4729    311.09061    15595 
185000000    -3031.933    3555.9256     12932.75   -1502.3151    8090.1736    309.92711    15573 
186000000     -3074.41    3575.2461    12850.226   -1568.5717    8218.2279    307.94946    15584 
187000000   -3079.4424    3365.6419    12832.769   -1647.5838    8092.6681    307.53111    15597 
188000000   -2973.6608    3597.3742    12919.506   -1554.0691    8125.1041    309.60973    15556 
189000000   -3002.1859    3577.8799    13017.699   -1551.9243    8131.9901    311.96288    15570 
190000000    -3204.354     3428.047    12904.635   -1517.6681    8150.0692    309.25335    15569 
191000000   -2982.0576    3696.0102    13052.644    -1552.104    8230.1718    312.80032    15561 
192000000   -3025.3375    3398.4795     13089.88   -1679.2772    8103.0942    313.69266    15593 
193000000    -3077.737    3653.8072    12851.425   -1476.0283    8207.5725    307.97819    15575 
194000000    -3042.686    3517.6176    12823.498   -1450.1996    8010.5032    307.30893    15567 
195000000   -3114.2949    3322.7848    13127.101   -1706.4422    8143.5219    314.58464    15597 
196000000   -2981.0125    3674.0368    12965.626   -1540.8069    8195.8561    310.71496    15584 
197000000   -2982.9756    3629.9167    12801.504   -1543.4803    8156.3726    306.78185    15573 
198000000   -3050.7263    3508.8854    13115.391   -1541.6761    8101.2878    314.30402    15577 
199000000    -3084.079    3574.7007    13053.817   -1523.4908    8182.2704    312.82841    15564 
200000000   -3068.6785    3456.7693    12812.682    -1601.851    8127.2988    307.04973    15578 
201000000   -3031.1402    3503.3057     12882.48   -1632.2842    8166.7301    308.72241    15591 
202000000   -3079.0507    3417.7873    13020.846   -1658.5318    8155.3698    312.03829    15591 
203000000   -3160.7918    3207.2162     13011.64     -1753.99     8121.998    311.81768    15590 
204000000   -3111.4784     3518.846    12885.033   -1603.3532    8233.6776    308.78361    15572 
205000000   -3066.2816    3500.2901     12844.34    -1502.958    8069.5297     307.8084    15564 
206000000   -3021.3856    3544.5221    12847.784   -1583.2583     8149.166    307.89095    15583 
207000000   -3076.3365    3605.3666    12943.825   -1478.0267    8159.7298    310.19252    15567 
208000000   -3075.0507    3581.7346    12933.968   -1461.6142    8118.3996     309.9563    15565 
209000000   -3093.0978    3558.8999    12911.578   -1529.5679    8181.5656    309.41973    15569 
210000000   -3072.7919    3476.9602    12961.404   -1486.6033    8036.3553    310.61379    15568 
211000000   -3034.7734    3515.6594    12902.767   -1621.6018    8172.0346    309.20858    15593 
212000000   -3059.8565    3387.4076    12979.554   -1582.6706    8029.9347    311.04874    15581 
213000000   -3118.1017    3692.7187    12902.768   -1436.4024    8247.2228     309.2086    15550 
214000000   -3056.6941    3547.6841    12916.695    -1532.722    8137.1002    309.54236    15562 
215000000   -3096.4161    3371.8288    13016.787   -1681.1376    8149.3825    311.94102    15589 
216000000   -3021.8508     3599.626    12863.654   -1586.6183    8208.0951    308.27125    15565 
217000000   -3150.2914    3572.3873    12859.514   -1454.8887    8177.5673    308.17205    15566 
218000000   -3061.9551    3511.1034    13011.316   -1516.8306    8089.8892     311.8099    15569 
219000000   -3142.3995    3381.9888    13069.707   -1620.4179    8144.8062    313.20922    15588 
220000000    -3033.116    3478.8181    12813.323    -1515.737     8027.671     307.0651    15576 
221000000   -3123.2268    3409.3515     12875.88   -1615.0663    8147.6445    308.56424    15587 
222000000   -3148.6244    3439.3739    13097.456   -1539.6715    8127.6698    313.87421    15565 
223000000    -2970.912    3656.1567    12895.662   -1620.2383     8247.307    309.03832    15580 
224000000   -3062.6011    3600.5502    12810.635    -1522.989    8186.1403    307.00068    15569 
225000000    -3139.785    3568.3925    13008.676   -1468.8772    8177.0547    311.74664    15578 
226000000   -2936.6226    3684.3825    12972.844   -1439.5271    8060.5322    310.88795    15568 
227000000   -3002.5698    3503.7073    12924.092   -1665.3352    8171.6124    309.71963    15578 
228000000   -3070.9169    3505.6866    13046.934   -1629.5697    8206.1732    312.66348    15595 
229000000   -3013.7627     3617.509    13096.925   -1532.2101    8163.4818    313.86149    15597 
230000000   -2975.1359    3574.3256    12841.763   -1553.5075     8102.969    307.74664    15573 
231000000   -3023.7031    3591.4678    13020.737   -1549.3869    8164.5579    312.03567    15568 
232000000   -2902.4199     3585.571    12866.871   -1627.8371     8115.828    308.34836    15584 
233000000   -3030.6458    3628.1284    12938.278   -1568.6045    8227.3787    310.05957    15588 
234000000    -3060.208    3611.6539    12948.965   -1527.8973    8199.7591     310.3157    15574 
235000000   -2920.6881    3665.4227    12903.593   -1555.1154    8141.2263    309.22837    15584 
236000000   -3028.4427    3631.9137    12957.201    -1494.279    8154.6354    310.51307    15564 
237000000   -3006.9259    3631.1462    12950.105   -1467.6362    8105.7083    310.34302    15569 
238000000   -3074.7279    3547.7302    12874.007   -1567.0657    8189.5238    308.51937    15568 
239000000   -3132.0782    3384.9644     12774.29   -1599.4285    8116.4711     306.1297    15589 
240000000   -3066.5481    3483.2586    12944.251   -1601.2201    8151.0269    310.20272    15579 
241000000   -2996.2812    3471.9362    12791.989   -1555.9081    8024.1255    306.55384    15564 
242000000   -2994.1975    3531.6431    12867.797   -1582.6596    8108.5002    308.37054    15567 
243000000   -3029.5094    3588.7975    13076.744   -1522.5117    8140.8185    313.37787    15579 
244000000   -3002.0407    3542.7278    12877.281   -1580.4559    8125.2243    308.59782    15586 
245000000   -2999.9376    3564.2449    12809.866   -1624.3502    8188.5326    306.98225    15569 
246000000    -3048.801    3564.7622    12951.361   -1547.4642    8161.0273    310.37312    15564 
247000000   -2972.3365    3598.7215    12886.078   -1519.7081    8090.7661    308.80863    15583 
248000000   -3080.3881    3371.0737    13154.843   -1633.7668    8085.2285    315.24945    15605 
249000000    -3019.949    3518.6412     12964.96   -1563.4264    8102.0166    310.69901    15568 
250000000   -3038.9947    3646.6248    12894.006   -1542.9984    8228.6179    308.99863    15576 
251000000   -3011.8647    3745.0793    13118.186   -1487.8426    8244.7867    314.37099    15577 
252000000   -2958.4456    3599.7342     12927.35   -1523.8044    8081.9842    309.79771    15582 
253000000   -3191.2486    3503.7483    12992.087   -1532.7993    8227.7962    311.34908    15574 
254000000    -2982.988    3280.4025     12957.38   -1672.7722    7936.1627    310.51736    15593 
255000000   -3072.7487    3539.0804     13094.84   -1495.0564    8106.8856    313.81152    15568 
256000000   -3114.6243     3441.545    13014.454   -1536.6324    8092.8017     311.8851    15586 
257000000   -3056.6204    3456.4783    12784.543   -1586.0184    8099.1171    306.37539    15573 
258000000   -2999.3509    3377.6776    12954.191   -1728.3657    8105.3942    310.44093    15591 
259000000   -3036.1073    3419.8038    12932.937   -1588.1082    8044.0193    309.93159    15575 
260000000   -3105.0824     3491.434    13059.925   -1580.3674    8176.8838    312.97479    15576 
261000000   -3076.0722    3539.1248    12960.356   -1506.2858    8121.4827    310.58866    15587 
262000000   -3058.4221    3466.7055    12842.472   -1593.8772    8119.0048    307.76363    15579 
263000000   -2986.8141    3501.1502    12898.848   -1663.9884    8151.9527    309.11466    15572 
264000000   -2994.2675    3730.4595    12992.441   -1388.8037    8113.5306    311.35758    15544 
265000000   -3093.5097    3618.5849    12776.283   -1510.2957    8222.3903    306.17746    15572 
266000000   -2965.1279    3519.7295    12938.618    -1628.422    8113.2794    310.06773    15588 
267000000   -2997.1422    3568.5796    12936.214   -1581.7706    8147.4925    310.01012    15596 
268000000   -3084.7656    3423.1592    12893.321    -1534.902    8042.8268    308.98222    15553 
269000000   -3043.4565    3762.5915    12904.672   -1408.3185    8214.3665    309.25423    15572 
270000000    -2999.846    3547.6562    12875.614   -1651.5684    8199.0706    308.55788    15584 
271000000    -3048.903    3439.3228    12994.273   -1705.4266    8193.6524    311.40147    15589 
272000000   -3024.7403    3514.9384    12918.603    -1573.498    8113.1767    309.58809    15574 
273000000   -3080.7014    3508.4284    12814.861   -1563.7047    8152.8345    307.10195    15550 
274000000   -2980.5056    3600.7662     12793.55   -1500.5424    8081.8142    306.59125    15580 
275000000   -3042.9339    3589.0568    12978.631    -1576.786    8208.7768    311.02663    15571 
276000000   -3005.6625    3527.3032    12814.796   -1623.2409    8156.2065    307.10041    15573 
277000000   -2958.1315    3743.7983    13078.466   -1550.3029    8252.2326    313.41912    15580 
278000000   -2915.9339    3568.9538    12997.368   -1597.4722    8082.3599    311.47565    15596 
279000000    -3003.353    3541.6411    12945.247    -1518.403    8063.3971    310.22659    15585 
280000000   -2943.4029    3722.2486    12906.803   -1463.6453    8129.2968    309.30531    15560 
281000000   -2965.6121    3615.8494    12823.215   -1602.9237    8184.3851    307.30215    15581 
282000000   -2895.5406    3695.3566    12755.979   -1482.0847    8072.9819    305.69087    15575 
283000000   -2902.4769    3652.3152     12870.35   -1591.8207    8146.6127    308.43172    15576 
284000000   -2864.1222    3639.0345    12928.426   -1496.7963     7999.953    309.82349    15583 
285000000   -2979.8114    3763.7591     12898.11   -1510.3282    8253.8986    309.09699    15564 
286000000   -2940.3709    3694.7872    12844.852   -1475.9131    8111.0711    307.82068    15568 
287000000   -3030.8047    3527.8276     12817.62   -1610.5177      8169.15    307.16808    15571 
288000000   -3089.2522    3373.7044    12949.228   -1575.7351    8038.6917    310.32199    15564 
289000000   -2962.7616    3464.7103    13051.839    -1671.753    8099.2249    312.78103    15590 
290000000   -3116.4224    3423.6209    12885.206    -1552.291    8092.3342    308.78774    15582 
291000000   -2987.3546    3733.2578    12990.907   -1306.5936     8027.206    311.32081    15553 
292000000    -3002.182    3520.1464    12938.131   -1489.5245    8011.8529    310.05605    15566 
293000000   -3036.0488     3733.013    12808.552   -1465.9194    8234.9812    306.95077    15577 
294000000    -2991.503    3679.4178    12979.952   -1483.9042     8154.825    311.05829    15562 
295000000   -2957.5519    3686.5793    12915.925   -1585.0967    8229.2279    309.52391    15579 
296000000   -3010.7862    3638.6192    12953.037   -1564.1659    8213.5712    310.41328    15578 
297000000   -2916.7449    3683.0373    12931.622   -1594.4032    8194.1854    309.90007    15592 
298000000    -2975.695    3676.8215     12840.72   -1560.7494    8213.2659    307.72165    15563 
299000000   -2967.4345    3580.4996    13024.872   -1564.7179     8112.652    312.13477    15589 
300000000   -3015.7232    3603.9061    12907.615   -1476.3304    8095.9597    309.32477    15571 
301000000   -2957.6647    3667.6149    12920.387    -1521.676    8146.9557    309.63085    15557 
302000000   -3052.5916    3539.1821    12839.408   -1593.1239    8184.8976    307.69021    15583 
303000000   -3044.9349    3458.1303    12899.066   -1627.6384    8130.7036    309.11989    15576 
304000000   -3027.6373    3658.4425    13076.229   -1585.8823    8271.9621    313.36551    15574 
305000000   -3010.7112    3737.7102    12942.973   -1395.0145    8143.4358     310.1721    15559 
306000000   -2871.7253    3669.0624    12990.759   -1595.8603    8136.6481    311.31727    15565 
307000000   -2943.1976    3648.8456    12959.778    -1549.385    8141.4282    310.57483    15588 
308000000   -2957.0576    3578.9567    12916.628   -1576.8074    8112.8217    309.54075    15578 
309000000   -2933.6034    3586.6041    12914.686   -1607.0539    8127.2614    309.49422    15601 
310000000   -2932.2878    3735.4237    12912.737    -1538.726    8206.4375    309.44752    15573 
311000000   -3009.0658    3573.2419    13068.217     -1491.64    8073.9477    313.17352    15582 
312000000   -2980.5106    3493.9234    12979.418   -1646.7676    8121.2016     311.0455    15571 
313000000   -3086.7726    3504.8807    12826.968   -1523.6758     8115.329     307.3921    15589 
314000000   -3089.2864    3437.8603    12772.423   -1572.3042    8099.4508    306.08495    15599 
315000000   -3175.7926    3317.1091    12890.202   -1677.7276    8170.6293    308.90747    15574 
316000000   -3168.8318    3191.8002    12896.916   -1689.0866    8049.7186    309.06838    15579 
317000000   -3023.4784     3426.192    12866.018   -1655.5806     8105.251    308.32791    15580 
318000000   -3077.5723    3580.5592    13077.724   -1506.9222    8165.0538    313.40134    15566 
319000000   -3100.1874    3481.7169    12944.718    -1577.341    8159.2453    310.21391    15576 
320000000   -3040.2336    3576.3309    13004.859    -1551.286    8167.8505    311.65516    15569 
321000000   -2965.2518    3552.5811    13014.251   -1543.8853    8061.7181    311.88025    15579 
322000000   -2961.8413    3721.8863    12923.583   -1456.1223      8139.85    309.70743    15569 
323000000   -3004.7022    3578.1498    12976.395    -1505.215     8088.067    310.97303    15579 
324000000   -2997.3083    3622.2982    13017.284   -1495.0881    8114.6946    311.95292    15581 
325000000   -3053.0969    3496.8515    12896.713   -1604.5756    8154.5239     309.0635    15573 
326000000   -2984.2001    3704.3657      13120.4   -1462.7117    8151.2776    314.42406    15571 
327000000    -3005.903     3523.009    12733.954   -1613.8451    8142.7571    305.16306    15577 
328000000    -3027.522    3507.9557    12845.196   -1677.0114    8212.4891    307.82893    15593 
329000000   -2907.2057    3712.8915      12934.4   -1622.4369    8242.5341    309.96665    15581 
330000000   -2978.5311      3512.09    12939.678   -1607.5668    8098.1879    310.09313    15586 
331000000   -2949.3143    3576.3915    12951.642   -1632.7285    8158.4343    310.37984    15593 
332000000   -2934.4494    3585.7475    13046.315   -1660.4301     8180.627    312.64865    15567 
333000000   -2995.5299    3519.0104    12983.318   -1570.8698      8085.41    311.13895    15565 
334000000   -2982.8041    3543.3092    12996.607   -1613.6909    8139.8042    311.45741    15570 
335000000   -3029.5163    3605.0869    12872.951   -1597.1509    8231.7541    308.49406    15596 
336000000   -3032.5373    3594.7605    12982.991   -1587.8638    8215.1616    311.13112    15586 
337000000   -3015.8852    3744.7232     12771.33    -1514.022    8274.6304    306.05876    15563 
338000000   -2954.2731    3698.5939    12836.338   -1564.4605    8217.3275    307.61665    15583 
339000000   -2970.8857    3491.8398     12852.71   -1667.0299    8129.7554      308.009    15596 
340000000   -2938.6967    3689.7931    12987.149    -1539.741    8168.2307    311.23075    15557 
341000000   -3000.2963    3726.2386    13016.839   -1574.3306    8300.8655    311.94227    15580 
342000000   -2947.2897    3586.2103    12956.006   -1662.2722    8195.7722    310.48443    15585 
343000000   -3071.3699    3718.2312    12978.887   -1453.2098    8242.8109    311.03277    15568 
344000000   -3085.1574    3509.0771    12898.805   -1494.6817    8088.9162    309.11363    15567 
345000000    -3071.234    3487.0039    12983.611    -1598.011    8156.2489    311.14598    15559 
346000000   -2995.4855    3743.8286    12879.446   -1489.4554    8228.7695    308.64969    15553 
347000000   -3041.0671    3434.0557    12856.012   -1670.1315    8145.2543    308.08811    15560 
348000000   -2973.4666    3590.5955    12806.157   -1554.2062    8118.2683    306.89337    15578 
349000000   -3044.3714    3439.2105    12982.361   -1602.8881      8086.47    311.11601    15585 
350000000   -2958.3617    3554.9816    12876.601   -1631.0365    8144.3798    308.58153    15579 
351000000   -2977.9674    3491.3419    12977.244   -1615.3282    8084.6376    310.99339    15595 
352000000   -3010.9363    3561.2818    12791.669   -1563.4479     8135.666    306.54617    15557 
353000000   -2983.4641    3685.8177    12948.592    -1588.621    8257.9029    310.30676    15585 
354000000   -2968.7894    3577.0561    12859.714   -1532.4359    8078.2814    308.17683    15589 
355000000   -3011.4787    3504.6918    13042.237   -1558.4075     8074.578    312.55091    15584 
356000000   -2917.7948    3574.2221     12996.76   -1578.0374    8070.0543    311.46109    15584 
357000000   -2899.3024    3633.8202    12861.817   -1569.1209    8102.2435    308.22724    15584 
358000000   -2957.0742    3724.2753    12933.873   -1455.6354    8136.9848    309.95403    15560 
359000000    -2974.603    3630.7252    12940.026   -1540.0933    8145.4215    310.10148    15593 
360000000   -2998.6669    3565.1311    12874.188   -1521.3633    8085.1613    308.52369    15573 
361000000   -2977.7685    3620.1406    12935.651   -1570.9796    8168.8887    309.99662    15567 
362000000     -2953.49    3687.7969    12926.082   -1496.6156    8137.9025    309.76732    15581 
363000000   -2948.5079    3622.7699    12765.046   -1519.8713    8091.1491    305.90817    15589 
364000000   -3105.3722    3570.7305    13067.556   -1475.9735    8152.0761    313.15767    15574 
365000000   -2960.0255    3594.5077    12836.061   -1563.0743    8117.6075    307.60999    15577 
366000000   -2998.1918    3634.6926    12820.311   -1539.5729    8172.4573    307.23257    15567 
367000000   -3008.2503     3523.147      13002.5   -1573.9257     8105.323    311.59864    15579 
368000000   -3046.5868    3652.1687    12939.971   -1471.6567    8170.4122    310.10016    15578 
369000000   -3076.3217    3341.5569     12870.34   -1631.1986    8049.0772    308.43149    15580 
370000000   -3056.9221    3431.0623    12975.186   -1534.9285    8022.9129    310.94407    15576 
371000000   -3050.7406     3611.729    13018.227    -1581.014    8243.4836    311.97554    15561 
372000000   -2957.0288    3575.1641    13039.903   -1584.5653    8116.7582    312.49499    15592 
373000000   -3063.7035    3589.2246    12747.743   -1474.7176    8127.6457     305.4935    15572 
374000000   -2992.9509    3456.0302    12842.252   -1634.5501    8083.5312    307.75838    15592 
375000000   -2945.7124    3758.7254    12866.525   -1489.4891    8193.9269    308.34005    15559 
376000000   -3160.0745    3410.2175    13087.915    -1537.416    8107.7081    313.64557    15574 
377000000   -2966.3414    3649.6368     13004.37   -1558.8649    8174.8432    311.64344    15572 
378000000   -3031.2276    3580.2904    12975.697   -1595.6595    8207.1774    310.95632    15565 
379000000   -3032.3541    3593.4539    12909.001     -1557.86     8183.668    309.35798    15564 
380000000   -3029.3435    3638.1305    12979.041   -1568.4565    8235.9305    311.03646    15562 
381000000   -2926.7774    3762.4827    13056.403   -1437.2307    8126.4909     312.8904    15547 
382000000   -2870.3764    3777.4632    12962.802   -1507.5061    8155.3457     310.6473    15572 
383000000   -3124.3548    3491.2713    13085.826   -1539.3002    8154.9263    313.59551    15572 
384000000   -3029.3907     3614.996    13053.257   -1449.5253     8093.912      312.815    15585 
385000000   -3052.9772    3471.1859    12781.762   -1557.0326    8081.1957    306.30876    15578 
386000000   -3024.8003    3687.3258    13008.673   -1548.3391    8260.4651    311.74656    15572 
387000000   -3041.2265    3437.5188    12873.669   -1598.2009    8076.9462    308.51126    15608 
388000000   -3078.2888    3557.6902    12743.604   -1546.3795    8182.3584    305.39432    15585 
389000000   -3057.5129    3483.6707    12894.521   -1645.6182    8186.8018    309.01096    15606 
390000000   -3090.2678    3523.3473    12760.776   -1390.3834    8003.9985    305.80583    15555 
391000000   -3027.4778    3568.6874    12921.265   -1553.7448    8149.9099    309.65189    15582 
392000000   -3068.9317    3621.3466    12916.253   -1422.9663    8113.2446    309.53177    15572 
393000000    -3030.391    3552.5065    12929.206   -1562.0673    8144.9648    309.84218    15581 
394000000   -3095.8415    3428.0443    12844.616   -1548.2092     8072.095    307.81503    15575 
395000000    -3101.349    3630.5731    12954.513   -1498.2598    8230.1819    310.44865    15567 
396000000   -3007.2795    3559.4072    12954.943   -1512.8428    8079.5294    310.45896    15576 
397000000   -3018.1857    3576.3999    12709.264   -1544.3841    8138.9697    304.57138    15580 
398000000   -3083.9426    3483.8688    12987.555   -1565.3916     8133.203    311.24048    15568 
399000000   -3016.5865    3546.1748    12959.773   -1559.4557     8122.217     310.5747    15556 
400000000   -3089.8339    3528.9676    12987.629   -1556.1768    8174.9783    311.24225    15565 
Loop time of 151689 on 28 procs for 400000000 steps with 14000 atoms

Performance: 5695.853 ns/day, 0.004 hours/ns, 2636.969 timesteps/s
99.5% CPU use with 28 MPI tasks x no OpenMP threads

MPI task timing breakdown:
Section |  min time  |  avg time  |  max time  |%varavg| %total
---------------------------------------------------------------
Pair    | 14707      | 18936      | 23211      |1246.0 | 12.48
Bond    | 4800       | 6011.7     | 9514.3     |2288.9 |  3.96
Neigh   | 49013      | 49497      | 50289      | 151.7 | 32.63
Comm    | 35698      | 43085      | 50186      |1468.7 | 28.40
Output  | 0.65115    | 0.8026     | 0.80923    |   3.3 |  0.00
Modify  | 20859      | 20989      | 21231      |  62.4 | 13.84
Other   |            | 1.317e+04  |            |       |  8.68

Nlocal:    500 ave 539 max 456 min
Histogram: 3 0 7 1 2 1 5 3 2 4
Nghost:    739.357 ave 1027 max 495 min
Histogram: 4 2 5 2 4 2 2 1 3 3
Neighs:    5556.46 ave 7108 max 3649 min
Histogram: 1 1 4 4 3 1 6 3 1 4

Total # of neighbors = 155581
Ave neighs/atom = 11.1129
Ave special neighs/atom = 8.14914
Neighbor list builds = 79928203
Dangerous builds = 0
System init for write_restart ...
Total wall time: 42:08:16
