LAMMPS (5 Jun 2019)
Reading data file ...
  orthogonal box = (-1020 -1020 -1020) to (1020 1020 1020)
  2 by 2 by 7 MPI processor grid
  reading atoms ...
  14000 atoms
  reading velocities ...
  14000 velocities
  scanning bonds ...
  2 = max bonds/atom
  scanning angles ...
  1 = max angles/atom
  reading bonds ...
  15706 bonds
  reading angles ...
  13600 angles
Finding 1-2 1-3 1-4 neighbors ...
  special bond factors lj:   0          0          0         
  special bond factors coul: 0          0          0         
  3 = max # of 1-2 neighbors
  6 = max # of 1-3 neighbors
  17 = max # of 1-4 neighbors
  20 = max # of special neighbors
  special bonds CPU = 0.00331488 secs
  read_data CPU = 0.0941761 secs
Finding 1-2 1-3 1-4 neighbors ...
  special bond factors lj:   1          1          1         
  special bond factors coul: 0          0          0         
  3 = max # of 1-2 neighbors
  6 = max # of 1-3 neighbors
  17 = max # of 1-4 neighbors
  20 = max # of special neighbors
  special bonds CPU = 0.00242582 secs
WARNING: Using 'neigh_modify every 1 delay 0 check yes' setting during minimization (../min.cpp:168)
Neighbor list info ...
  update every 1 steps, delay 0 steps, check yes
  max neighbors/atom: 2000, page size: 100000
  master list distance cutoff = 26.9
  ghost atom cutoff = 26.9
  binsize = 13.45, bins = 152 152 152
  1 neighbor lists, perpetual/occasional/extra = 1 0 0
  (1) pair lj/cut, perpetual
      attributes: half, newton on
      pair build: half/bin/newton
      stencil: half/bin/3d/newton
      bin: standard
Setting up cg style minimization ...
  Unit style    : real
  Current step  : 0
Per MPI rank memory allocation (min/avg/max) = 1.5 | 3.032 | 10.14 Mbytes
Step Temp E_pair E_mol TotEng Press 
       0    30.962652   -6803.3792    80160.514    74649.155  -0.14860849 
    4029    30.962652   -6393.1227    5121.8137    20.711718  0.020157154 
Loop time of 7.1574 on 28 procs for 4029 steps with 14000 atoms

99.4% CPU use with 28 MPI tasks x no OpenMP threads

Minimization stats:
  Stopping criterion = energy tolerance
  Energy initial, next-to-last, final = 
          73357.134715     -1271.22047427     -1271.30896766
  Force two-norm initial, final = 500.744 1.86678
  Force max component initial, final = 10.6397 0.520332
  Final line search alpha, max atom move = 0.240931 0.125364
  Iterations, force evaluations = 4029 5091

MPI task timing breakdown:
Section |  min time  |  avg time  |  max time  |%varavg| %total
---------------------------------------------------------------
Pair    | 0.00023751 | 0.59472    | 4.4194     | 183.6 |  8.31
Bond    | 0.00044092 | 0.070773   | 0.49611    |  60.3 |  0.99
Neigh   | 1.3595     | 1.3883     | 1.4089     |   1.8 | 19.40
Comm    | 0.020245   | 1.6178     | 5.2112     | 179.4 | 22.60
Output  | 0          | 0          | 0          |   0.0 |  0.00
Modify  | 0          | 0          | 0          |   0.0 |  0.00
Other   |            | 3.486      |            |       | 48.70

Nlocal:    500 ave 3497 max 0 min
Histogram: 24 0 0 0 0 0 0 1 0 3
Nghost:    367.929 ave 1877 max 0 min
Histogram: 16 4 4 0 0 0 0 0 1 3
Neighs:    8770.54 ave 63088 max 0 min
Histogram: 24 0 0 0 0 0 0 1 0 3

Total # of neighbors = 245575
Ave neighs/atom = 17.5411
Ave special neighs/atom = 8.75714
Neighbor list builds = 284
Dangerous builds = 0
Setting up Verlet run ...
  Unit style    : real
  Current step  : 4029
  Time step     : 0.1
Per MPI rank memory allocation (min/avg/max) = 1.462 | 3.276 | 9.013 Mbytes
Step Temp E_pair E_mol TotEng Press 
    4029    30.962652   -6393.1227    5121.8137    20.711718  0.020157154 
   14029    270.76073   -5296.2445    12864.565    18866.722 -0.013442914 
Loop time of 8.56073 on 28 procs for 10000 steps with 14000 atoms

Performance: 10.093 ns/day, 2.378 hours/ns, 1168.125 timesteps/s
99.5% CPU use with 28 MPI tasks x no OpenMP threads

MPI task timing breakdown:
Section |  min time  |  avg time  |  max time  |%varavg| %total
---------------------------------------------------------------
Pair    | 0.00034447 | 0.6884     | 5.2152     | 197.1 |  8.04
Bond    | 0.00055814 | 0.114      | 0.79032    |  75.2 |  1.33
Neigh   | 0.02293    | 0.024305   | 0.025419   |   0.7 |  0.28
Comm    | 0.0027108  | 2.0107     | 6.4295     | 198.4 | 23.49
Output  | 5.6647e-05 | 0.00081522 | 0.0012904  |   0.0 |  0.01
Modify  | 0.00095144 | 0.25182    | 1.7341     | 111.5 |  2.94
Other   |            | 5.471      |            |       | 63.90

Nlocal:    500 ave 3506 max 0 min
Histogram: 24 0 0 0 0 0 0 1 0 3
Nghost:    368.321 ave 1879 max 0 min
Histogram: 16 4 4 0 0 0 0 0 1 3
Neighs:    8770.64 ave 63177 max 0 min
Histogram: 24 0 0 0 0 0 0 1 0 3

Total # of neighbors = 245578
Ave neighs/atom = 17.5413
Ave special neighs/atom = 8.75714
Neighbor list builds = 5
Dangerous builds = 0
4000 atoms in group rxnSites
Neighbor list info ...
  update every 1 steps, delay 1 steps, check yes
  max neighbors/atom: 2000, page size: 100000
  master list distance cutoff = 26.9
  ghost atom cutoff = 26.9
  binsize = 13.45, bins = 152 152 152
  2 neighbor lists, perpetual/occasional/extra = 1 1 0
  (1) pair lj/cut, perpetual
      attributes: half, newton on
      pair build: half/bin/newton
      stencil: half/bin/3d/newton
      bin: standard
  (2) fix bond/create/random, occasional, copy from (1)
      attributes: half, newton on
      pair build: copy
      stencil: none
      bin: none
Setting up Verlet run ...
  Unit style    : real
  Current step  : 0
  Time step     : 25
Per MPI rank memory allocation (min/avg/max) = 9.468 | 10.39 | 11.59 Mbytes
Step E_pair PotEng KinEng E_bond E_angle Temp Bonds 
       0   -5296.2445    7568.3205    11298.401   -7308.0058    20172.571    270.76073    15706 
 1000000   -3029.0146    5144.0856    12984.891   -6206.8944    14379.995    311.17665    15602 
 2000000   -2891.8288     4372.156    12961.614    -6156.073    13420.058    310.61883    15591 
 3000000   -2901.1348    4037.0477    12943.627   -6283.5735    13221.756    310.18777    15606 
 4000000   -2888.7212    3719.7101    12964.691   -6260.5061    12868.937    310.69256    15602 
 5000000   -2838.3027    3549.8187    12875.427   -6296.5743    12684.696    308.55339    15608 
 6000000   -2861.9716     3516.337    12998.647   -6273.4205    12651.729    311.50629    15619 
 7000000   -2803.3317    3411.7328    12822.204   -6170.1483    12385.213    307.27794    15615 
 8000000   -2769.1267    3198.3556    12969.023    -6334.541    12302.023    310.79638    15627 
 9000000   -2762.7379    2972.0257    13004.853   -6340.3193    12075.083    311.65502    15631 
10000000   -2788.8109    2815.0864    12892.652   -6336.7673    11940.665    308.96618    15639 
11000000   -2705.2593      2745.19     13096.68   -6397.9137    11848.363    313.85561    15638 
12000000   -2703.7359    2756.1768    12967.469   -6343.0522    11802.965    310.75914    15636 
13000000   -2676.1839    2568.9943    12803.311   -6415.8925    11661.071    306.82517    15642 
14000000    -2766.892    2491.9633    12835.387   -6362.3388    11621.194    307.59385    15639 
15000000   -2692.4362    2348.9868    12992.991   -6438.1391    11479.562    311.37075    15649 
16000000   -2708.7898    2375.9235    12820.818   -6455.1492    11539.862    307.24471    15650 
17000000   -2607.0535    2572.9177    13003.497   -6346.8059    11526.777    311.62253    15649 
18000000   -2713.1082    2204.1622    13011.546   -6500.8025    11418.073    311.81541    15649 
19000000   -2697.5197    2234.1084    12837.388   -6525.9525    11457.581     307.6418    15656 
20000000   -2715.1809    2107.8407    12937.952   -6525.2482     11348.27    310.05177    15657 
21000000   -2588.2184    2141.2064    13083.924   -6488.0514    11217.476    313.54992    15655 
22000000   -2714.9566    1972.4656    13093.654   -6595.4927    11282.915     313.7831    15658 
23000000   -2622.7643    2227.8847    12995.806   -6458.1674    11308.816    311.43821    15655 
24000000   -2606.0955    2098.6834    13090.932   -6428.9501    11133.729    313.71787    15654 
25000000   -2651.0858     2129.992    12862.297   -6536.1482    11317.226    308.23875    15660 
26000000   -2654.3106    1890.5556     12920.73   -6564.1552    11109.021    309.63906    15666 
27000000   -2684.7596    1935.8423     13099.35   -6580.9778     11201.58    313.91959    15665 
28000000   -2646.0522    1938.1234    12989.917   -6599.3201    11183.496    311.29708    15667 
29000000   -2629.2431    1808.0874    13058.281    -6511.802    10949.133     312.9354    15670 
30000000   -2636.0588    1762.2226     12951.84   -6600.4335    10998.715    310.38459    15669 
31000000   -2636.7771    1776.2461    12848.313   -6629.5346    11042.558    307.90363    15677 
32000000   -2590.5503    1863.4632    12792.974   -6580.4533    11034.467    306.57744    15674 
33000000    -2647.767    1602.5807    12806.346   -6720.6703    10971.018     306.8979    15680 
34000000   -2693.9889    1566.0516    12877.829   -6669.1163    10929.157    308.61095    15677 
35000000    -2669.842    1621.2631    13054.458   -6504.8318    10795.937    312.84379    15679 
36000000    -2682.337    1786.9612    12959.152   -6530.7209    11000.019    310.55983    15672 
37000000   -2564.0059    1838.7003    13025.353   -6562.8485    10965.555     312.1463    15673 
38000000   -2588.7478    1759.2653     12855.88   -6602.5354    10950.548    308.08496    15673 
39000000   -2685.1493     1592.846    12903.326   -6646.6432    10924.639    309.22197    15675 
40000000   -2650.1847    1542.8722    12896.321   -6657.3047    10850.362    309.05411    15678 
41000000   -2598.4158    1703.4752     13028.47   -6529.6353    10831.526      312.221    15676 
42000000   -2591.4788    1481.8679    12901.902   -6642.7513    10716.098    309.18785    15677 
43000000   -2538.2256     1656.321    12880.786    -6523.974    10718.521    308.68181    15675 
44000000   -2627.0848    1630.5933    12876.793   -6566.9987    10824.677    308.58612    15680 
45000000   -2632.1095    1523.9541     12879.95   -6588.4548    10744.518    308.66178    15674 
46000000   -2609.8391    1515.3764    12866.162   -6588.5803    10713.796    308.33137    15678 
47000000   -2641.6359    1510.5048    12978.448   -6604.9785    10757.119    311.02224    15675 
48000000   -2640.6583    1400.7819    12892.342   -6572.0202     10613.46    308.95874    15676 
49000000   -2662.6982    1445.9923    12871.894   -6625.6568    10734.347    308.46872    15680 
50000000   -2608.9271    1436.7327    12970.708   -6658.3907    10704.051    310.83676    15678 
51000000   -2709.3965     1334.744    13022.279   -6682.2319    10726.372    312.07262    15679 
52000000   -2630.3038    1456.1265    12946.932   -6614.9857    10701.416    310.26697    15681 
53000000    -2656.617    1251.2199      12936.3   -6734.5926     10642.43    310.01219    15678 
54000000   -2562.8644    1519.1162    12950.519   -6682.7213    10764.702    310.35295    15676 
55000000   -2653.8356    1441.8977    13035.515   -6635.7404    10731.474    312.38982    15680 
56000000   -2644.8873    1491.8402    13064.406   -6571.6024     10708.33    313.08219    15677 
57000000    -2732.415    1419.0698    12909.922   -6617.7941    10769.279    309.38005    15678 
58000000    -2627.648      1333.33     13050.25   -6604.4876    10565.466    312.74295    15682 
59000000   -2619.0253    1440.9892    12990.387   -6687.7081    10747.723    311.30836    15685 
60000000   -2593.3635    1407.2651    12926.434   -6670.3971    10671.026    309.77575    15684 
61000000   -2592.4754    1400.4762    12900.776   -6556.1411    10549.093    309.16087    15682 
62000000   -2613.3831    1296.8255    12965.572   -6629.6728    10539.881    310.71368    15683 
63000000    -2646.769    1400.6588    12872.052   -6634.1743    10681.602    308.47252    15684 
64000000   -2625.8421    1304.7481    12925.342   -6660.3517    10590.942    309.74959    15683 
65000000   -2556.1417    1225.5543    12884.161    -6702.407    10484.103    308.76269    15683 
66000000   -2569.9967    1522.7297    12918.996   -6538.0019    10630.728    309.59751    15684 
67000000   -2578.9079    1312.1227     12868.31   -6571.3298     10462.36    308.38283    15686 
