LAMMPS (5 Jun 2019)
Reading data file ...
  orthogonal box = (-1020 -1020 -1020) to (1020 1020 1020)
  2 by 2 by 7 MPI processor grid
  reading atoms ...
  14000 atoms
  reading velocities ...
  14000 velocities
  scanning bonds ...
  2 = max bonds/atom
  scanning angles ...
  1 = max angles/atom
  reading bonds ...
  15706 bonds
  reading angles ...
  13600 angles
Finding 1-2 1-3 1-4 neighbors ...
  special bond factors lj:   0          0          0         
  special bond factors coul: 0          0          0         
  3 = max # of 1-2 neighbors
  6 = max # of 1-3 neighbors
  17 = max # of 1-4 neighbors
  20 = max # of special neighbors
  special bonds CPU = 0.00404196 secs
  read_data CPU = 0.131642 secs
Finding 1-2 1-3 1-4 neighbors ...
  special bond factors lj:   1          1          1         
  special bond factors coul: 0          0          0         
  3 = max # of 1-2 neighbors
  6 = max # of 1-3 neighbors
  17 = max # of 1-4 neighbors
  20 = max # of special neighbors
  special bonds CPU = 0.0049437 secs
WARNING: Using 'neigh_modify every 1 delay 0 check yes' setting during minimization (../min.cpp:168)
Neighbor list info ...
  update every 1 steps, delay 0 steps, check yes
  max neighbors/atom: 2000, page size: 100000
  master list distance cutoff = 26.9
  ghost atom cutoff = 26.9
  binsize = 13.45, bins = 152 152 152
  1 neighbor lists, perpetual/occasional/extra = 1 0 0
  (1) pair lj/cut, perpetual
      attributes: half, newton on
      pair build: half/bin/newton
      stencil: half/bin/3d/newton
      bin: standard
Setting up cg style minimization ...
  Unit style    : real
  Current step  : 0
Per MPI rank memory allocation (min/avg/max) = 1.5 | 3.032 | 10.14 Mbytes
Step Temp E_pair E_mol TotEng Press 
       0    30.962652   -6803.3792     84503.59    78992.232  -0.14561143 
    1328    30.962652   -6379.8287    14213.512    9125.7038  0.061857902 
Loop time of 3.03873 on 28 procs for 1328 steps with 14000 atoms

99.5% CPU use with 28 MPI tasks x no OpenMP threads

Minimization stats:
  Stopping criterion = energy tolerance
  Energy initial, next-to-last, final = 
         77700.2110941      7834.38807342      7833.68307862
  Force two-norm initial, final = 492.368 5.53397
  Force max component initial, final = 10.0836 1.76358
  Final line search alpha, max atom move = 0.0482711 0.0851298
  Iterations, force evaluations = 1328 1331

MPI task timing breakdown:
Section |  min time  |  avg time  |  max time  |%varavg| %total
---------------------------------------------------------------
Pair    | 7.8429e-05 | 0.24049    | 1.8603     | 118.1 |  7.91
Bond    | 0.00015724 | 0.026529   | 0.19491    |  37.7 |  0.87
Neigh   | 0.68384    | 0.69559    | 0.70324    |   1.0 | 22.89
Comm    | 0.0067782  | 0.66031    | 2.1351     | 115.2 | 21.73
Output  | 0          | 0          | 0          |   0.0 |  0.00
Modify  | 0          | 0          | 0          |   0.0 |  0.00
Other   |            | 1.416      |            |       | 46.59

Nlocal:    500 ave 3644 max 0 min
Histogram: 24 0 0 0 0 0 0 1 0 3
Nghost:    367.786 ave 1907 max 0 min
Histogram: 16 4 4 0 0 0 0 0 1 3
Neighs:    9532.46 ave 71893 max 0 min
Histogram: 24 0 0 0 0 0 0 1 0 3

Total # of neighbors = 266909
Ave neighs/atom = 19.0649
Ave special neighs/atom = 8.75714
Neighbor list builds = 94
Dangerous builds = 0
Setting up Verlet run ...
  Unit style    : real
  Current step  : 1328
  Time step     : 0.1
Per MPI rank memory allocation (min/avg/max) = 1.462 | 3.276 | 9.013 Mbytes
Step Temp E_pair E_mol TotEng Press 
    1328    30.962652   -6379.8287    14213.512    9125.7038  0.061857902 
   11328    266.94004   -5191.3538    22022.571    27970.188  0.031140629 
Loop time of 9.4917 on 28 procs for 10000 steps with 14000 atoms

Performance: 9.103 ns/day, 2.637 hours/ns, 1053.553 timesteps/s
99.5% CPU use with 28 MPI tasks x no OpenMP threads

MPI task timing breakdown:
Section |  min time  |  avg time  |  max time  |%varavg| %total
---------------------------------------------------------------
Pair    | 0.00032211 | 0.76059    | 5.8402     | 211.2 |  8.01
Bond    | 0.00052297 | 0.11468    | 0.85836    |  78.2 |  1.21
Neigh   | 0.024341   | 0.025707   | 0.026848   |   0.7 |  0.27
Comm    | 0.0024064  | 2.2854     | 7.2856     | 211.0 | 24.08
Output  | 4.8675e-05 | 0.00071465 | 0.0011353  |   0.0 |  0.01
Modify  | 0.0009084  | 0.25087    | 1.8374     | 115.0 |  2.64
Other   |            | 6.054      |            |       | 63.78

Nlocal:    500 ave 3636 max 0 min
Histogram: 24 0 0 0 0 0 0 1 0 3
Nghost:    368.964 ave 1916 max 0 min
Histogram: 16 4 4 0 0 0 0 0 1 3
Neighs:    9521.75 ave 71676 max 0 min
Histogram: 24 0 0 0 0 0 0 1 0 3

Total # of neighbors = 266609
Ave neighs/atom = 19.0435
Ave special neighs/atom = 8.75714
Neighbor list builds = 5
Dangerous builds = 0
4000 atoms in group rxnSites
Neighbor list info ...
  update every 1 steps, delay 1 steps, check yes
  max neighbors/atom: 2000, page size: 100000
  master list distance cutoff = 26.9
  ghost atom cutoff = 26.9
  binsize = 13.45, bins = 152 152 152
  2 neighbor lists, perpetual/occasional/extra = 1 1 0
  (1) pair lj/cut, perpetual
      attributes: half, newton on
      pair build: half/bin/newton
      stencil: half/bin/3d/newton
      bin: standard
  (2) fix bond/create/random, occasional, copy from (1)
      attributes: half, newton on
      pair build: copy
      stencil: none
      bin: none
Setting up Verlet run ...
  Unit style    : real
  Current step  : 0
  Time step     : 25
Per MPI rank memory allocation (min/avg/max) = 9.465 | 10.37 | 11.49 Mbytes
Step E_pair PotEng KinEng E_bond E_angle Temp Bonds 
       0   -5191.3538    16831.217     11138.97   -2629.2104    24651.782    266.94004    15706 
 1000000   -2663.4667    7491.3848    12920.647   -1416.6608    11571.512    309.63708    15439 
 2000000   -2472.8024    6954.1151      12919.4   -1524.1374    10951.055    309.60719    15485 
 3000000   -2445.7042    6323.7248    13040.866   -1700.9438    10470.373    312.51805    15533 
 4000000   -2427.3511    6224.4959    12981.785   -1647.9222    10299.769    311.10221    15544 
 5000000   -2432.2252    5924.6257    12868.338   -1761.6839    10118.535    308.38352    15551 
 6000000   -2336.6367     5806.233    13101.165   -1814.0619    9956.9315     313.9631    15569 
 7000000   -2400.7519    5624.6567    13053.144   -1798.8619    9824.2705    312.81229    15595 
 8000000   -2414.5024    5335.9702    12917.554   -1974.1687    9724.6412    309.56295    15610 
 9000000   -2481.3016    5237.6419    12967.023    -1941.284    9660.2275    310.74845    15602 
10000000   -2454.6331    5063.4618    12934.083   -1930.8488    9448.9437    309.95906    15615 
11000000   -2430.5744    5038.0235    12955.428   -1866.5244    9335.1224    310.47058    15602 
12000000   -2512.5683    5024.9184    12944.467    -1872.554    9410.0407    310.20789    15603 
13000000   -2435.6739    4799.0923    12953.068   -1941.7187     9176.485    310.41402    15626 
14000000   -2438.3569    4729.8442    12817.308   -2044.8426    9213.0438     307.1606    15634 
15000000   -2531.1724    4653.7013    12893.866   -1979.3975    9164.2713    308.99527    15645 
16000000   -2458.7585    4838.9856    13086.343   -1945.1962    9242.9403     313.6079    15636 
17000000    -2461.839    4553.3428    12850.328   -2001.0153    9016.1971     307.9519    15631 
18000000   -2455.1268    4627.0189    13048.952    -2032.326    9114.4717    312.71183    15624 
19000000   -2496.7359    4512.6804    12922.912   -2002.9058    9012.3221    309.69134    15637 
20000000   -2501.2045    4594.5359    12756.407    -1987.667    9083.4074    305.70114    15634 
21000000    -2490.516    4467.9537    12758.774   -1937.1012    8895.5708    305.75786    15629 
22000000   -2592.3697    4292.4023    13012.558   -1985.5805    8870.3525    311.83966    15631 
23000000   -2560.7599    4306.6643    12926.688   -2057.4815    8924.9057    309.78185    15632 
24000000    -2602.877    4212.9078    13016.237   -2060.9872     8876.772    311.92783    15641 
25000000   -2634.2424    4196.5309    12998.726   -2087.5475    8918.3207    311.50818    15651 
26000000   -2658.5024    4221.8725    12755.992   -2119.4783    8999.8532     305.6912    15645 
27000000   -2618.4001     4083.492    12873.972    -2096.802     8798.694    308.51852    15658 
28000000   -2688.7402    3936.2464      12850.5   -2134.6278    8759.6145    307.95604    15662 
29000000   -2691.6303    4012.8891    13007.256   -2033.8177    8738.3372    311.71261    15651 
30000000   -2748.6332    3948.6931    13038.759    -1994.065    8691.3914    312.46757    15651 
31000000   -2812.7174    3760.0121    12846.154   -2118.0266    8690.7562    307.85188    15668 
32000000   -2685.1944    3809.5347    12959.989   -2139.5735    8634.3026    310.57988    15668 
33000000   -2700.4325    3920.5934    12970.179   -2071.3809    8692.4068    310.82408    15663 
34000000   -2753.9558    3775.7668    12820.012   -2183.4853    8713.2079     307.2254    15668 
35000000   -2719.9708    3836.9236    12818.062    -2105.996    8662.8904    307.17866    15669 
36000000   -2860.6087    3572.6692    12869.734   -2172.6973    8605.9752    308.41696    15675 
37000000   -2750.6375    3737.8014    13023.232   -2119.4494    8607.8883    312.09546    15654 
38000000   -2784.9845    3679.6041    12810.183    -2050.849    8515.4376    306.98984    15664 
39000000   -2789.1813    3692.0536    12922.638   -2124.6997    8605.9346    309.68479    15658 
40000000   -2771.4793    3750.5891    12776.433   -2085.0004    8607.0688    306.18105    15666 
41000000   -2667.9763    3863.5165    12651.398   -2156.4036    8687.8964    303.18466    15662 
42000000   -2715.1541    3593.5388    12953.598   -2203.4717    8512.1647    310.42671    15661 
43000000   -2743.6895    3859.2337    12934.496   -2037.5986    8640.5218    309.96895    15663 
44000000   -2792.6091    3633.9836    12881.912   -2168.8484    8595.4411     308.7088    15675 
45000000   -2861.7264    3450.1723    13057.521    -2187.761    8499.6597     312.9172    15668 
46000000   -2827.5608    3304.4071    12852.606   -2277.7901    8409.7581    308.00649    15674 
47000000   -2773.5291    3570.5411    12825.921    -2096.736    8440.8062    307.36701    15681 
48000000   -2722.1321    3499.9284    12972.019   -2244.8342    8466.8946    310.86818    15675 
49000000   -2826.8757    3318.1031    12964.135   -2211.5452    8356.5239    310.67923    15666 
50000000   -2810.8224    3406.0434    12866.942   -2162.2651    8379.1309    308.35006    15665 
51000000   -2751.3454    3633.9957    12846.576   -2099.6134    8484.9545      307.862    15672 
52000000   -2879.5265    3465.6275    12918.525   -2185.6127    8530.7666    309.58622    15678 
53000000   -2780.6645    3480.4268    12849.765   -2223.8068    8484.8981    307.93843    15681 
54000000   -2815.6287    3271.5086    13018.994   -2117.0051    8204.1423    311.99389    15680 
55000000   -2767.3772    3487.2359     12871.71   -2139.4059    8394.0191    308.46433    15678 
56000000   -2844.2193    3448.4861    13050.625    -2180.293    8472.9984    312.75193    15683 
57000000   -2881.1645    3439.0311    12876.557   -2146.7195    8466.9151    308.58047    15682 
58000000   -2940.8971    3207.8995    12976.666   -2233.5311    8382.3277    310.97953    15688 
59000000   -2794.1187    3482.7984    12961.496   -2115.2325    8392.1496    310.61601    15678 
60000000   -2820.0021    3382.4043    12886.169   -2198.4204    8400.8268    308.81081    15674 
61000000   -2899.9092     3232.233    12720.003    -2219.383    8351.5252    304.82873    15687 
62000000   -2888.6176    3266.8582    12895.686   -2119.1471     8274.623    309.03888    15676 
63000000   -2757.4387    3455.6986    12943.486   -2182.8042    8395.9414     310.1844    15677 
64000000   -2834.2445    3342.2014    13060.331   -2205.3487    8381.7946    312.98453    15691 
65000000    -2916.838    3082.8994    12819.729   -2288.3281    8288.0655    307.21862    15691 
66000000   -2885.1897    3350.9231     12838.58   -2238.1252     8474.238    307.67037    15685 
67000000   -2961.0067    3239.6592        13158   -2121.2773    8321.9432    315.32511    15682 
68000000   -3025.0093    3019.7596    12920.166   -2217.0479    8261.8168    309.62554    15669 
69000000   -3142.9294    2833.6201    12967.814   -2192.8198    8169.3693    310.76739    15682 
70000000   -3152.1964    2843.2544     13027.41   -2158.8595    8154.3103     312.1956    15681 
71000000   -3209.9579     2826.235    12909.839   -2203.0162    8239.2091    309.37806    15684 
72000000   -3094.9308    3081.2145    12883.134   -2181.0804    8357.2257    308.73808    15683 
73000000   -3089.1639    2856.5722    12899.717   -2266.9977    8212.7338    309.13549    15696 
74000000   -3113.1604      2925.63    12960.166   -2236.9781    8275.7685    310.58411    15683 
75000000   -3071.9025    3056.1768    12835.456   -2155.1455    8283.2248    307.59551    15669 
76000000   -3180.7533    3026.4464    12838.926    -2091.986    8299.1858    307.67868    15680 
77000000   -3213.8579    2952.4809    12884.377   -2171.7256    8338.0644    308.76788    15687 
78000000   -3161.8737    2793.8203    13029.554   -2260.0726    8215.7665    312.24698    15681 
79000000   -3204.2118     2758.683    12897.078   -2222.6222    8185.5169    309.07224    15681 
80000000   -3120.4597    2950.9255    12856.555   -2152.2675    8223.6526    308.10114    15674 
81000000   -3091.7375    3029.3064     13018.72    -2228.442    8349.4859    311.98734    15689 
82000000   -3214.8319    2791.5865     12994.06   -2219.1652    8225.5835    311.39637    15687 
83000000   -3222.0383    2740.6007    12959.657     -2243.95     8206.589    310.57192    15696 
84000000   -3250.0605    2879.6877    12890.406   -2174.4511    8304.1994    308.91237    15691 
85000000   -3260.7145     2775.478    12913.564    -2225.238    8261.4305    309.46732    15694 
86000000   -3273.8211     2755.925    12952.089   -2219.3065    8249.0526    310.39055    15691 
87000000   -3225.2646    2737.1445    13116.041   -2234.4433    8196.8525    314.31958    15691 
88000000   -3286.0254    2529.5455    13072.715   -2311.0746    8126.6455    313.28131    15684 
89000000   -3269.8346    2591.8105    12942.488   -2223.7931    8085.4382    310.16047    15683 
90000000   -3310.1535    2588.7293    12822.546   -2301.0319    8199.9147    307.28611    15687 
91000000   -3318.7656    2612.0269    13088.941   -2273.0447    8203.8373    313.67016    15694 
92000000   -3396.4232    2628.4393    12972.969   -2165.8007    8190.6632    310.89093    15689 
93000000    -3204.558    2777.3428    12857.422    -2149.478    8131.3788    308.12192    15697 
94000000   -3219.2171    2729.3547    13019.442   -2288.2898    8236.8616    312.00465    15692 
95000000   -3246.1354    2740.4458    12928.949   -2207.1282    8193.7094    309.83603    15685 
96000000   -3333.0061    2660.8825    12801.109   -2164.3038    8158.1924     306.7724    15693 
97000000   -3476.6818    2498.7103    12896.644    -2169.902    8145.2941    309.06185    15690 
98000000   -3423.3599    2519.0616    12881.015    -2311.284    8253.7055     308.6873    15690 
99000000   -3311.6855    2771.1324    12837.134   -2138.1861     8221.004    307.63572    15684 
100000000   -3451.1958    2601.4858     12928.78   -2166.4626    8219.1442    309.83198    15692 
101000000    -3426.292    2529.7059    13080.885   -2212.1953    8168.1932    313.47709    15692 
102000000   -3370.8412    2719.9935    13014.764   -2114.0079    8204.8426    311.89254    15681 
103000000   -3371.6316    2591.9276    12969.213   -2157.8483    8121.4075    310.80093    15680 
104000000   -3490.4442    2413.4924    12986.262   -2264.8005    8168.7371    311.20951    15688 
105000000   -3404.2066    2455.1128    12948.349   -2263.0874    8122.4068    310.30094    15697 
106000000   -3417.3019    2471.8281    12986.096   -2222.4533    8111.5833    311.20551    15692 
107000000   -3282.4022    2647.4472    13030.811   -2288.4473    8218.2967     312.2771    15690 
108000000   -3434.3624    2510.0033    12954.514   -2175.0556    8119.4212    310.44868    15689 
109000000   -3531.0299    2462.8822     12905.18   -2175.4876    8169.3998    309.26641    15690 
110000000   -3435.2558    2529.6736    12928.434    -2224.105    8189.0344    309.82368    15690 
111000000   -3635.1219    2393.6384    12645.588   -2191.5549    8220.3152    303.04542    15683 
112000000   -3517.3213    2370.3375    12881.523   -2296.0892     8183.748    308.69948    15695 
113000000   -3574.7606    2332.9615    13130.793   -2151.4054    8059.1275    314.67311    15693 
114000000   -3567.9292    2309.8337    12883.237   -2174.3631     8052.126    308.74055    15697 
115000000   -3577.2759    2365.7344    12823.223   -2211.9873    8154.9975    307.30234    15693 
116000000   -3669.3757     2302.921     13029.38    -2204.529    8176.8257     312.2428    15694 
117000000   -3632.2048    2281.8303    12898.359   -2176.7928    8090.8278    309.10294    15692 
118000000   -3615.2642    2326.1718    12853.039   -2200.5701    8142.0061    308.01688    15690 
119000000   -3638.8551    2216.3466     12799.19   -2196.2996    8051.5013    306.72642    15689 
120000000   -3614.2365     2222.379    12988.973   -2248.7243    8085.3397    311.27447    15695 
121000000   -3717.1696    2106.3433    12924.166   -2311.9381     8135.451    309.72141    15689 
122000000   -3666.5601    2043.9056    13062.023   -2245.6019    7956.0676    313.02508    15696 
123000000   -3709.6138    2240.9569    12841.752    -2197.433    8148.0037     307.7464    15690 
124000000   -3680.6353    2280.8738    12793.472   -2150.6376    8112.1467    306.58938    15689 
125000000   -3695.2707    2087.8518    12956.287   -2179.8927    7963.0152    310.49116    15700 
126000000   -3791.5047    2089.0022    13053.465   -2250.7177    8131.2245       312.82    15695 
127000000   -3774.9825    2036.3658    12999.863   -2201.5278    8012.8761    311.53543    15684 
128000000   -3705.3899    2270.1321     12896.35   -2229.5184    8205.0404    309.05481    15696 
129000000   -3788.8048    2183.3711    12934.535    -2111.294    8083.4699    309.96989    15687 
130000000   -3757.8608    2088.6975    13001.975   -2195.5621    8042.1203    311.58605    15699 
131000000   -3840.3975    2029.2431     13024.61    -2211.163    8080.8036    312.12848    15702 
132000000   -3734.2763    2112.9348    12929.953   -2195.0492    8042.2602    309.86008    15697 
133000000    -3727.536    1983.3799    12787.417   -2327.1846    8038.1005    306.44428    15700 
134000000   -3733.2017    2079.9573    13071.465   -2296.9868    8110.1458    313.25135    15704 
135000000    -3719.749    2134.3569     12910.31   -2165.7548    8019.8606    309.38934    15698 
136000000   -3760.2985    1818.6741    13073.569    -2340.016    7918.9885    313.30176    15701 
137000000   -3730.4325    2063.3118    12901.829   -2325.5559    8119.3002    309.18611    15696 
138000000   -3830.2914    1871.4153    12879.633   -2402.3239    8104.0306    308.65419    15700 
139000000   -3796.2141    2025.4855    13026.687   -2343.3965    8165.0962    312.17827    15701 
140000000   -3843.7962    1951.6979    12953.762   -2229.4503    8024.9444    310.43065    15704 
141000000   -3881.6397    1824.7362    12807.124   -2348.2609    8054.6368    306.91654    15691 
142000000   -3821.8451    2071.0336     13100.91   -2228.2595    8121.1382    313.95698    15697 
143000000   -3834.3937    1863.3057     12887.19   -2221.3023    7919.0017    308.83528    15694 
144000000   -3953.4307    1882.4661    12916.399   -2257.8701    8093.7669    309.53526    15706 
145000000    -3835.361    1906.8037    13023.586   -2322.6737    8064.8384    312.10394    15704 
146000000   -3930.0856     1911.083    12852.594   -2251.0733    8092.2419    308.00622    15700 
147000000   -3997.5858    1689.1005    12907.752   -2290.3459    7977.0321    309.32805    15699 
148000000   -3877.4777    2030.9617    12814.064    -2200.768    8109.2075    307.08285    15689 
149000000   -3985.2125    1583.3996     12874.38   -2308.5597    7877.1718     308.5283    15707 
150000000   -4024.0166    1714.7469    12783.612   -2316.7111    8055.4746    306.35309    15709 
151000000   -3886.0963    1827.4717    12973.373   -2294.2848    8007.8528    310.90062    15700 
152000000   -3929.0561    1849.4254    12861.945   -2234.4581    8012.9395     308.2303    15699 
153000000   -3881.6333    1896.7652    12851.025   -2362.2596    8140.6581    307.96862    15697 
154000000   -3939.6928    1852.5932    12968.587   -2243.9591    8036.2451    310.78592    15695 
155000000   -4017.7464    1731.3141    12776.977   -2259.0747    8008.1352    306.19408    15698 
156000000   -4037.8106    1624.6728    13233.326   -2294.0262    7956.5096    317.13027    15699 
157000000   -4129.2232    1606.3556    13021.186   -2217.2957    7952.8745    312.04645    15698 
158000000   -4029.4221    1751.7612    12901.092    -2240.947    8022.1304    309.16845    15688 
159000000   -4064.5885    1597.6519    12951.592   -2260.3156    7922.5561    310.37864    15699 
160000000   -4008.7001    1858.7386     13034.27   -2160.8678    8028.3065    312.35999    15698 
161000000    -4078.961    1575.3425    12992.229   -2319.4709    7973.7744    311.35249    15703 
162000000   -3995.2293    1734.5017    12820.591   -2303.9361     8033.667    307.23926    15699 
163000000    -4104.357    1688.7275    12929.553   -2209.9737    8003.0582    309.85051    15697 
164000000   -4084.1847    1750.5625    12920.551   -2186.5069    8021.2541    309.63478    15700 
165000000   -3965.5295    1660.0821    12921.614    -2336.853    7962.4647    309.66024    15715 
166000000   -4023.1283      1582.01    12821.457   -2282.7096    7887.8479    307.26003    15712 
167000000   -4075.7052    1629.2979      12907.1   -2238.0251    7943.0281    309.31243    15706 
168000000   -3965.6704    1819.8877    13077.422    -2154.348    7939.9061    313.39412    15697 
169000000   -4047.7464    1650.9315    13115.293    -2151.086    7849.7638    314.30166    15698 
170000000   -4058.1797    1612.1428    13056.296   -2302.5779    7972.9004    312.88783    15711 
171000000   -4218.8231    1409.7428    13033.051   -2323.1603    7951.7261    312.33076    15707 
172000000   -4110.8631    1382.8997    13142.292   -2410.6966    7904.4594    314.94867    15707 
173000000   -4132.0376    1501.7972    12943.003   -2300.4311    7934.2659    310.17283    15714 
174000000   -4110.9783    1483.4963    12821.475   -2232.5314    7827.0061    307.26046    15707 
175000000   -4042.1552    1684.9845    12958.091   -2227.4304    7954.5701    310.53439    15707 
176000000   -3989.1651    1689.9918    12998.991    -2305.856    7985.0129    311.51454    15706 
177000000   -4103.8961    1505.2099    12888.909   -2289.7687    7898.8747    308.87648    15699 
178000000    -4006.341    1782.5649    12959.301   -2253.5574    8042.4634     310.5634    15718 
179000000   -4062.5102     1471.803    12851.211   -2347.0481    7881.3613    307.97307    15704 
180000000   -4212.8144    1534.3956    13103.005   -2254.2808    8001.4908    314.00718    15708 
181000000   -4124.7973    1444.3719    12961.708   -2312.3219    7881.4911    310.62107    15697 
182000000   -3964.8377    1872.3506     12956.81   -2247.5506    8084.7389     310.5037    15704 
183000000   -4176.3301    1490.1914    13005.399   -2295.4244     7961.946     311.6681    15707 
184000000   -4172.2287     1450.558    12884.002   -2241.5486    7864.3352    308.75889    15714 
185000000   -4154.4127    1406.8771    12998.027   -2384.0698    7945.3597    311.49143    15709 
186000000    -4073.822    1594.5941    12915.892   -2274.8956    7943.3117    309.52313    15718 
187000000   -3979.4526    1739.5504    12913.542   -2257.9916    7976.9946     309.4668    15708 
188000000   -4155.4472    1507.3787    12998.392    -2282.988    7945.8138    311.50019    15709 
189000000   -4064.8595    1506.3258    13180.228   -2226.5789    7797.7643    315.85781    15712 
190000000   -4071.6015    1550.3847    12871.634   -2274.9643    7896.9506    308.46249    15711 
191000000   -4143.4221    1440.6558    12820.659   -2395.4816    7979.5595    307.24089    15716 
192000000   -4138.2109    1506.0987    12949.821   -2318.7209    7963.0306    310.33621    15705 
193000000   -4145.3709    1552.0334    12885.855   -2270.2063    7967.6106     308.8033    15707 
194000000   -4036.8425     1694.319    13011.093   -2281.7982    8012.9597    311.80457    15710 
195000000   -4021.0638    1718.3876    13008.354   -2203.8949    7943.3463    311.73893    15712 
196000000   -4142.3272    1397.8506    12877.821   -2335.9799    7876.1576    308.61076    15723 
197000000   -4134.6923    1358.2869    13030.993   -2340.3314    7833.3106    312.28145    15719 
198000000   -4090.1562    1478.5015    12850.104   -2344.6499    7913.3075    307.94653    15714 
199000000   -4133.2659    1569.5302    12890.962   -2324.6202    8027.4162    308.92569    15723 
200000000   -4020.1105    1559.2474    12937.458   -2327.1893    7906.5472    310.03994    15709 
201000000   -4078.0264    1567.4504    12874.279   -2333.4364    7978.9132    308.52587    15707 
202000000    -4119.631    1589.6379    12867.465   -2267.6112    7976.8801    308.36259    15710 
203000000   -4139.8034    1557.7471    13046.607   -2335.1333    8032.6837    312.65563    15707 
204000000   -4194.9265    1412.7862    12955.914   -2316.1057    7923.8184    310.48221    15705 
205000000   -4107.8432    1355.3654    12979.272    -2379.339    7842.5476    311.04198    15711 
206000000   -4233.7874    1366.7101    13104.359   -2353.9879    7954.4854    314.03963    15712 
207000000   -4127.1512     1558.892     13017.74   -2236.2407     7922.284    311.96386    15711 
208000000   -4128.9159    1387.4812    12762.749   -2303.2712    7819.6683    305.85313    15718 
209000000    -4268.744    1380.0296    13000.941   -2342.5871    7991.3608    311.56127    15723 
210000000   -4258.9478    1242.3866    12971.965   -2312.2036    7813.5381    310.86687    15709 
211000000   -4197.4875     1501.704    13083.891   -2140.5798    7839.7714    313.54912    15711 
212000000   -4172.6881    1323.2888    12802.151   -2280.9281    7776.9049    306.79737    15717 
213000000   -4206.7997    1379.9634    13062.501   -2152.2895    7739.0526    313.03654    15707 
214000000   -4217.5573    1339.6004    12997.306   -2279.5405    7836.6982    311.47417    15708 
215000000   -4308.9274    1253.8773    12978.033   -2300.4569    7863.2616    311.01229    15703 
216000000    -4382.209    1249.9728    12818.871   -2238.9632     7871.145    307.19805    15711 
217000000   -4306.7828    1177.1639    12956.687   -2329.6147    7813.5615    310.50076    15714 
218000000   -4207.9589    1486.1053    12949.373   -2311.6192    8005.6835    310.32548    15717 
219000000   -4352.4267    1196.0391    13023.645   -2217.4313    7765.8971    312.10537    15712 
220000000   -4419.5222    1099.1847    13140.713   -2380.8759    7899.5828    314.91084    15720 
221000000   -4346.5557    1217.9008    13093.982   -2264.3821    7828.8386    313.79095    15716 
222000000   -4302.3688    1437.5993    12936.243   -2299.8615    8039.8297    310.01081    15701 
223000000   -4430.2484    917.67236    12942.897   -2364.8674    7712.7881    310.17028    15713 
224000000   -4380.4657    1118.2059    12935.262   -2404.8199    7903.4915    309.98731    15720 
225000000   -4456.5547    1050.1657    12978.643   -2333.1975    7839.9179    311.02691    15720 
226000000   -4396.4836    1050.9409    12936.327   -2358.6671    7806.0915    310.01283    15715 
227000000   -4363.1819    1062.0452    12832.391   -2337.0798    7762.3069    307.52205    15712 
228000000   -4324.7591    1240.3182    12937.832   -2295.9832    7861.0606    310.04889    15714 
229000000   -4478.0964    1096.0597     12952.95   -2314.6865    7888.8426    310.41119    15721 
230000000   -4434.4412    1008.4989    12912.405   -2345.6717    7788.6118    309.43956    15715 
231000000   -4489.5727    1000.0697    12961.437   -2354.9876      7844.63    310.61459    15722 
232000000   -4499.1225    1011.5447    13042.916    -2263.474    7774.1412    312.56719    15711 
233000000   -4550.9229    976.14992    12802.187   -2367.6896    7894.7624    306.79823    15719 
234000000   -4435.5846    1131.9315    13020.563   -2342.2619     7909.778     312.0315    15726 
235000000    -4369.485    1298.4627    12961.793   -2241.2104    7909.1581     310.6231    15721 
236000000   -4438.5952    1107.7896    13030.575   -2266.6526    7813.0374    312.27145    15721 
237000000   -4389.6397    1233.4279    12806.031   -2218.4356    7841.5031    306.89034    15704 
238000000   -4416.5293    1016.6162    12985.441   -2340.6262    7773.7717    311.18983    15718 
239000000   -4430.8331    1056.2895    12956.148   -2323.2636    7810.3862    310.48784    15718 
240000000   -4444.9132    1080.6759    12825.789   -2316.5624    7842.1516    307.36384    15714 
241000000   -4412.0684    1164.4497     12982.65   -2265.5379     7842.056    311.12295    15715 
242000000   -4496.2482     1059.751    12869.624   -2262.3037    7818.3029    308.41432    15711 
243000000   -4518.2119    1101.1965    13014.415   -2312.4571    7931.8655    311.88417    15721 
244000000   -4550.2461    963.49579    13019.231    -2292.913    7806.6549    311.99958    15717 
245000000   -4499.7466    865.47531    13057.524   -2398.9841     7764.206    312.91727    15725 
246000000   -4521.4035    963.99794    12860.789   -2343.6061    7829.0075    308.20259    15718 
247000000   -4557.4439    831.70593    12888.248    -2368.819    7757.9689    308.86064    15718 
248000000   -4486.7391    876.52115    13086.309   -2337.7588    7701.0191    313.60708    15716 
249000000   -4398.3377     1029.311    12979.681    -2389.436    7817.0847    311.05178    15720 
250000000   -4593.1783    858.69288    12979.813   -2327.4598     7779.331    311.05495    15719 
251000000   -4418.3566    934.54783    12860.886   -2384.5294    7737.4338    308.20493    15723 
252000000   -4608.0163    888.98321    12908.864   -2307.4162    7804.4157    309.35469    15724 
253000000   -4479.5842    1093.3512    12930.819   -2341.3188    7914.2541    309.88083    15728 
254000000   -4447.1707     1115.337     12920.06   -2367.0091    7929.5168      309.623    15726 
255000000   -4330.2633    1088.4208     12689.24   -2353.6941    7772.3781    304.09151    15711 
256000000   -4552.6942    795.83579    12856.786   -2360.6992    7709.2292    308.10666    15726 
257000000   -4604.8137    767.72081    12827.069   -2358.1981    7730.7326    307.39452    15725 
258000000   -4642.0788    859.05691    12997.711   -2388.1515    7889.2872    311.48387    15725 
259000000   -4678.2793    744.10686    12945.995   -2336.5183    7758.9045    310.24451    15721 
260000000   -4658.9168    595.66092    12886.322   -2429.6835    7684.2613    308.81449    15726 
261000000   -4575.0462    893.87466    12744.312   -2283.9504    7752.8712    305.41129    15725 
262000000   -4560.2582    914.16864    13103.822   -2305.8377    7780.2646    314.02677    15729 
263000000   -4709.6263    623.28702    12840.666   -2386.6791    7719.5924    307.72036    15728 
264000000   -4630.4476    730.35818    12900.271   -2366.3939    7727.1997    309.14876    15730 
265000000   -4623.2981     756.2466     12886.47   -2391.4908    7771.0355    308.81803    15731 
266000000   -4616.3297    917.64244    12877.968   -2273.1266    7807.0988    308.61429    15726 
267000000   -4644.4647    761.99134    12992.561    -2400.773    7807.2291    311.36045    15732 
268000000   -4659.6009    703.42832    12835.072   -2411.6362    7774.6655    307.58631    15730 
269000000   -4603.1293    816.63886    12965.726   -2311.5604    7731.3285    310.71736    15717 
270000000   -4704.6743    718.33052    13008.491   -2298.9397    7721.9446     311.7422    15725 
271000000   -4677.8779    732.99538    13103.086   -2339.5838    7750.4571    314.00913    15731 
272000000   -4568.5355    999.68034    12957.607   -2239.7176    7807.9335    310.52279    15727 
273000000    -4621.492    767.45355    13053.619   -2360.5675     7749.513    312.82367    15722 
274000000   -4684.7262    777.19318    12977.508   -2320.4325    7782.3519    310.99971    15730 
275000000   -4665.5572    735.84806     13027.53   -2389.8265    7791.2317    312.19847    15725 
276000000   -4672.2594    797.63518    12956.846   -2276.9212    7746.8158    310.50456    15723 
277000000   -4622.7936    561.44051    12870.717   -2441.9345    7626.1686    308.44051    15727 
278000000   -4565.9543    901.34118    12947.071   -2392.3238    7859.6193    310.27031    15719 
279000000   -4614.1248    860.33915    12895.183     -2350.43    7824.8939    309.02683    15723 
280000000   -4611.3836    786.56251    13067.854   -2346.1893    7744.1354    313.16481    15719 
281000000   -4639.9355    874.18176    12930.328   -2246.0189    7760.1361    309.86908    15717 
282000000    -4651.334     728.6645    12853.182   -2322.1331    7702.1315     308.0203    15718 
283000000   -4574.8042    784.80266    13120.581   -2348.3853    7707.9921    314.42839    15715 
284000000   -4722.3985    704.32717     12905.57   -2349.2392    7775.9649    309.27575    15720 
285000000   -4721.3149     828.0955    12844.087   -2170.3243    7719.7348    307.80234    15712 
286000000   -4548.1517    838.97164    12925.337   -2388.4326     7775.556    309.74946    15723 
287000000   -4588.9014    902.36373    12897.982   -2310.9186    7802.1837    309.09391    15723 
288000000   -4643.1577    806.42412    12929.294   -2318.0336    7767.6154    309.84429    15719 
289000000   -4716.3381    702.83759    13024.229   -2418.3105    7837.4862    312.11937    15716 
290000000   -4706.6868    726.82079    13039.453   -2279.8716    7713.3791     312.4842    15721 
291000000   -4766.0839    642.08055    12964.745   -2319.5917    7727.7561    310.69386    15717 
292000000   -4726.6555    797.50226    12971.563   -2287.2785    7811.4362    310.85726    15710 
293000000   -4804.1556    681.05065     12777.02   -2273.7377     7758.944    306.19511    15715 
294000000   -4886.1222    500.04265    13015.058   -2263.5565    7649.7213    311.89957    15724 
295000000   -4812.0948    373.57459    12830.195   -2437.2117    7622.8811    307.46944    15727 
296000000   -4828.6308    610.25442    12998.032   -2286.2637    7725.1489    311.49156    15715 
297000000   -4892.6081    515.69902    12847.249   -2355.0153    7763.3225    307.87812    15714 
298000000    -4825.185    660.29718    12977.733   -2285.4998    7770.9819    311.00511    15715 
299000000   -4794.1615    594.63066    12943.867   -2330.8425    7719.6347    310.19353    15720 
300000000   -4795.3302    559.01261    12972.421   -2337.7103    7692.0531    310.87781    15724 
301000000   -4901.5882    475.20524    12814.606   -2400.2238    7777.0172    307.09585    15721 
302000000   -4988.8839    377.95103     12870.39   -2245.9961     7612.831    308.43269    15718 
303000000   -4933.4009    452.36905    12948.415   -2274.6228    7660.3927    310.30252    15716 
304000000   -4799.2181    351.93657        12905   -2418.0495    7569.2042     309.2621    15721 
305000000   -4830.8137    489.29061    12995.589   -2455.7266    7775.8308    311.43302    15727 
306000000   -4923.0386    551.83771    13109.097   -2379.4698    7854.3461    314.15317    15725 
307000000   -4932.6276    350.27495    12897.604   -2404.0229    7686.9254    309.08486    15725 
308000000   -4991.4523    374.66457    12753.281   -2352.1218    7718.2386    305.62623    15720 
309000000   -4963.4661    428.67463    12854.494   -2317.6442    7709.7849    308.05174    15712 
310000000   -4918.5958     420.7877    12892.665     -2347.84    7687.2235     308.9665    15708 
311000000   -4899.4135    484.07026    12892.778   -2362.4506    7745.9344     308.9692    15718 
312000000   -4855.9597    564.39166    12902.082   -2251.0611    7671.4124    309.19216    15715 
313000000   -4909.7647    380.79428    12918.014   -2368.2157    7658.7747    309.57397    15726 
314000000   -4873.4935     486.6807     12970.33   -2320.5833    7680.7576    310.82769    15724 
315000000   -4850.4686    561.43175    12828.685    -2401.367    7813.2674    307.43323    15722 
316000000   -4987.0172     396.4634    12906.563   -2257.8185    7641.2991    309.29956    15721 
317000000   -4932.6718    246.60206    12990.182   -2401.7106    7580.9845    311.30344    15722 
318000000   -4958.1287    435.81965    12977.114   -2352.6278    7746.5761    310.99027    15718 
319000000   -5012.1758    286.43285    12981.288   -2381.0293    7679.6379     311.0903    15723 
320000000   -4954.3275    391.14168    12967.397   -2306.9873    7652.4565    310.75741    15710 
321000000   -4984.7275    365.82326    13044.433    -2320.618    7671.1687    312.60354    15720 
322000000   -4892.3368     575.6033    12961.354    -2318.932    7786.8721     310.6126    15718 
323000000   -4911.9416    499.26747    12820.433   -2281.7489     7692.958     307.2355    15714 
324000000   -4909.4445     558.0941    12895.429   -2162.0446    7629.5833    309.03272    15707 
325000000   -4933.0791    422.54734    13124.098   -2330.8622    7686.4886    314.51268    15707 
326000000   -4876.9208    541.30577    13044.912   -2303.2469    7721.4735    312.61502    15714 
327000000   -5074.1939    233.66675    12923.486   -2346.5118    7654.3725    309.70509    15714 
328000000   -4978.1673    405.88498    12793.066   -2346.7249    7730.7772    306.57965    15720 
329000000   -4818.0273    256.27785    13020.719   -2455.1589     7529.464    312.03526    15722 
330000000   -5042.9334    199.75466    12932.598   -2410.7958    7653.4839    309.92347    15718 
331000000   -4972.6441    300.86113    12956.152   -2342.3588    7615.8641    310.48792    15722 
332000000   -5078.3493    311.01919    12944.304   -2309.6888    7699.0574    310.20399    15712 
333000000   -4974.8235    356.94907    12839.171   -2299.0452    7630.8178    307.68453    15721 
334000000    -4890.104    377.12803     12961.95   -2315.9475    7583.1795    310.62689    15728 
335000000   -5021.1282    314.68929    12800.796   -2297.4751    7633.2926    306.76489    15717 
336000000   -5001.1659    229.57369    12894.983   -2374.5664     7605.306    309.02205    15724 
337000000   -4971.7289    220.28418    12844.109   -2353.5855    7545.5985    307.80287    15724 
338000000    -4979.925     334.4368    12921.781   -2320.8858    7635.2476    309.66424    15723 
339000000   -5159.4285    216.09323    13014.344   -2307.0234    7682.5451    311.88248    15715 
340000000   -4977.0192    300.77014    12964.513   -2348.2283    7626.0177     310.6883    15721 
341000000   -5052.1938    156.02759    12968.044   -2440.3232    7648.5447    310.77292    15721 
342000000   -4991.1659    184.69511     12963.48   -2309.5388    7485.3998    310.66353    15720 
343000000   -5135.9733   -9.7205389    12878.914   -2399.9323    7526.1851    308.63697    15727 
344000000   -4970.8644    213.89064    12909.685   -2418.7442    7603.4992    309.37437    15720 
345000000    -5049.416    157.91098    12835.698   -2324.4869    7531.8138     307.6013    15713 
346000000   -5189.4361    43.619258    12807.369   -2357.2938    7590.3491     306.9224    15717 
347000000   -4994.6848    219.14235    13053.514   -2346.6358    7560.4629    312.82117    15717 
348000000   -5113.0095    289.33218    12758.943   -2337.2925    7739.6343    305.76191    15723 
349000000   -5057.0914     219.5888    12814.664   -2333.0458     7609.726    307.09723    15713 
350000000   -5130.9065    229.43189    12898.118   -2344.3015    7704.6399    309.09717    15717 
351000000   -5118.8279    89.297394    12984.145   -2356.8451    7564.9704    311.15876    15724 
352000000   -5048.0286    297.26224    12947.246   -2295.2793    7640.5701    310.27451    15723 
353000000   -5130.7373     54.85179    13006.656   -2375.2539     7560.843    311.69824    15723 
354000000   -5018.1542    64.842386    12968.257   -2431.5275    7514.5241    310.77803    15727 
355000000   -5098.9601    254.40415    12989.453   -2274.3754    7627.7396    311.28597    15715 
356000000   -5275.0186     -57.7596    12794.517   -2409.9781    7627.2372    306.61443    15726 
357000000   -5163.8521   -30.076859    12937.609   -2382.8127     7516.588    310.04355    15714 
358000000   -5263.9364   -3.5203237    12942.375   -2313.6285    7574.0445    310.15777    15708 
359000000    -5191.699    157.08499    12999.398   -2196.8131    7545.5971    311.52429    15711 
360000000   -5196.1453    191.20958    12862.111   -2298.3596    7685.7145    308.23428    15718 
361000000   -5126.9523    171.32493    12910.873   -2355.7557     7654.033    309.40283    15715 
362000000   -5157.6909    192.94905    13037.789   -2328.8396    7679.4795    312.44432    15716 
363000000   -5329.0034   -166.12724    12865.276   -2308.1043    7470.9804    308.31014    15717 
364000000   -5361.6305   -132.07057    12896.836   -2339.2103    7568.7702    309.06645    15720 
365000000   -5379.2973   -257.81436    12918.974   -2424.1776    7545.6605    309.59698    15715 
366000000   -5362.7563   -136.08503    12895.559   -2310.1007    7536.7719    309.03585    15717 
367000000   -5213.5388    204.61341    12996.098   -2274.4075    7692.5596    311.44522    15715 
368000000   -5317.1619   -116.74962    12827.251   -2353.1878    7553.6001    307.39889    15711 
369000000   -5377.4101    -330.4049    12983.134   -2438.1971    7485.2023    311.13455    15720 
370000000   -5320.8485   -112.71107    12897.842   -2354.8289    7562.9663    309.09055    15719 
371000000    -5426.373   -280.29296    13137.197   -2341.8302    7487.9102    314.82658    15717 
372000000   -5425.7172   -191.42605    13026.154   -2308.9519    7543.2431    312.16549    15719 
373000000   -5346.7885   -10.864551    13032.879   -2281.2258    7617.1498    312.32666    15713 
374000000   -5440.3439   -254.65473    12880.093    -2350.941    7536.6301    308.66522    15713 
375000000   -5349.2922   -215.97974    12869.806   -2364.9249    7498.2373    308.41869    15715 
376000000   -5427.7998   -271.30969    13050.226    -2331.091    7487.5811    312.74237    15713 
377000000   -5352.3272   -220.78803    12998.291   -2353.0346    7484.5738    311.49776    15717 
378000000   -5282.3505    58.877965    12858.372   -2273.1322    7614.3606    308.14467    15719 
379000000   -5292.4604   -164.98474    12898.933   -2365.8713     7493.347    309.11669    15713 
380000000   -5276.5611   -88.708725    12882.266   -2355.6068    7543.4592    308.71729    15720 
381000000   -5384.7821    -306.0474    12855.241   -2438.6491    7517.3838    308.06964    15726 
382000000   -5287.5943   -246.54641    12839.892   -2413.2523    7454.3002     307.7018    15722 
383000000   -5389.0153   -83.656012    12856.782   -2260.1086    7565.4679    308.10658    15709 
384000000   -5286.1474   -146.57132    12970.081   -2338.4746    7478.0507    310.82174    15709 
385000000   -5404.4004   -225.96744    12893.335   -2332.2701    7510.7031    308.98254    15721 
386000000   -5335.9314   -206.73086    12893.796   -2397.1998    7526.4003    308.99361    15722 
387000000    -5431.788   -253.51927    12941.465    -2331.473    7509.7417    310.13596    15721 
388000000     -5401.46   -178.94122    13014.732   -2369.9327    7592.4515    311.89178    15714 
389000000   -5329.0863   -273.74472    12940.282   -2465.4688    7520.8104    310.10761    15722 
390000000   -5377.7052   -339.64844    12872.125   -2414.2948    7452.3516    308.47427    15722 
391000000     -5471.95   -257.38364    12831.365   -2343.9147     7558.481    307.49748    15717 
392000000   -5475.9526   -262.60224    12906.248   -2329.3274    7542.6777      309.292    15723 
393000000   -5475.3133   -275.34314    13040.885   -2344.8338     7544.804    312.51852    15710 
394000000   -5409.7794    36.374543    13056.548   -2161.1761      7607.33    312.89387    15709 
395000000   -5595.3277   -453.38361    12970.804   -2356.5914    7498.5355    310.83905    15720 
396000000     -5444.03   -229.48972    12895.249   -2266.0914    7480.6316    309.02841    15720 
397000000   -5325.5989    -47.96191    12980.738   -2378.0304    7655.6673    311.07712    15716 
398000000   -5502.6248   -347.48524     12918.07   -2333.6035     7488.743    309.57531    15719 
399000000    -5436.132   -202.07165    13062.447   -2308.5457     7542.606    313.03523    15722 
400000000   -5540.2979   -262.11239    12895.342   -2382.0096    7660.1951    309.03064    15720 
401000000   -5438.7574   -182.66428    12885.522   -2354.1683    7610.2614    308.79532    15715 
402000000   -5440.0402   -300.55813     12944.33   -2359.3468    7498.8288    310.20462    15721 
403000000   -5496.8036   -530.11048    12962.291   -2406.4644    7373.1575    310.63506    15716 
404000000   -5603.2185   -280.87547    12944.648   -2218.6565    7540.9995    310.21224    15720 
405000000   -5572.3391   -338.85193    12884.264   -2274.9612    7508.4484    308.76517    15725 
406000000   -5457.1139   -232.86951    12812.769   -2341.8226     7566.067    307.05183    15718 
407000000   -5489.4646   -342.56447    13007.686   -2361.1065    7508.0066    311.72293    15710 
408000000   -5512.4942   -421.38121    12904.829   -2399.2724    7490.3855      309.258    15718 
409000000    -5437.819   -366.50548    12824.019    -2392.228    7463.5416    307.32143    15717 
410000000   -5504.3245   -325.73733    12957.075   -2310.3645    7488.9517    310.51004    15711 
411000000    -5511.239   -331.93851    13018.705   -2382.3513    7561.6518    311.98699    15718 
412000000   -5559.3883    -371.7671    12731.685   -2368.1657    7555.7868    305.10869    15711 
413000000   -5530.3624   -524.31882    12922.195   -2437.0977    7443.1413    309.67416    15719 
414000000   -5577.4649    -456.4486    13007.404   -2331.7875    7452.8038    311.71615    15720 
415000000     -5588.94   -396.38949    12824.867   -2327.0426    7519.5931    307.34174    15723 
416000000   -5549.5343   -180.32143    12857.973   -2314.7296    7683.9425    308.13511    15720 
417000000   -5605.2526   -480.90367        12978   -2314.2791     7438.628    311.01151    15711 
418000000   -5542.5716   -341.62818    12808.097   -2292.1044    7493.0478    306.93985    15712 
419000000   -5625.2307   -679.22152    12920.268   -2394.2549     7340.264    309.62798    15715 
420000000   -5458.9996   -256.33199      12839.2    -2345.773    7548.4406    307.68522    15720 
421000000   -5530.1841   -337.06772    13070.601    -2288.399    7481.5154    313.23063    15717 
422000000   -5660.2032   -602.08804    13039.922   -2344.8119     7402.927    312.49543    15716 
423000000   -5764.6997   -838.08415    13128.713   -2447.0407    7373.6563    314.62326    15717 
424000000   -5651.6474   -414.31968    12921.646   -2255.6376    7492.9653    309.66101    15719 
425000000   -5443.3563   -277.60101    12975.413   -2378.8721    7544.6274    310.94952    15720 
426000000   -5628.9433    -596.9463     12890.28   -2387.9823    7419.9793    308.90934    15717 
427000000   -5737.1686   -774.74723     13031.77   -2491.0289    7453.4502    312.30008    15724 
428000000   -5625.5714   -503.51219    12907.981   -2291.5547    7413.6139    309.33353    15714 
429000000   -5506.7495   -477.46187    12933.588    -2491.584    7520.8717    309.94719    15725 
430000000   -5553.7832   -433.63329    12863.231   -2315.4366    7435.5865    308.26113    15720 
431000000   -5587.9697   -486.56829    13006.195   -2345.1263    7446.5277    311.68719    15727 
432000000   -5686.0932    -638.3426    13009.022   -2388.0198    7435.7705    311.75493    15725 
433000000   -5682.9485    -627.5208    12970.105   -2308.9052    7364.3329    310.82232    15721 
434000000   -5693.5986   -571.56594     13047.17   -2214.6425    7336.6752    312.66914    15719 
435000000   -5639.6102   -410.64165    12867.115   -2278.0202    7506.9887    308.35419    15717 
436000000   -5660.4424   -546.78045    12919.202   -2295.7432    7409.4051    309.60243    15716 
437000000   -5539.7145   -344.51636    12825.052   -2357.6318      7552.83    307.34617    15718 
438000000   -5646.6566   -483.41087    12897.683   -2362.9602    7526.2059    309.08676    15718 
439000000   -5652.2033   -485.85282    12968.553   -2361.7369    7528.0873    310.78511    15727 
440000000   -5631.3723   -676.07769    12994.905   -2417.3688    7372.6633    311.41662    15725 
441000000   -5651.3173   -654.22309    12963.639     -2416.18    7413.2743    310.66734    15729 
442000000   -5736.4997   -725.19404    12837.224   -2401.5931    7412.8988    307.63789    15726 
443000000   -5665.1289   -672.15033    12814.503   -2404.2386    7397.2172    307.09338    15728 
444000000    -5727.417   -609.19717    12853.574   -2297.2547    7415.4745     308.0297    15726 
445000000   -5699.6217   -599.56629    12850.863   -2362.1147    7462.1701    307.96473    15722 
446000000   -5559.3711   -521.63183    12916.482     -2482.46    7520.1993    309.53726    15723 
447000000   -5583.2854   -444.78948    12964.721   -2319.4802    7457.9761    310.69328    15728 
448000000   -5708.4904    -761.1529    13065.733   -2411.3597    7358.6972    313.11398    15720 
449000000   -5653.7587   -730.58232    12816.546   -2417.2532    7340.4296    307.14235    15727 
450000000   -5642.1591   -467.31091    13035.969   -2296.7359    7471.5841     312.4007    15725 
451000000   -5666.8927   -626.98336     12804.79   -2366.5482    7406.4575    306.86061    15720 
452000000   -5775.4393   -709.28341    13070.464   -2391.8461     7458.002    313.22735    15731 
453000000   -5744.0631   -564.29702    12920.206   -2324.9195    7504.6856    309.62649    15726 
454000000   -5731.6697   -718.14773    12873.777   -2394.1116    7407.6336    308.51385    15729 
455000000   -5867.0145   -823.66735    12881.683    -2355.884    7399.2312    308.70331    15726 
456000000   -5761.8342   -662.14187    13018.919   -2340.0894    7439.7817    311.99211    15730 
457000000    -5707.751   -752.57148    12878.335   -2335.4892    7290.6687    308.62308    15724 
458000000   -5777.9694   -732.09451    12915.335   -2278.7694    7324.6443    309.50976    15724 
459000000   -5692.8561   -738.76713    13004.702   -2479.3096    7433.3985    311.65141    15736 
460000000   -5714.0274   -549.52365    13111.198   -2375.6284    7540.1321    314.20354    15726 
461000000   -5772.0807   -771.93311    12904.637     -2444.57    7444.7175    309.25339    15729 
462000000    -5711.071   -601.65009    12874.842   -2345.7369    7455.1579    308.53936    15724 
463000000   -5650.9722   -518.61252    12953.634   -2347.8409    7480.2005    310.42759    15722 
464000000   -5737.8168   -661.13517    12741.596   -2354.6718    7431.3535     305.3462    15729 
465000000   -5786.0111    -680.8783    12808.306   -2306.1557    7411.2885    306.94486    15728 
466000000   -5671.1955   -493.55329    13057.299   -2329.2976    7506.9398    312.91188    15722 
467000000   -5791.6698   -640.66311    12892.295   -2306.3973     7457.404    308.95763    15726 
468000000   -5785.8392   -764.41802      12896.3   -2412.0337    7433.4549    309.05361    15728 
469000000   -5711.1265   -592.11158    12974.747   -2254.5535    7373.5685    310.93354    15721 
470000000   -5736.9561   -689.77731    12853.235   -2425.6708    7472.8496    308.02157    15720 
471000000   -5844.4878   -783.36172    12898.549   -2406.7211    7467.8472     309.1075    15728 
472000000    -5779.321   -682.24874    12820.514   -2311.5116    7408.5839    307.23743    15727 
473000000   -5807.8497   -756.60424    12886.543   -2438.5407    7489.7862    308.81977    15720 
474000000   -5753.7456   -865.20607    12880.269   -2456.1891    7344.7286    308.66944    15726 
475000000   -5779.9964   -758.22939    12835.962   -2347.8473    7369.6143    307.60764    15722 
476000000   -5882.8485   -825.57362    12892.964   -2412.9039    7470.1788    308.97366    15726 
477000000   -5649.2326    -641.8284    13082.199   -2416.1708    7423.5751    313.50858    15733 
478000000   -5697.1869   -589.00837    12944.213   -2263.0296    7371.2081    310.20182    15725 
479000000   -5758.0347   -603.02276    12981.013    -2287.108    7442.1199    311.08372    15722 
480000000   -5846.8087   -850.82464    12937.019   -2449.8853    7445.8693     310.0294    15730 
481000000   -5765.7623   -798.50673    12787.655   -2502.0967    7469.3522    306.44999    15730 
482000000   -5789.6751   -798.85184     12896.32   -2397.4156    7388.2389    309.05408    15714 
483000000   -5764.1379   -680.35869    12980.246   -2312.2804    7396.0596    311.06533    15719 
484000000    -5721.044   -613.02879     13067.79   -2315.4579    7423.4732    313.16328    15721 
485000000   -5842.5636   -1041.5698    12853.082   -2457.1192    7258.1129     308.0179    15729 
486000000   -5744.5349   -753.01604    12944.944   -2370.8554    7362.3742    310.21934    15731 
487000000    -5815.663   -784.09238    12849.215   -2434.0266    7465.5972    307.92524    15730 
488000000   -5807.4903   -825.25128    12810.335   -2347.3209      7329.56    306.99349    15724 
489000000   -5677.0465    -644.3775    12832.715    -2399.251      7431.92    307.52982    15725 
490000000   -5717.9655   -574.67949    12902.872   -2292.8619     7436.148    309.21111    15718 
491000000    -5754.703   -758.42384    12754.521   -2377.5836    7373.8628    305.65594    15729 
492000000   -5799.7336   -814.59058    12816.393   -2349.2674    7334.4104    307.13866    15731 
493000000   -5809.8012    -822.5932    12940.612   -2383.5779    7370.7859    310.11552    15725 
494000000   -5687.9201   -526.16437    12755.388   -2325.6893     7487.445     305.6767    15731 
495000000   -5723.5962   -758.38901    12916.223   -2392.5837    7357.7909    309.53105    15735 
496000000   -5768.4578   -663.19641    12991.924   -2305.3861    7410.6475    311.34519    15729 
497000000    -5786.748   -722.65534    12961.087   -2431.2878    7495.3805    310.60619    15725 
498000000   -5828.7845   -763.46318    12806.799   -2399.8987    7465.2199    306.90875    15727 
499000000   -5827.5351   -687.79866    13093.859   -2276.5153    7416.2518    313.78801    15723 
500000000   -5819.6785   -759.56338    12890.342   -2373.3936    7433.5088    308.91081    15739 
Loop time of 172936 on 28 procs for 500000000 steps with 14000 atoms

Performance: 6245.077 ns/day, 0.004 hours/ns, 2891.239 timesteps/s
99.3% CPU use with 28 MPI tasks x no OpenMP threads

MPI task timing breakdown:
Section |  min time  |  avg time  |  max time  |%varavg| %total
---------------------------------------------------------------
Pair    | 18457      | 26927      | 34578      |2314.7 | 15.57
Bond    | 5459.5     | 8080.8     | 11187      |2141.1 |  4.67
Neigh   | 58808      | 59435      | 60269      | 151.1 | 34.37
Comm    | 41632      | 50077      | 60106      |2354.1 | 28.96
Output  | 0.75001    | 0.75057    | 0.75147    |   0.0 |  0.00
Modify  | 21168      | 21300      | 21549      |  54.9 | 12.32
Other   |            | 7116       |            |       |  4.11

Nlocal:    500 ave 530 max 449 min
Histogram: 2 0 1 0 3 2 8 8 1 3
Nghost:    735.607 ave 1157 max 84 min
Histogram: 1 0 1 2 6 3 4 7 1 3
Neighs:    8705.11 ave 12817 max 4606 min
Histogram: 1 4 2 2 3 5 6 2 1 2

Total # of neighbors = 243743
Ave neighs/atom = 17.4102
Ave special neighs/atom = 7.92486
Neighbor list builds = 98399951
Dangerous builds = 0
System init for write_restart ...
Total wall time: 48:02:29
