LAMMPS (5 Jun 2019)
Reading data file ...
  orthogonal box = (-420 -420 -420) to (420 420 420)
  2 by 2 by 7 MPI processor grid
  reading atoms ...
  14000 atoms
  scanning bonds ...
  51 = max bonds/atom
  scanning angles ...
  1 = max angles/atom
  reading bonds ...
  13800 bonds
  reading angles ...
  13600 angles
Finding 1-2 1-3 1-4 neighbors ...
  special bond factors lj:   0          0          0         
  special bond factors coul: 0          0          0         
  2 = max # of 1-2 neighbors
  2 = max # of 1-3 neighbors
  4 = max # of 1-4 neighbors
  56 = max # of special neighbors
  special bonds CPU = 1.30471 secs
  read_data CPU = 1.43337 secs
Finding 1-2 1-3 1-4 neighbors ...
  special bond factors lj:   1          1          1         
  special bond factors coul: 0          0          0         
  2 = max # of 1-2 neighbors
  2 = max # of 1-3 neighbors
  4 = max # of 1-4 neighbors
  56 = max # of special neighbors
  special bonds CPU = 0.00103986 secs
WARNING: Using 'neigh_modify every 1 delay 0 check yes' setting during minimization (../min.cpp:168)
Neighbor list info ...
  update every 1 steps, delay 0 steps, check yes
  max neighbors/atom: 2000, page size: 100000
  master list distance cutoff = 26.9
  ghost atom cutoff = 26.9
  binsize = 13.45, bins = 63 63 63
  1 neighbor lists, perpetual/occasional/extra = 1 0 0
  (1) pair lj/cut, perpetual
      attributes: half, newton on
      pair build: half/bin/newton
      stencil: half/bin/3d/newton
      bin: standard
Setting up cg style minimization ...
  Unit style    : real
  Current step  : 0
Per MPI rank memory allocation (min/avg/max) = 1.165 | 13.79 | 17.67 Mbytes
Step Temp E_pair E_mol TotEng Press 
       0            0 2.4262116e+12      2649600 2.4262142e+12 1.1227655e+09 
    2593            0   -3213.8545    8077.7575     4863.903  0.022358999 
Loop time of 0.802358 on 28 procs for 2593 steps with 14000 atoms

99.4% CPU use with 28 MPI tasks x no OpenMP threads

Minimization stats:
  Stopping criterion = energy tolerance
  Energy initial, next-to-last, final = 
     2.42621422944e+12      4864.36586087      4863.90297658
  Force two-norm initial, final = 2.10957e+10 3.95325
  Force max component initial, final = 1.05441e+09 0.95274
  Final line search alpha, max atom move = 0.049396 0.0470616
  Iterations, force evaluations = 2593 2659

MPI task timing breakdown:
Section |  min time  |  avg time  |  max time  |%varavg| %total
---------------------------------------------------------------
Pair    | 0.03889    | 0.13802    | 0.23947    |  17.0 | 17.20
Bond    | 0.012324   | 0.03578    | 0.060382   |   7.7 |  4.46
Neigh   | 0.076664   | 0.077964   | 0.079358   |   0.2 |  9.72
Comm    | 0.148      | 0.26605    | 0.39862    |  13.6 | 33.16
Output  | 0          | 0          | 0          |   0.0 |  0.00
Modify  | 0          | 0          | 0          |   0.0 |  0.00
Other   |            | 0.2845     |            |       | 35.46

Nlocal:    500 ave 894 max 183 min
Histogram: 3 3 3 4 6 0 2 2 3 2
Nghost:    312.964 ave 490 max 136 min
Histogram: 3 3 2 1 4 3 4 4 1 3
Neighs:    3601.79 ave 6560 max 1006 min
Histogram: 4 1 5 2 7 0 1 1 5 2

Total # of neighbors = 100850
Ave neighs/atom = 7.20357
Ave special neighs/atom = 5.82857
Neighbor list builds = 165
Dangerous builds = 0
Setting up Verlet run ...
  Unit style    : real
  Current step  : 2593
  Time step     : 0.1
Per MPI rank memory allocation (min/avg/max) = 1.127 | 12.9 | 16.54 Mbytes
Step Temp E_pair E_mol TotEng Press 
    2593            0   -3213.8545    8077.7575     4863.903  0.022358999 
   12593    222.85863   -2702.3501    11609.781    18206.956   -1.1384343 
Loop time of 1.83272 on 28 procs for 10000 steps with 14000 atoms

Performance: 47.143 ns/day, 0.509 hours/ns, 5456.379 timesteps/s
99.5% CPU use with 28 MPI tasks x no OpenMP threads

MPI task timing breakdown:
Section |  min time  |  avg time  |  max time  |%varavg| %total
---------------------------------------------------------------
Pair    | 0.053164   | 0.20668    | 0.39913    |  23.7 | 11.28
Bond    | 0.039416   | 0.11351    | 0.19159    |  13.9 |  6.19
Neigh   | 0.0024628  | 0.0025428  | 0.0026951  |   0.1 |  0.14
Comm    | 0.54601    | 0.83207    | 1.0882     |  15.4 | 45.40
Output  | 9.4035e-05 | 0.00012086 | 0.00015481 |   0.0 |  0.01
Modify  | 0.092567   | 0.26379    | 0.4427     |  20.6 | 14.39
Other   |            | 0.414      |            |       | 22.59

Nlocal:    500 ave 894 max 181 min
Histogram: 3 3 3 4 6 0 2 2 3 2
Nghost:    313.214 ave 490 max 138 min
Histogram: 4 2 2 2 3 3 4 4 1 3
Neighs:    3610.64 ave 6581 max 985 min
Histogram: 3 2 4 3 7 0 1 1 5 2

Total # of neighbors = 101098
Ave neighs/atom = 7.22129
Ave special neighs/atom = 5.82857
Neighbor list builds = 5
Dangerous builds = 0
4000 atoms in group rxnSites
Neighbor list info ...
  update every 1 steps, delay 1 steps, check yes
  max neighbors/atom: 2000, page size: 100000
  master list distance cutoff = 26.9
  ghost atom cutoff = 26.9
  binsize = 13.45, bins = 63 63 63
  2 neighbor lists, perpetual/occasional/extra = 1 1 0
  (1) pair lj/cut, perpetual
      attributes: half, newton on
      pair build: half/bin/newton
      stencil: half/bin/3d/newton
      bin: standard
  (2) fix bond/create/random, occasional, copy from (1)
      attributes: half, newton on
      pair build: copy
      stencil: none
      bin: none
Setting up Verlet run ...
  Unit style    : real
  Current step  : 0
  Time step     : 25
Per MPI rank memory allocation (min/avg/max) = 17.76 | 18.28 | 18.83 Mbytes
Step E_pair PotEng KinEng E_bond E_angle Temp Bonds 
       0   -2702.3501     8907.431    9299.5251    3109.0995    8500.6817    222.85863    13800 
 1000000   -941.52924    11420.037    13017.628    3963.0432    8398.5235    311.96118    14007 
 2000000   -924.84905    11466.769    12886.075    3993.2028    8398.4156    308.80857    13939 
 3000000   -935.97416    11329.389    12844.126    3883.0288    8382.3341    307.80329    13959 
 4000000   -949.63966    11486.033    12976.528      3938.85    8496.8225    310.97623    13985 
 5000000   -972.24454    11423.391    12991.463     3915.565    8480.0709    311.33413    13984 
 6000000   -939.67843    11317.742    12788.405     3937.857    8319.5631    306.46795    13995 
 7000000    -877.7405    11582.776    12970.573    4000.9164    8459.5999    310.83353    13982 
 8000000   -944.06377    11385.098     12936.72    3915.7791    8413.3831    310.02226    13984 
 9000000   -932.31601    11447.206     12850.08    3967.0065    8412.5154    307.94597    13997 
10000000    -1015.516    11338.734    12943.682    3857.2187    8497.0316    310.18908    14012 
11000000   -985.30195    11288.334    12932.487    3958.3065     8315.329    309.92081    14018 
12000000   -880.67111    11479.209    12819.044    3957.0544    8402.8254    307.20219    13958 
13000000   -1032.3589    11361.522    12996.303     3927.549    8466.3319    311.45014    13984 
14000000   -995.32495    11399.702    12784.921    4006.1995    8388.8274    306.38447    14000 
15000000   -977.18823    11367.294    12966.738    3996.1747    8348.3074    310.74161    14006 
16000000   -936.57201    11340.748    12897.672    3943.0557    8334.2645    309.08648    14022 
17000000    -1012.012    11344.208    12891.561    3870.8867    8485.3338    308.94005    14002 
18000000   -1010.8555    11361.212    13028.405    3888.3401    8483.7278    312.21943    14007 
19000000   -1004.7552    11410.459    13016.138    3885.1126    8530.1013    311.92547    14006 
20000000   -1021.1538    11372.414    12938.238    3914.5795    8478.9883    310.05862    14009 
21000000   -1020.3496     11331.42    12915.869    3904.2357    8447.5339    309.52257    13990 
22000000   -971.01462    11326.679    12968.089    3919.2478    8378.4457    310.77398    14015 
23000000   -976.36875    11335.219    13011.761    3943.3773    8368.2101    311.82057    14022 
24000000   -1001.6586    11360.483    12836.403    3905.4069    8456.7343    307.61819    14020 
25000000   -967.55807    11390.606    12950.209    3904.5575     8453.607    310.34551    14001 
26000000   -865.18619    11450.592    12951.473    3817.0561    8498.7219     310.3758    13980 
27000000   -975.73369    11361.678    13157.893    3913.7925    8423.6188    315.32256    14013 
28000000   -953.09186    11367.342    12963.826    3875.7314    8444.7023    310.67183    13972 
29000000   -1009.8505      11264.3    12956.935    3912.1851    8361.9657    310.50669    14029 
30000000   -980.26318    11328.823    13007.827    3968.9681    8340.1177    311.72629    14042 
31000000   -964.76213    11425.789    12973.848    3981.0019    8409.5494      310.912    14029 
32000000   -968.02789    11281.646     12860.99    3882.6427    8367.0313    308.20742    14028 
33000000   -987.28233     11445.71    13023.988     3936.213     8496.779     312.1136    13994 
34000000   -970.95476    11290.442    12877.267    3916.3835    8345.0136    308.59748    13991 
35000000   -942.44006    11293.465    12956.472    3909.8134    8326.0921    310.49561    14003 
36000000   -878.43946    11287.232    12815.934    3800.6298    8365.0415    307.12767    13988 
37000000    -886.1925    11438.692    12913.515    3901.0826    8423.8016    309.46615    13968 
38000000   -944.90222    11363.065    12839.729    3873.2309    8434.7365     307.6979    13985 
39000000   -962.98934    11391.135    13039.481    3928.0403     8426.084    312.48487    13986 
40000000   -928.55647    11405.654    12945.999    3929.0604    8405.1504    310.24461    13971 
41000000   -951.05538    11351.352    12902.169    3867.5441    8434.8633    309.19426    13982 
42000000   -981.29568    11431.621    13004.674    3910.0443    8502.8726    311.65073    14005 
43000000   -957.93167    11579.995    12980.642    3958.5247    8579.4016    311.07481    14013 
44000000   -919.57736     11238.48    12828.632    3839.1347    8318.9226    307.43196    13971 
45000000   -950.31459    11487.648    12877.856    3916.6381    8521.3243     308.6116    13983 
46000000   -929.77315    11286.171    12930.231     3860.929    8355.0152    309.86674    13979 
47000000    -1006.421    11367.392     12843.63    3958.8074    8415.0055    307.79139    14002 
48000000   -963.74626    11297.044    12962.139    3871.8623    8388.9284     310.6314    13983 
49000000   -994.77823    11392.428    13103.766    3903.6653    8483.5413    314.02543    13994 
50000000   -1004.5933    11122.105    12956.516    3827.8081    8298.8898    310.49666    14004 
51000000   -977.67921    11135.246    12990.486    3806.1719    8306.7531    311.31072    14047 
52000000   -950.06063    11307.246    12873.887    3893.9276    8363.3788    308.51649    14001 
53000000   -981.49295    11428.751    12958.619    3976.5695    8433.6746    310.54704    13989 
54000000   -961.13313    11275.279    12875.572      3901.01    8335.4018    308.55686    13991 
55000000   -982.29961    11321.837     12910.15    3891.1574    8412.9793    309.38552    13995 
56000000   -936.39525     11337.51    12903.771    3912.3982    8361.5067    309.23263    13978 
57000000   -976.32603    11308.853    12863.975    3955.6951    8329.4834    308.27894    14000 
58000000   -940.64158    11347.431    12870.799    3853.0366    8435.0357    308.44249    13986 
59000000   -911.65944    11329.792    12893.011    3879.6877     8361.764    308.97478    13989 
60000000   -971.56484    11291.815    13050.163    3888.5024    8374.8774    312.74085    14002 
61000000   -950.72186    11289.053    13060.312    3917.2305    8322.5445    312.98407    13985 
62000000   -952.14765    11372.568    12992.637    3955.7974    8368.9178    311.36229    13981 
63000000   -986.02984    11390.534     12765.57    3899.6152    8476.9489    305.92072    14013 
64000000   -978.13125    11349.563    12828.321    3976.5659    8351.1284    307.42451    13978 
65000000   -975.37004    11420.591    12918.254    3910.1201    8485.8414    309.57972    14020 
66000000   -999.80215    11500.171    12961.147    4036.5296    8463.4437    310.60762    14002 
67000000   -931.51426    11371.572    12951.743    3967.4558    8335.6306    310.38227    14003 
68000000   -967.56694    11381.873     13129.58    3954.1839    8395.2565    314.64404    14014 
69000000   -914.01079    11290.773    13117.307    3869.5425    8335.2417    314.34993    13976 
70000000   -953.21435    11470.986    12677.261    3955.1044    8469.0956    303.80445    13994 
71000000   -956.36068    11478.238    12972.723    3968.3577    8466.2415    310.88504    13982 
72000000   -913.36736    11423.096    12820.231    3957.1351    8379.3284    307.23064    13975 
73000000   -991.74004     11316.58    12895.535    3918.3185    8390.0014    309.03527    13984 
74000000   -962.03575    11229.735    12923.278    3850.9122    8340.8587    309.70012    14013 
75000000   -957.04819    11243.583    12824.879     3878.898    8321.7331    307.34204    14010 
76000000   -925.41069    11373.332    12992.691    3907.6473    8391.0958    311.36358    14005 
77000000   -970.81838    11568.673    12992.559    3976.1353    8563.3563     311.3604    13973 
78000000   -1011.2511    11296.056    12952.425     3891.555    8415.7522    310.39862    14002 
79000000   -1006.3506     11267.81    12946.487    3874.1258    8400.0344    310.25632    14029 
80000000   -1007.0337    11251.139    12778.287    3845.8826    8412.2897    306.22548    14017 
81000000   -880.11849    11341.994    12882.644    3820.9432    8401.1692    308.72635    13983 
82000000   -967.64337    11286.098    12996.879    3920.0432    8333.6983    311.46393    13989 
83000000    -1026.604    11283.955    13010.258    3846.9924    8463.5667    311.78455    14024 
84000000   -1018.8983    11175.328    12844.129    3898.8113    8295.4151    307.80336    14002 
85000000   -936.48391    11352.862    12873.189    3998.6143    8290.7312    308.49977    13967 
86000000   -898.22683    11439.065    12923.583    3882.1794    8455.1121    309.70743    13966 
87000000    -950.8743    11352.115    13009.441    3920.3451     8382.644    311.76497    13983 
88000000    -934.6395    11406.538    13072.252    3942.7702    8398.4077    313.27021    14004 
89000000   -945.00996    11221.867    12931.396    3866.7907    8300.0865    309.89467    13990 
90000000   -941.51654    11449.331      13042.1    3890.1653    8500.6823    312.54764    13998 
91000000   -979.95378    11263.661    12965.319    3883.9895    8359.6255    310.70762    13975 
92000000   -945.35621     11542.83    12862.489    4041.5629    8446.6232    308.24335    13975 
93000000   -934.34656    11515.232     12851.94    3889.1108    8560.4678    307.99053    13991 
94000000   -876.51689    11252.114    12926.923    3813.0572    8315.5734    309.78747    14012 
95000000   -872.45612    11409.986    13075.488    3924.8145    8357.6274    313.34776    13988 
96000000   -909.65032    11431.539    12992.507    3919.8531    8421.3358    311.35917    13969 
97000000   -981.63657    11351.308    12919.344    3925.0914    8407.8536    309.60584    14012 
98000000   -899.20198    11394.806    13210.509    3915.8547    8378.1534    316.58348    13988 
99000000   -938.13438    11464.369    12891.108     3962.352    8440.1512    308.92919    13997 
100000000   -944.24834    11263.723    13006.724    3860.2248    8347.7462    311.69985    13991 
101000000   -940.92974    11435.706    12932.677    3923.9608     8452.675    309.92535    13986 
102000000   -859.37715    11356.659    12913.769    3859.4424    8356.5936    309.47223    13969 
103000000   -934.75193    11412.317    12959.181    3863.9961    8483.0727    310.56052    14004 
104000000   -936.96108    11303.734    12830.561    3902.4663    8338.2291    307.47821    13977 
105000000   -939.20404    11305.651    12990.599    3869.3258     8375.529    311.31343    13969 
106000000    -894.7754     11487.72    12997.996    3920.5282    8461.9676    311.49069    13976 
107000000   -931.71273    11353.396    12751.509     3921.974    8363.1346    305.58376    13961 
108000000   -960.03638    11383.189    13002.752    3914.9086     8428.317    311.60468    14017 
109000000   -984.61525    11353.542    13083.517    3975.2125    8362.9444    313.54018    14013 
110000000   -981.42305    11388.668    13034.437    3927.8336    8442.2571    312.36398    14019 
111000000   -933.87454    11410.459    12706.723    3966.3747    8377.9593    304.51048    13963 
112000000   -819.57922    11547.576    12986.072    3913.0309    8454.1239    311.20496    13969 
113000000   -919.64863    11426.954    12878.493    3971.5265    8375.0766    308.62686    13980 
114000000   -947.99449    11333.977    12998.963    3902.2707    8379.7003    311.51387    13978 
115000000   -874.57304    11501.349    12939.423    3934.9872    8440.9345    310.08702    13983 
116000000   -988.17172    11271.371     13005.85    3872.6392    8386.9034    311.67893    13996 
117000000   -973.31056    11217.093    12860.866    3932.8679    8257.5357    308.20445    14019 
118000000   -1004.7832    11386.005    12873.991    3947.4616    8443.3262    308.51899    14004 
119000000   -1017.9801    11189.071    12975.521    3797.3546    8409.6962     310.9521    14016 
120000000   -1026.2019    11160.096    13034.002     3823.886    8362.4118    312.35356    13985 
121000000   -1021.4723    11242.889    12964.088    3923.2326    8341.1283     310.6781    14017 
122000000   -995.88423    11284.796    12917.211     3945.983    8334.6975    309.55474    14003 
123000000   -985.59074      11368.5    12960.299    3906.2139    8447.8771    310.58731    14001 
124000000   -981.48749    11376.976    13000.949    3918.3417    8440.1216    311.56147    13993 
125000000   -918.66642    11487.281    12882.314    3992.7398    8413.2074    308.71843    14006 
126000000   -943.00932    11399.182    12786.896    4035.5026    8306.6885    306.43178    13993 
127000000   -998.94931    11405.863    13073.762    3869.9468    8534.8653    313.30639    14002 
128000000   -932.11132    11434.319    12810.722    3873.8285    8492.6015    307.00277    13972 
129000000   -983.63964    11253.639    12952.066    3799.4434    8437.8351    310.39002    14018 
130000000   -970.34424    11409.006    13016.515    3946.3329    8433.0176    311.93451    14007 
131000000   -944.37354    11524.459    13114.428     4007.719    8461.1134    314.28094    13998 
132000000   -984.58394    11271.795      12715.7    3887.4756    8368.9036    304.72562    14017 
133000000   -936.70109    11351.367    12809.024    3830.8821     8457.186    306.96208    13985 
134000000   -976.25311    11178.551    12897.154    3900.8696    8253.9346    309.07406    14032 
135000000   -920.61689     11473.57    13037.538    3915.8246     8478.362    312.43831    13978 
136000000   -915.57394    11355.134    12853.938    3889.5989    8381.1087    308.03841    14017 
137000000   -905.25328    11440.054    12955.854    3937.0909    8408.2161    310.48078    13964 
138000000   -908.64845    11343.092    12768.134    3939.2485    8312.4923    305.98216    13978 
139000000   -952.08875     11403.33    12954.432    3858.4499    8496.9693    310.44671    13995 
140000000   -945.14737    11528.593    13084.552    3958.5083    8515.2322    313.56497    13975 
141000000   -892.26486    11412.097    12916.844     3894.134    8410.2276    309.54593    13985 
142000000   -950.59431    11557.758    12895.748    3965.7727    8542.5794    309.04038    14001 
143000000   -961.72288    11350.949    12943.166    3907.8925    8404.7793    310.17672    14012 
144000000   -965.16592    11336.105    12821.591    3872.3994    8428.8711    307.26324    14007 
145000000   -971.16367    11310.948    12975.376    3851.4602    8430.6514    310.94862    13998 
146000000   -965.09136    11187.615     12966.05    3861.5565    8291.1501    310.72513    14020 
147000000   -941.09972     11425.07     13011.45    3986.8423    8379.3273    311.81313    13985 
148000000   -926.25163    11557.614      12893.9    3975.0692    8508.7968    308.99609    14008 
149000000   -964.43788    11302.025    12662.177    3942.4579     8324.005    303.44296    13979 
150000000   -958.82169    11231.637    13033.736    3876.4278    8314.0313    312.34719    14013 
151000000   -943.39676    11454.106    12910.764    3987.5852    8409.9171    309.40023    13998 
152000000   -963.66684    11345.258    12913.794    3893.1493    8415.7758    309.47284    14028 
153000000   -988.24287    11483.618    12835.561    3963.5273    8508.3332    307.59803    14010 
154000000   -1021.4305    11287.118     12786.13    3894.5835    8413.9654    306.41344    13999 
155000000   -1039.3094    11341.763    12704.655    3910.5017     8470.571    304.46093    14012 
156000000   -967.04742     11386.82    12858.324    3893.3731    8460.4939    308.14354    14006 
157000000   -1003.7122    11215.418    12843.993    3868.7406    8350.3895     307.8001    13994 
158000000   -953.95819      11362.1    12983.675     3995.892    8320.1657     311.1475    13983 
159000000   -1031.4193    11246.682    12873.325    3832.8841    8445.2168    308.50301    14008 
160000000     -1021.57    11203.155    13007.265    3901.7791    8322.9461    311.71283    14008 
161000000   -1076.7633     11234.51     13043.11    3842.8444    8468.4287    312.57183    14024 
162000000   -1028.9303    11320.467    12957.725    3844.4256    8504.9715    310.52563    14030 
163000000   -991.42065    11360.216    12795.413     3873.684    8477.9524    306.63589    14000 
164000000   -1046.0196    11232.471    12933.968    3894.4322    8384.0583     309.9563    14013 
165000000   -1032.1213      11324.2    12906.574    3903.8319     8452.489    309.29982    14011 
166000000   -944.09087     11403.52    12858.222    3931.3208    8416.2896    308.14107    13999 
167000000   -951.36335    11474.431    12909.408    3888.9678    8536.8264    309.36773    13987 
168000000   -1013.3987    11242.389    12989.252    3880.8654    8374.9222    311.28116    14014 
169000000   -995.41671    11342.117    12837.744    3873.9334    8463.6007    307.65033    14027 
170000000   -979.65237    11389.561    12894.041    3952.2825    8416.9305    308.99948    14007 
171000000   -967.75956    11393.862    12947.008    4005.7746    8355.8472    310.26881    13996 
172000000   -1028.1574    11259.993    12868.983    3905.6048    8382.5459    308.39896    14021 
173000000    -960.4447    11381.463    12984.277    3869.3861    8472.5216    311.16193    14027 
174000000   -996.85398    11290.644    12862.331    3886.2819    8401.2166    308.23954    14033 
175000000   -988.80664    11236.675    12910.598    3890.7493    8334.7324    309.39625    14015 
176000000   -969.39744    11264.267    12944.415    3914.3063    8319.3578    310.20666    14017 
177000000   -922.22254    11298.532    12843.917     3926.583    8294.1713    307.79826    13990 
178000000   -959.58418    11441.062    12948.722    3885.7757    8514.8708    310.30988    13998 
179000000   -945.42294    11532.301    13021.056    4019.5149    8458.2093    312.04331    13950 
180000000   -984.80672    11423.162    13002.056    3877.5104     8530.458    311.58799    14013 
181000000   -1035.1442    11316.265    12962.584    3944.3419    8407.0669    310.64207    13996 
182000000   -1058.2804    11196.397    13107.924    3903.8007    8350.8765    314.12508    14028 
183000000   -959.14843     11311.39    12987.534    3854.8442    8415.6939    311.23998    13999 
184000000   -1033.2327    11243.318    12926.132    3796.0802     8480.471    309.76852    14016 
185000000   -951.77936    11239.492    13022.906     3938.309    8252.9627    312.08766    13982 
186000000   -932.15319    11316.879    12894.996    3876.0972    8372.9346    309.02235    13995 
187000000   -959.80014    11251.991     12854.35     3805.579    8406.2125     308.0483    14032 
188000000   -996.79374    11381.306    12928.927     3952.006    8426.0937     309.8355    14000 
189000000   -994.20291     11214.97    13059.764    3849.6549    8359.5177    312.97093    14016 
190000000   -974.18619    11403.329    13066.084    3996.4315    8381.0835     313.1224    14007 
191000000   -955.19284    11434.834    12891.798     3912.508    8477.5187    308.94572    14020 
192000000   -946.60633    11306.501    12895.403    3945.7847    8307.3222    309.03211    13961 
193000000   -1008.7736    11144.031    12920.199    3866.7548    8286.0502    309.62634    14018 
194000000   -1034.7777    11325.242    13042.889    3935.2644    8424.7556    312.56653    13992 
195000000   -1014.2268    11226.793    12835.318    3900.3864    8340.6334     307.5922    14003 
196000000   -1029.8948    11153.366    13088.535    3821.9438    8361.3174    313.66042    14027 
197000000   -973.72631    11349.868    12865.271    3947.6844      8375.91    308.31001    13983 
198000000   -1010.5418    11336.092     12835.15    3926.4292    8420.2042    307.58817    14006 
199000000   -941.93814    11551.732     12821.07    4010.1376    8483.5324    307.25075    14005 
200000000   -1000.6324    11345.682    12897.418    3875.0803    8471.2339    309.08039    14021 
201000000    -960.0779    11437.376    12942.321    3929.2135      8468.24    310.15648    13998 
202000000   -948.32999    11352.939    12952.333    3815.7249     8485.544    310.39641    13992 
203000000   -944.22981    11367.855    13082.285    3906.3609    8405.7235    313.51065    14009 
204000000   -1005.0863    11330.994    12934.366    3937.7117    8398.3688    309.96585    13982 
205000000   -947.63632    11493.436    12994.227    3908.4202    8532.6521    311.40038    14036 
206000000   -945.36381    11350.066    13022.226    3976.8628    8318.5666    312.07136    13987 
207000000   -929.79719    11386.469    13006.749    4032.5883     8283.678    311.70046    13990 
208000000   -994.35164    11245.792    12994.017    3824.5464    8415.5974    311.39534    14012 
209000000   -921.71144    11308.628    12920.795    3852.6856    8377.6543    309.64061    14021 
210000000   -964.27603     11375.39     12920.56    3956.1692    8383.4964    309.63499    13984 
211000000   -960.33768    11321.425    12858.679    3936.0157    8345.7473    308.15204    13987 
212000000   -925.36723    11319.201    12930.002    3833.2826     8411.286    309.86126    13977 
213000000   -935.41192    11526.001    12886.442    3966.6197     8494.793    308.81735    13966 
214000000    -951.2451    11422.849    13037.268    3940.4406    8433.6539    312.43183    14007 
215000000   -940.26058    11364.346    12956.775    3944.7444    8359.8617    310.50287    13990 
216000000   -892.63461    11283.701    12862.438    3892.5053    8283.8303    308.24211    13965 
217000000    -918.7969    11572.153    12962.985    3972.9697      8517.98    310.65167    13972 
218000000   -953.75132    11378.679    12972.529    3890.6876     8441.743    310.88039    13997 
219000000   -996.11249    11467.134    12934.177    3919.0767    8544.1695     309.9613    13993 
220000000   -986.33195    11433.573    13068.156    3918.3965    8501.5083    313.17205    14008 
221000000   -921.28715    11511.183    13111.768    3924.3089    8508.1613     314.2172    13993 
222000000    -941.2572    11379.417    13070.144     3967.037    8353.6374    313.21969    13993 
223000000   -947.78733     11468.32    12857.061    3947.7454    8468.3623    308.11326    13955 
224000000   -965.10527    11464.105     12907.62    3911.6981     8517.512    309.32489    14014 
225000000   -954.17907     11443.07    12885.684    4017.3274    8379.9215    308.79919    13965 
226000000   -861.19584    11431.381    12934.299    3920.8863    8371.6907    309.96422    13984 
227000000   -998.65788    11397.754    12971.948    3921.3364    8475.0756    310.86647    13975 
228000000   -979.10526    11269.596    12856.417    3884.8534    8363.8478    308.09783    14010 
229000000   -938.46132    11351.835    12971.417    3832.4938    8457.8028    310.85375    13968 
230000000    -934.3623    11461.758    12969.216    3996.3108    8399.8092    310.80099    13990 
231000000   -952.15406    11399.093    12842.436    3942.1261    8409.1209    307.76278    13985 
232000000   -954.97492    11277.629    12822.811    3839.3403    8393.2638    307.29247    13980 
233000000   -946.01633    11334.906    13096.335    3868.2554    8412.6666    313.84734    14001 
234000000   -1000.8412    11340.727    12990.052    3954.8526    8386.7159    311.30032    13993 
235000000   -964.90258     11393.43    12999.022    3973.8525    8384.4801    311.51528    14020 
236000000   -949.45769    11224.911    12939.692     3897.625    8276.7434    310.09346    14018 
237000000    -1000.501    11229.061    12887.091    3894.7445     8334.817    308.83292    14045 
238000000   -1081.4336    11344.131    12863.599    3928.4291     8497.135    308.26994    13991 
239000000     -961.565    11339.092    12974.938    3927.8427    8372.8148    310.93812    14008 
240000000   -987.81366    11459.096    12977.171       3954.9    8492.0096    310.99165    13992 
241000000   -909.39863    11374.784    12972.928    3840.0437    8444.1387    310.88995    14003 
242000000   -956.39643    11343.746     12925.95    3888.7697     8411.373    309.76414    13990 
243000000   -881.55952    11387.782    12890.469    3874.2219    8395.1194    308.91386    13989 
244000000   -919.10581      11435.9    12853.461    3951.5771    8403.4283    308.02698    13987 
245000000   -938.78893    11401.867    12793.535    3913.8364    8426.8198    306.59089    14011 
246000000   -933.39523    11518.196    12823.434    3984.3935    8467.1981     307.3074    13996 
247000000   -963.77495    11360.838    13127.687    3866.7303    8457.8829    314.59867    14007 
248000000   -908.18191    11504.617    12902.103     3956.536    8456.2634    309.19267    13946 
249000000   -881.21882    11435.985    12804.347    3917.7482    8399.4559       306.85    13975 
250000000   -965.30657    11425.919     12900.73    3949.8326    8441.3926    309.15977    13992 
251000000   -909.63846    11459.337    12874.105    4024.3406    8344.6345     308.5217    13966 
252000000   -949.22529    11371.472    12805.472    3882.6793    8438.0178    306.87695    13988 
253000000   -975.18653    11281.965    12785.455    3855.6706    8401.4805    306.39726    13979 
254000000    -931.4798    11412.748    12839.397     3924.265    8419.9626    307.68996    13993 
255000000   -1035.0671    11380.999    13061.254    3951.1026    8464.9635    313.00664    14024 
256000000   -1012.9934    11422.679    12877.585    4019.9413     8415.731    308.60511    13988 
257000000   -938.48869    11424.051    12745.622    3955.3415    8407.1977    305.44267    13962 
258000000   -922.42734    11254.883     13082.59    3833.7699    8343.5409    313.51795    14016 
259000000   -987.20799    11408.543    12830.764    3969.5811    8426.1698    307.48307    13990 
260000000   -910.34952    11339.706    12793.065    3947.2646    8302.7905    306.57963    14000 
261000000    -905.1333     11492.31    13027.384    3933.5788     8463.864    312.19497    14003 
262000000   -905.98496     11359.23    12926.967    3896.0286     8369.186    309.78851    14000 
263000000   -938.04236    11329.964    12880.273    3916.2648    8351.7414    308.66951    13998 
264000000    -1010.276    11372.476    12875.586    3878.8379    8503.9145    308.55721    14008 
265000000   -885.32821     11517.37    12971.605    4008.9838    8393.7148    310.85825    13971 
266000000   -965.54784    11278.584    13162.641    3899.0006    8345.1318    315.43634    13998 
267000000   -903.08439    11509.265    12956.035    3976.2349    8436.1146    310.48513    13984 
268000000   -895.55829    11353.036    13004.202    3835.3197    8413.2742    311.63943    13973 
269000000   -923.52362    11451.675    12993.212    3917.5886      8457.61    311.37606    13975 
270000000   -948.87911     11251.72    12856.519    3870.6163    8329.9823    308.10026    13990 
271000000    -933.5426    11303.992    12832.821    3958.9977    8278.5365    307.53236    13974 
272000000   -889.41777    11321.559    13040.991    3896.6078    8314.3691    312.52105    13983 
273000000   -921.39362    11489.757    13011.302    4004.9059    8406.2446    311.80958    13982 
274000000   -940.51093    11355.799    12800.661    3978.1343    8318.1753    306.76165    13988 
275000000   -945.57107    11440.313    13033.677    4001.4894    8384.3943    312.34577    13982 
276000000   -863.25128    11359.567    12936.106    3939.5126    8283.3056    310.00755    13964 
277000000   -948.42749    11487.933    13005.239     3966.168     8470.192    311.66427    13989 
278000000   -896.49975    11462.285    12812.239    3968.0963    8390.6883    307.03913    13956 
279000000   -856.05216    11438.218    13049.773    3913.2496     8381.021    312.73152    13948 
280000000   -912.95928    11575.774    12824.812     4013.057    8475.6759    307.34042    13980 
281000000   -917.41896    11401.371    12838.401    3890.5142    8428.2762    307.66608    13972 
282000000   -938.10142     11504.13    12838.772    3914.3788    8527.8527    307.67498    14001 
283000000    -902.9424    11492.464    12921.416    3945.1565    8450.2499    309.65549    13987 
284000000   -944.28704     11216.62    13183.967    3851.7255    8309.1816     315.9474    14002 
285000000   -1049.2165    11344.492    12977.029    3891.7833    8501.9251    310.98825    14028 
286000000    -949.0451     11323.31    12821.242     3868.146    8404.2086    307.25488    13984 
287000000   -935.03196    11365.107    12973.697    3906.5474    8393.5913    310.90839    14001 
288000000   -1038.9193    11288.462    12919.221    3902.8379    8424.5437    309.60289    14017 
289000000   -966.12899    11256.466     12855.52    3893.9179    8328.6772    308.07633    13984 
290000000   -997.52287    11201.262    12880.846    3838.1528    8360.6318    308.68326    14020 
291000000   -938.20047    11261.455    13009.468    3869.3932    8330.2618    311.76563    13991 
292000000   -977.35123    11402.349    13074.179    3958.3998    8421.3002    313.31638    13969 
293000000   -967.40722    11493.563     12838.76    3994.7524    8466.2179     307.6747    13986 
294000000   -938.52293    11381.585    12872.907    3896.3354     8423.772      308.493    13992 
295000000   -1005.3825    11147.468    13005.218    3837.9223    8314.9278    311.66377    14013 
296000000   -979.82841    11513.119    12774.195     4001.786    8491.1618    306.12742    13988 
297000000   -936.58743    11496.446    12870.222    3929.4464    8503.5869    308.42865    13982 
298000000   -928.70929    11332.627    12702.631    3873.9451     8387.391    304.41241    13983 
299000000   -990.85338    11445.389    12889.856    3860.8114    8575.4312    308.89917    14003 
300000000   -899.78265    11573.131    12901.467    3986.9943    8485.9193    309.17743    14000 
301000000   -977.76654    11238.776    13123.578    3946.7263    8269.8162    314.50022    14000 
302000000    -955.8001     11384.04    12837.146    3930.0974    8409.7428      307.636    14024 
303000000   -1086.5858    11198.858    12738.502    3884.6519    8400.7914    305.27205    14031 
304000000   -1068.8997    11370.868    12993.532    3898.4905    8541.2776    311.38372    14023 
305000000   -1010.7365     11540.79    12832.659    4000.0774    8551.4488    307.52848    13979 
306000000   -958.19947    11310.304    12914.252    3950.8341    8317.6694    309.48383    13991 
307000000   -961.06198    11287.358    12988.959    3850.9636     8397.456    311.27413    14002 
308000000   -957.48737    11288.779    12870.726     3945.533    8300.7331    308.44073    13998 
309000000   -849.24298    11490.663    12949.427     3996.001    8343.9052    310.32676    13968 
310000000   -897.26724    11525.885     13112.48    4009.9892     8413.163    314.23426    13970 
311000000   -982.56687    11360.471    12998.701    3973.1039    8369.9337     311.5076    14001 
312000000   -893.35858    11471.488    12871.041    3905.3836    8459.4628    308.44829    13994 
313000000   -901.07171    11488.986     13020.46     3966.563    8423.4946    312.02904    13937 
314000000   -928.35732    11432.378    13009.569     4010.757    8349.9786    311.76804    13997 
315000000   -929.72909    11439.105    12832.508    3950.0667     8418.767    307.52485    13985 
316000000   -925.74912    11423.757    12958.296    3893.7248    8455.7814    310.53931    13983 
317000000   -893.72611     11513.92    12762.159    3933.1282    8474.5179    305.83898    13979 
318000000   -883.40733    11349.661    12980.113    3901.7431    8331.3251    311.06213    13998 
319000000   -1009.1241     11365.81    13079.304    3941.1581    8433.7756    313.43922    14001 
320000000   -958.30263    11364.841    12817.603     3901.231    8421.9124    307.16767    13998 
321000000   -946.22426    11401.375    13008.665    3999.2512    8348.3484    311.74638    13963 
322000000   -893.16035    11395.664    12873.733    3950.7452    8338.0792    308.51279    13996 
323000000   -909.49069    11439.577    12878.384      3956.21    8392.8573    308.62425    13967 
324000000    -930.0013    11374.565    12945.428    3848.5758    8455.9903    310.23093    14019 
325000000   -933.38892     11360.97    12960.567    3824.8968    8469.4618    310.59372    13999 
326000000   -964.88314     11311.79     12847.31    3907.7185    8368.9549    307.87957    13996 
327000000   -991.65167    11245.988    12839.291    3818.8215    8418.8181     307.6874    14004 
328000000   -952.16522    11451.851    12982.902    3962.0147    8442.0015    311.12899    14007 
329000000   -975.96097    11322.721    12896.041    3880.3556    8418.3263    309.04739    14009 
330000000   -974.93781     11235.19    13010.915    3855.1104    8355.0178    311.80029    14025 
331000000   -999.45807    11350.247    12837.375    3926.6126    8423.0929    307.64151    14010 
332000000    -1013.768    11283.028    12807.924     3893.318    8403.4779    306.93571    14012 
333000000   -1017.8799    11285.315    12909.696    3879.6212    8423.5734    309.37463    14026 
334000000   -1054.5027    11199.209    13044.721    3836.6249    8417.0865    312.61044    14041 
335000000   -965.99291    11471.704    12951.941    3884.5775    8553.1199    310.38702    14001 
336000000   -980.52221    11278.792    13036.756    3869.7469     8389.567    312.41956    13997 
337000000   -998.66693     11247.46    12850.595    3876.2783    8369.8481    307.95831    14030 
338000000     -1003.36    11246.593     12912.58    3871.4708    8378.4825    309.44375    14039 
339000000   -1002.9304    11287.126     12967.69    3935.2728    8354.7836    310.76444    14008 
340000000   -998.84033    11234.069    12949.091    3865.5821    8367.3269    310.31872    13988 
341000000   -932.01077    11177.053    12818.325    3868.6773     8240.386    307.18498    13989 
342000000   -973.38667    11287.011    12912.432     3918.473    8341.9242     309.4402    14001 
343000000   -1036.8464    11389.142    13079.135    3910.9923    8514.9961    313.43516    13997 
344000000    -1021.892    11262.881    12898.959    3907.4168    8377.3561    309.11732    14022 
345000000   -986.58511    11215.046    12911.869     3843.847    8357.7838     309.4267    14015 
346000000   -1029.7284    11364.452    12979.685    3907.8282    8486.3523    311.05189    14021 
347000000   -979.91359    11354.081    12932.978    3908.1058    8425.8886    309.93258    13987 
348000000   -1049.3901    11154.183    12972.475    3865.3705    8338.2031    310.87911    14013 
349000000   -1042.4203    11323.325    12870.517    3865.5103    8500.2346    308.43573    14063 
350000000   -957.41273    11481.535    12947.564     3936.125    8502.8233    310.28211    13996 
351000000   -933.97249    11364.285    12990.464    3946.2989    8351.9587     311.3102    13968 
352000000   -954.89307     11406.93    12837.195      3905.82    8456.0031    307.63717    13992 
353000000   -974.94288    11233.907    12967.579     3835.147    8373.7026    310.76178    14015 
354000000   -1016.7346    11246.854    12949.906    3912.6922    8350.8964    310.33824    14027 
355000000   -1061.8162    11242.031    12921.811    3984.5683    8319.2792    309.66496    13997 
356000000   -999.70402    11328.476    12952.545    3879.2004    8448.9795    310.40149    13997 
357000000   -961.61538     11267.52     12977.41    3928.1527    8300.9826    310.99736    14010 
358000000    -981.7982    11187.147    12847.317    3809.0053    8359.9395    307.87976    14012 
359000000   -1017.5692    11319.006    13010.285    3880.5502     8456.025    311.78521    14012 
360000000   -972.71476    11511.571     12928.46    3954.9708    8529.3151    309.82431    14017 
361000000   -982.23368    11453.632    13072.538    3952.9252    8482.9409    313.27707    14006 
362000000   -1003.1408    11354.705    13011.019    3934.4551    8423.3904     311.8028    13992 
363000000   -913.33196    11407.049    13020.017    3884.1844    8436.1961    312.01843    13999 
364000000   -1030.7591    11270.138    12973.684    3965.1808    8335.7165    310.90806    14017 
365000000   -1011.6921    11309.969    13014.773    3973.2435    8348.4172    311.89276    13995 
366000000   -1034.3701    11217.632      12975.1     3880.959    8371.0427      310.942    14023 
367000000   -991.66517    11463.034    12898.223    3917.3096    8537.3893    309.09968    14015 
368000000    -943.8719    11481.323    12892.026    3891.8125    8533.3819    308.95117    13968 
369000000    -1012.828    11379.509     13022.38    3960.8305    8431.5065    312.07504    14019 
370000000   -921.42209    11424.361    12858.384    3916.9624    8428.8207    308.14495    13981 
371000000   -1049.5391    11175.122    12880.167    3857.1202     8367.541    308.66699    14018 
372000000   -1023.0887    11301.715    12847.076    3948.3479    8376.4556    307.87397    14014 
373000000   -990.63017    11401.955    13009.941    3959.8547    8432.7308    311.77697    14006 
374000000   -960.39218    11321.239    13004.998    3932.2093    8349.4218    311.65849    13988 
375000000   -966.53821    11263.533    12946.625    3874.3273     8355.744    310.25963    14026 
376000000   -979.93655    11264.027    12860.608    3867.5144    8376.4491    308.19825    13996 
377000000   -998.75304    11391.678    13009.832    3979.4987    8410.9318    311.77436    13986 
378000000   -982.98573    11412.851    12820.477    3988.7578    8407.0787    307.23655    14016 
379000000   -979.10859    11449.139    13007.804    3996.9649    8431.2826    311.72573    13970 
380000000   -968.88419    11151.524    12788.417    3838.9731    8281.4348    306.46824    14024 
381000000   -973.55136    11313.134    13071.318    3879.0732    8407.6126    313.24782    14013 
382000000   -906.58236    11288.395    12752.111    3860.5564    8334.4207    305.59818    14008 
383000000   -923.28916    11296.891    12946.694    3900.0219    8320.1583    310.26127    13996 
384000000   -969.48348    11333.049    12882.663    3918.7093    8383.8236    308.72679    13982 
385000000   -933.30627    11374.464    12929.839    3932.4607    8375.3095    309.85736    14011 
386000000   -981.75644    11421.426    12954.431    4004.8014    8398.3812    310.44667    13999 
387000000   -927.26058    11399.963    12949.747    3938.2063    8389.0168    310.33443    13977 
388000000   -947.57609    11571.278    12956.615    3943.6582    8575.1962    310.49902    13957 
389000000   -976.86798    11459.583    12845.672    3920.7907    8515.6608    307.84033    13986 
390000000   -982.42069    11302.243    13012.935    3925.1286    8359.5353     311.8487    13992 
391000000   -993.27345    11362.751    13002.766    3918.0895    8437.9346    311.60502    14006 
392000000   -924.99388    11241.516    12902.287    3851.2508     8315.259    309.19707    14027 
393000000   -905.14994    11370.856    12911.428    3961.1788    8314.8274    309.41614    13988 
394000000   -912.51658    11554.614    12782.728    3982.5622     8484.568    306.33191    13964 
395000000   -945.35798     11374.75    12765.414    3834.7034    8485.4041    305.91699    13995 
396000000   -884.70697    11559.613    12924.903    3986.7071    8457.6125    309.73906    13974 
397000000   -950.20029    11409.602    12941.302    3929.3924    8430.4095    310.13206    13973 
398000000   -905.38271     11516.46    12884.313    3995.6653    8426.1779    308.76634    13967 
399000000   -893.39854    11384.291    13049.485    3934.9765    8342.7126     312.7246    13992 
400000000   -938.18928    11375.257    12787.372    3890.2486    8423.1977    306.44319    13991 
401000000   -934.53495    11416.046    12870.597    3858.4716    8492.1091    308.43763    13988 
402000000   -920.11769    11460.225    12831.592    3912.4551    8467.8874    307.50291    13979 
403000000   -928.25262    11303.655    12903.107    3745.4451     8486.462    309.21673    13996 
404000000   -949.88636    11525.542    13100.513    3986.6415    8488.7864    313.94746    13976 
405000000   -895.76196    11425.968    12906.763    4028.7357    8292.9943    309.30433    13974 
406000000    -963.5571     11619.57    12834.118     3985.332    8597.7949    307.56344    13986 
407000000   -932.76054    11471.978    12846.954    3961.6722    8443.0667    307.87106    13992 
408000000   -909.99329    11442.871    12926.669    3979.0427    8373.8214    309.78137    13987 
409000000   -943.66806    11319.991    12845.962      3949.03    8314.6289    307.84728    13977 
410000000   -948.70815    11364.897    12901.549      3911.09    8402.5149     309.1794    13998 
411000000   -892.15562    11333.697    12965.264    3872.6846    8353.1682    310.70628    13977 
412000000   -950.25251    11249.394    12962.637    3886.4598    8313.1863    310.64333    13997 
413000000   -985.30168    11292.247     12753.72    3842.0934    8435.4556    305.63673    13994 
414000000   -921.37493      11462.1    12965.617    4015.8625    8367.6119    310.71476    13981 
415000000   -957.93115    11350.295    13047.095    3871.1468    8437.0793    312.66734    13993 
416000000   -968.00073    11312.496    13039.394    3940.4243    8340.0724    312.48279    13999 
417000000   -981.73899    11387.798    13057.385    3906.8193    8462.7173    312.91394    13998 
418000000   -912.20357    11376.055    12959.209    3885.1028    8403.1556    310.56118    13992 
419000000   -954.10881    11331.224    12839.135       3928.5    8356.8325    307.68368    14027 
420000000   -941.95951    11440.662    12932.042    3960.7341     8421.887    309.91014    13986 
421000000   -938.24804    11392.773    13042.588     3906.746    8424.2751    312.55932    13974 
422000000   -915.34801    11400.853    13045.394    3901.4377    8414.7631    312.62658    14001 
423000000   -958.15555    11417.542    13105.088    3957.7041    8417.9935     314.0571    14009 
424000000   -933.77816    11405.636    12965.949    4007.3445    8332.0694     310.7227    13984 
425000000   -878.08421    11477.392    12839.316    3943.9833    8411.4932      307.688    13985 
426000000   -932.86728     11191.41    12966.382    3863.5542     8260.723    310.73308    13978 
427000000   -980.67685    11285.352    12910.151    3844.9684    8421.0605    309.38554    14022 
428000000   -880.09273    11226.985     12932.59    3849.0742     8258.004    309.92328    13979 
429000000   -927.53482    11498.409    12887.507    3977.8864    8448.0578    308.84289    13990 
430000000   -933.24505    11477.933    13029.971    3951.1895    8459.9885    312.25696    13962 
431000000   -901.29963    11455.406    12908.758    3929.3431    8427.3625    309.35216    13983 
432000000   -961.61887    11421.852     12915.92    3875.8696    8507.6016     309.5238    13988 
433000000   -1003.8813    11326.501    12877.112    3859.4296    8470.9528    308.59377    14004 
434000000   -929.99005    11392.994    13061.106    3936.1369    8386.8469    313.00309    13994 
435000000   -980.55655    11443.675     12872.86    3964.2812    8459.9506    308.49188    13996 
436000000    -1057.052    11270.182    12918.617    3901.6394    8425.5948    309.58841    14040 
437000000   -980.67545    11373.949    12939.429    3973.1511    8381.4728    310.08717    14034 
438000000   -979.91255    11274.456    12879.719    3907.3733    8346.9952    308.65625    13990 
439000000   -963.06863    11255.697    12846.759    3896.6624     8322.103    307.86639    13992 
440000000   -912.37896    11296.022    12955.501    3856.8813    8351.5198    310.47233    13976 
441000000   -931.16143    11389.208    12878.197    3875.7616     8444.608    308.61978    13981 
442000000   -935.76072    11279.854    12766.588    3881.4156    8334.1987    305.94512    14009 
443000000   -915.67309    11296.535    13032.757    3838.7019    8373.5066    312.32373    14020 
444000000   -900.44423    11362.096    12939.989    3845.8244    8416.7154     310.1006    13974 
445000000   -926.06219     11453.29    12900.248    3931.5591    8447.7932    309.14821    13984 
446000000   -965.63552     11459.27    12866.426    3950.6358    8474.2702     308.3377    13986 
447000000   -977.08786    11332.296    12896.189    3850.1121    8459.2715    309.05095    14026 
448000000   -981.96446    11423.909    12928.769     3942.221    8463.6528     309.8317    13996 
449000000    -950.2728    11318.723     12969.91    3930.1148    8338.8813    310.81763    13990 
450000000   -926.32898    11256.879    12958.988    3851.9838    8331.2246    310.55589    14000 
451000000   -1021.9947     11192.43    12901.423    3891.7293     8322.695    309.17637    14011 
452000000    -992.6705     11247.87    12959.177    3881.6326    8358.9077    310.56043    13976 
453000000   -953.00276    11420.396    12931.349    3955.8858    8417.5126    309.89353    13969 
454000000   -945.30932    11475.955    12925.169    4043.9857    8377.2791    309.74543    13975 
455000000   -978.14912    11441.704    12933.685    3927.3441    8492.5087    309.94952    13992 
456000000   -1033.7698     11325.12    12809.331    3967.7615    8391.1288    306.96943    14000 
457000000   -949.95269    11463.318    12867.904    3975.7795    8437.4917    308.37311    13975 
458000000    -924.1943    11496.427     12965.53    3906.5147    8514.1065    310.71267    13990 
459000000   -978.58857    11265.384    12785.309    3856.9889    8386.9841    306.39375    13982 
460000000   -947.60075    11387.201    13114.053    3934.6273     8400.174    314.27195    13989 
461000000   -896.56101    11377.186     13028.29    3895.1376    8378.6092    312.21668    13988 
462000000   -933.20674    11452.684    13057.853    3923.3989    8462.4914    312.92515    13991 
463000000   -953.12616    11278.983    12928.249    3837.6515    8394.4577    309.81925    13992 
464000000   -933.51873    11324.545    12944.119    3907.9489    8350.1147    310.19956    14017 
465000000   -897.71614    11365.072    12998.353    3927.9521    8334.8364    311.49926    13964 
466000000    -919.6458    11443.932    13023.553    3942.6777    8420.9002    312.10317    14021 
467000000   -962.98939    11335.076    12944.868    3917.4256    8380.6398     310.2175    13984 
468000000   -935.09039    11341.663    12977.669    3847.7494    8429.0039    311.00357    13980 
469000000   -894.08964    11391.121     12960.74    3852.4163    8432.7945    310.59787    13983 
470000000   -987.06044    11268.503    12740.549    3821.9651    8433.5986     305.3211    14006 
471000000   -941.85795    11318.575    12682.705    3936.0085    8324.4247    303.93489    14012 
472000000   -956.31793    11487.752    12886.936    3969.7372    8474.3323    308.82919    14012 
473000000   -992.78626    11400.958    12876.194    3964.4062    8429.3381    308.57177    13995 
474000000   -1016.5132    11282.042      13036.6    3926.1667     8372.389    312.41583    13985 
475000000   -973.10865    11355.568      12801.5    3919.1264    8409.5498    306.78178    13993 
476000000   -952.88376    11318.159     12927.79    3935.8314     8335.211    309.80825    13958 
477000000   -961.64942    11342.596     12929.18    3847.3349    8456.9104    309.84156    14024 
478000000    -1003.114    11312.364     13070.08    3915.2629    8400.2153    313.21815    13988 
479000000   -964.80944    11420.467    12938.238    3962.0627    8423.2141    310.05863    14016 
480000000   -955.01752    11348.555    12990.385    3955.9006    8347.6717    311.30831    13971 
481000000   -952.72665    11400.504    13015.235    3980.4545    8372.7764    311.90381    13985 
482000000   -874.12227    11379.972    12842.918    3931.6661    8322.4285    307.77432    13993 
483000000   -939.33228    11432.776    12913.602    3936.2166    8435.8914    309.46824    13992 
484000000   -893.34962    11530.363    13029.541    3955.0976     8468.615    312.24667    13961 
485000000    -958.0673    11397.836    13028.798    3957.4201    8398.4828    312.22885    13982 
486000000   -941.96991    11354.431    12914.898    3895.4031     8400.998    309.49931    13966 
487000000    -977.0427    11444.876    12827.596    3930.0345    8491.8839    307.40713    14001 
488000000   -950.54117    11318.965    12854.544     3847.743    8421.7629    308.05294    13978 
489000000   -1008.3998    11387.581    12832.867      3851.58    8544.4005    307.53347    14001 
490000000   -979.65034    11320.959    12995.177    3874.9846    8425.6243    311.42315    13982 
491000000   -972.27726    11194.086     12828.79    3896.2897    8270.0737    307.43577    14017 
492000000   -976.65256    11359.579    13174.488    3883.8197    8452.4114    315.72024    13996 
493000000   -997.35799    11319.494    12892.798    3895.5235    8421.3289    308.96969    14022 
494000000   -1036.0531    11228.666    12937.656    3957.2735    8307.4458    310.04469    14017 
495000000   -1006.9553    11176.948    12908.868    3851.7105    8332.1927    309.35478    14030 
496000000   -1045.6027    11495.343    12924.173    3993.4795     8547.466    309.72158    14007 
497000000   -1028.3523    11276.381    13046.407    3939.4672    8365.2656    312.65085    14052 
498000000   -991.01577    11373.428    12826.723    3959.9123    8404.5313    307.38622    14015 
499000000   -934.12975    11385.473    13036.329    3928.8501     8390.753    312.40933    13967 
500000000   -924.46165    11310.464    13014.499    3904.1292    8330.7967    311.88619    13976 
Loop time of 139001 on 28 procs for 500000000 steps with 14000 atoms

Performance: 7769.745 ns/day, 0.003 hours/ns, 3597.104 timesteps/s
99.5% CPU use with 28 MPI tasks x no OpenMP threads

MPI task timing breakdown:
Section |  min time  |  avg time  |  max time  |%varavg| %total
---------------------------------------------------------------
Pair    | 7923.3     | 9371.5     | 12678      |1228.1 |  6.74
Bond    | 5583.3     | 6607.2     | 12184      |2387.1 |  4.75
Neigh   | 29098      | 29381      | 29769      |  88.9 | 21.14
Comm    | 41859      | 51365      | 54100      |1422.2 | 36.95
Output  | 0.64909    | 0.65089    | 0.65244    |   0.1 |  0.00
Modify  | 26065      | 26816      | 27703      | 349.5 | 19.29
Other   |            | 1.546e+04  |            |       | 11.12

Nlocal:    500 ave 548 max 466 min
Histogram: 5 0 3 6 4 4 1 4 0 1
Nghost:    402.964 ave 580 max 262 min
Histogram: 4 3 1 4 6 2 3 1 3 1
Neighs:    2162.18 ave 2761 max 1577 min
Histogram: 2 1 5 4 2 4 3 4 1 2

Total # of neighbors = 60541
Ave neighs/atom = 4.32436
Ave special neighs/atom = 6.10029
Neighbor list builds = 100018393
Dangerous builds = 0
System init for write_restart ...
Total wall time: 38:36:45
