LAMMPS (5 Jun 2019)
Reading data file ...
  orthogonal box = (-420 -420 -420) to (420 420 420)
  2 by 2 by 7 MPI processor grid
  reading atoms ...
  14000 atoms
  scanning bonds ...
  51 = max bonds/atom
  scanning angles ...
  1 = max angles/atom
  reading bonds ...
  13800 bonds
  reading angles ...
  13600 angles
Finding 1-2 1-3 1-4 neighbors ...
  special bond factors lj:   0          0          0         
  special bond factors coul: 0          0          0         
  2 = max # of 1-2 neighbors
  2 = max # of 1-3 neighbors
  4 = max # of 1-4 neighbors
  56 = max # of special neighbors
  special bonds CPU = 0.00170039 secs
  read_data CPU = 0.054519 secs
Finding 1-2 1-3 1-4 neighbors ...
  special bond factors lj:   1          1          1         
  special bond factors coul: 0          0          0         
  2 = max # of 1-2 neighbors
  2 = max # of 1-3 neighbors
  4 = max # of 1-4 neighbors
  56 = max # of special neighbors
  special bonds CPU = 0.000647228 secs
WARNING: Using 'neigh_modify every 1 delay 0 check yes' setting during minimization (../min.cpp:168)
Neighbor list info ...
  update every 1 steps, delay 0 steps, check yes
  max neighbors/atom: 2000, page size: 100000
  master list distance cutoff = 26.9
  ghost atom cutoff = 26.9
  binsize = 13.45, bins = 63 63 63
  1 neighbor lists, perpetual/occasional/extra = 1 0 0
  (1) pair lj/cut, perpetual
      attributes: half, newton on
      pair build: half/bin/newton
      stencil: half/bin/3d/newton
      bin: standard
Setting up cg style minimization ...
  Unit style    : real
  Current step  : 0
Per MPI rank memory allocation (min/avg/max) = 1.165 | 13.79 | 17.67 Mbytes
Step Temp E_pair E_mol TotEng Press 
       0            0 2.4262116e+12      2649600 2.4262142e+12 1.1227655e+09 
    2593            0   -3213.8545    8077.7575     4863.903  0.022358999 
Loop time of 0.538466 on 28 procs for 2593 steps with 14000 atoms

99.0% CPU use with 28 MPI tasks x no OpenMP threads

Minimization stats:
  Stopping criterion = energy tolerance
  Energy initial, next-to-last, final = 
     2.42621422944e+12      4864.36586087      4863.90297658
  Force two-norm initial, final = 2.10957e+10 3.95325
  Force max component initial, final = 1.05441e+09 0.95274
  Final line search alpha, max atom move = 0.049396 0.0470616
  Iterations, force evaluations = 2593 2659

MPI task timing breakdown:
Section |  min time  |  avg time  |  max time  |%varavg| %total
---------------------------------------------------------------
Pair    | 0.037173   | 0.12544    | 0.23143    |  16.2 | 23.30
Bond    | 0.011717   | 0.032697   | 0.058601   |   7.3 |  6.07
Neigh   | 0.069682   | 0.070513   | 0.07136    |   0.1 | 13.10
Comm    | 0.069525   | 0.18593    | 0.30956    |  15.7 | 34.53
Output  | 0          | 0          | 0          |   0.0 |  0.00
Modify  | 0          | 0          | 0          |   0.0 |  0.00
Other   |            | 0.1239     |            |       | 23.01

Nlocal:    500 ave 894 max 183 min
Histogram: 3 3 3 4 6 0 2 2 3 2
Nghost:    312.964 ave 490 max 136 min
Histogram: 3 3 2 1 4 3 4 4 1 3
Neighs:    3601.79 ave 6560 max 1006 min
Histogram: 4 1 5 2 7 0 1 1 5 2

Total # of neighbors = 100850
Ave neighs/atom = 7.20357
Ave special neighs/atom = 5.82857
Neighbor list builds = 165
Dangerous builds = 0
Setting up Verlet run ...
  Unit style    : real
  Current step  : 2593
  Time step     : 0.1
Per MPI rank memory allocation (min/avg/max) = 1.127 | 12.9 | 16.54 Mbytes
Step Temp E_pair E_mol TotEng Press 
    2593            0   -3213.8545    8077.7575     4863.903  0.022358999 
   12593    225.42553   -2651.8259    11535.285    18290.097  -0.98604846 
Loop time of 1.27732 on 28 procs for 10000 steps with 14000 atoms

Performance: 67.642 ns/day, 0.355 hours/ns, 7828.891 timesteps/s
99.6% CPU use with 28 MPI tasks x no OpenMP threads

MPI task timing breakdown:
Section |  min time  |  avg time  |  max time  |%varavg| %total
---------------------------------------------------------------
Pair    | 0.05035    | 0.18881    | 0.38446    |  22.8 | 14.78
Bond    | 0.03679    | 0.10447    | 0.18607    |  13.0 |  8.18
Neigh   | 0.0022242  | 0.0022613  | 0.0023006  |   0.0 |  0.18
Comm    | 0.21945    | 0.46644    | 0.69788    |  19.9 | 36.52
Output  | 4.1269e-05 | 6.4686e-05 | 9.3702e-05 |   0.0 |  0.01
Modify  | 0.089263   | 0.24149    | 0.42828    |  19.6 | 18.91
Other   |            | 0.2738     |            |       | 21.43

Nlocal:    500 ave 899 max 181 min
Histogram: 3 3 4 3 6 0 2 2 3 2
Nghost:    313.357 ave 486 max 138 min
Histogram: 3 3 2 2 3 4 3 3 2 3
Neighs:    3611.46 ave 6595 max 993 min
Histogram: 3 2 4 3 7 0 1 2 3 3

Total # of neighbors = 101121
Ave neighs/atom = 7.22293
Ave special neighs/atom = 5.82857
Neighbor list builds = 5
Dangerous builds = 0
4000 atoms in group rxnSites
Neighbor list info ...
  update every 1 steps, delay 1 steps, check yes
  max neighbors/atom: 2000, page size: 100000
  master list distance cutoff = 26.9
  ghost atom cutoff = 26.9
  binsize = 13.45, bins = 63 63 63
  2 neighbor lists, perpetual/occasional/extra = 1 1 0
  (1) pair lj/cut, perpetual
      attributes: half, newton on
      pair build: half/bin/newton
      stencil: half/bin/3d/newton
      bin: standard
  (2) fix bond/create/random, occasional, copy from (1)
      attributes: half, newton on
      pair build: copy
      stencil: none
      bin: none
Setting up Verlet run ...
  Unit style    : real
  Current step  : 0
  Time step     : 25
Per MPI rank memory allocation (min/avg/max) = 17.76 | 18.28 | 18.83 Mbytes
Step E_pair PotEng KinEng E_bond E_angle Temp Bonds 
       0   -2651.8259    8883.4588    9406.6378    3029.4428    8505.8418    225.42553    13800 
 1000000   -893.50005    11500.931    13041.334    3930.8577    8463.5732    312.52927    13936 
 2000000   -1035.2765    11299.146    12772.862    3823.6908    8510.7319    306.09546    13991 
 3000000   -955.46517    11339.499    12839.386    3969.5276    8325.4371    307.68969    13986 
 4000000   -890.60311    11361.021    12903.104    3863.2453    8388.3788    309.21667    13987 
 5000000   -1048.9684    11398.855    12843.844    3946.8355    8500.9879    307.79653    14036 
 6000000   -1005.6699    11243.358    12961.115    3808.7397    8440.2878    310.60686    14001 
 7000000   -983.61744    11334.457    12826.595    3974.7999    8343.2744    307.38316    14000 
 8000000   -1006.8279    11234.333    12924.515     3898.371    8342.7902    309.72976    14039 
 9000000   -1066.1284    11270.243    12768.776    3930.8721    8405.4989    305.99755    14025 
10000000    -1049.858    11073.935    13011.649    3839.7021    8284.0907    311.81789    14024 
11000000   -1076.6225    11068.693    13029.958    3862.5212    8282.7942    312.25664    14024 
12000000   -1061.6593    11262.166    12811.468    3926.0128    8397.8126    307.02065    14022 
13000000   -1043.7022    11237.146    13006.459    3903.6693     8377.179    311.69352    13995 
14000000   -1042.1203    11322.712    12993.093    3932.4648    8432.3673    311.37321    14012 
15000000   -1031.5665    11246.821    12885.625     3945.589    8332.7982    308.79778    14029 
16000000    -951.6376    11451.924    13027.914    3946.4968    8457.0643    312.20766    13998 
17000000   -1028.1607    11308.707    13109.838    3893.3412    8443.5268    314.17093    14031 
18000000   -956.11631    11448.996    12934.916    3964.9457    8440.1668    309.97901    13992 
19000000   -974.70919     11132.95    12997.427    3824.6742    8282.9853    311.47706    14004 
20000000   -950.28165    11337.708    13032.378    3911.9621    8376.0274    312.31464    13994 
21000000   -930.30479    11353.022    12900.844    3898.7946    8384.5317     309.1625    13991 
22000000   -1022.3023    11401.904    12799.555    3919.0338    8505.1726    306.73517    14020 
23000000   -872.51766    11375.847    13142.124    3848.7214    8399.6432    314.94467    13983 
24000000   -927.61688     11436.03    13008.742    3890.8391    8472.8076    311.74821    13971 
25000000    -903.1123    11555.854    13085.089    3998.1581     8460.808    313.57783    13965 
26000000   -936.99058    11474.602    13007.458     3967.359    8444.2332    311.71745    13992 
27000000    -987.2967    11394.248    12824.207    3924.4905    8457.0544    307.32593    13991 
28000000   -998.85581    11413.994    12850.997    3933.9622    8478.8872    307.96794    13984 
29000000   -945.17658    11440.894    12952.118    3896.4257    8489.6452    310.39125    14006 
30000000   -927.25589    11434.351    13049.908    3947.5457    8414.0615    312.73475    14017 
31000000   -845.21465    11430.869     12992.27    3957.5427    8318.5412    311.35347    13963 
32000000   -910.84681    11513.547    12959.919    3977.6101    8446.7834     310.5782    13949 
33000000   -939.90788    11393.364    12924.833    3883.7395    8449.5325    309.73738    13986 
34000000   -983.04518    11295.781    12859.879    3943.5349    8335.2909    308.18079    13997 
35000000    -987.7723     11282.61    12782.341    3863.6073    8406.7751    306.32262    13989 
36000000   -1006.2088    11295.784    12974.562    3849.5629    8452.4304    310.92912    13997 
37000000   -960.13316    11319.157     12946.51    3944.4545     8334.836    310.25686    13992 
38000000   -986.72404    11487.534    12962.965     3973.702    8500.5565    310.65121    13999 
39000000    -966.9615    11437.199    12953.093    3938.9817    8465.1793    310.41462    13998 
40000000   -947.38018    11173.995    12888.199    3870.4279    8250.9469    308.85947    14011 
41000000   -991.12604    11367.204    12974.455    3897.5896    8460.7408    310.92655    13977 
42000000   -963.00082    11363.069    12911.225    3859.1873     8466.883    309.41127    13965 
43000000   -968.57218    11299.102    12869.386     3801.072    8466.6017    308.40862    13994 
44000000   -935.29918    11386.364    12859.508    3937.6971     8383.966     308.1719    13966 
45000000    -948.0449    11286.028    13105.161    4004.0622    8230.0108    314.05887    14003 
46000000   -962.90153    11350.421    12896.865    3951.0073    8362.3152    309.06714    14002 
47000000   -948.53735    11399.557      12987.7    3927.1379     8420.956    311.24395    14010 
48000000   -932.34186    11516.497    12829.633    4030.8632    8417.9754    307.45595    13975 
49000000     -854.478    11438.938     12984.98    3926.0128     8367.403    311.17877    13963 
50000000   -927.86696    11313.265    12850.599    3877.7843    8363.3472    307.95841    13990 
51000000   -967.30888    11408.974    12889.344    3979.2534    8397.0295    308.88691    14004 
52000000   -887.99948    11632.163    12948.159    4027.7762    8492.3868    310.29639    13973 
53000000   -902.79769    11462.233    13068.859    4021.2734    8343.7572     313.1889    13978 
54000000   -987.65057    11252.848    12907.682    3869.4519    8371.0467    309.32636    13992 
55000000   -893.36594    11411.104    12962.573    3894.8925     8409.577    310.64181    14002 
56000000   -973.44116     11300.53    12899.872    3902.6291    8371.3419     309.1392    14002 
57000000   -958.40817    11348.191    12876.882    3915.0814    8391.5178    308.58827    13995 
58000000   -1037.5078    11287.149    12883.871    3941.8452    8382.8118    308.75575    14018 
59000000   -968.70948    11587.238    12950.927    3973.8459    8582.1012    310.36272    14024 
60000000   -951.79638    11443.785    13055.073    3967.5333    8428.0478    312.85851    13978 
61000000   -917.38223    11396.203    13034.919    3918.8487     8394.737    312.37554    13994 
62000000    -908.7053     11569.37    12831.422    3977.3614    8500.7143    307.49884    13975 
63000000    -919.4959    11458.436    13071.888    3999.7755    8378.1564    313.26148    13983 
64000000   -963.37743    11327.697    12874.831     3854.012    8437.0619    308.53911    13997 
65000000   -925.63028    11445.306    12794.866    3965.9265    8405.0098    306.62279    13962 
66000000   -982.01305    11494.623    12973.344    3962.3485    8514.2874    310.89993    14000 
67000000   -951.19104    11328.836    12983.551    3858.1877    8421.8389    311.14453    14001 
68000000   -926.73293    11615.754    12881.875    4033.7289    8508.7582    308.70791    13997 
69000000   -931.74457    11372.236    12988.458    3894.9159    8409.0645    311.26213    14004 
70000000    -909.4922    11484.609    12950.335    3999.1733    8394.9279    310.34853    13962 
71000000   -949.90614    11499.979    12988.631    4060.8673    8389.0182    311.26628    13977 
72000000   -945.11878    11457.281     12869.25    3997.2744    8405.1256    308.40537    13971 
73000000   -928.31283    11405.518    12817.899    3943.6616    8390.1695    307.17476    13976 
74000000   -936.83021    11541.867    12802.153    4008.0822    8470.6146    306.79742    13973 
75000000   -960.94639    11422.748    12905.437    3897.3476    8486.3465    309.27256    13994 
76000000    -950.2181    11375.417    13142.848    3878.8031    8446.8321    314.96201    14006 
77000000   -1018.5712    11348.795    13013.879    3971.1197    8396.2467    311.87133    14010 
78000000   -955.04797    11358.122    13030.851    3847.1796    8465.9907    312.27805    13993 
79000000   -1049.0032    11262.713    12898.433    3857.2476    8454.4687    309.10472    14039 
80000000   -974.55242    11451.835     12928.62      3941.89    8484.4969    309.82813    13976 
81000000   -1003.7824    11329.969    12895.229    3837.7621    8495.9893    309.02794    14027 
82000000   -945.28022    11350.339    12848.703    3933.8941    8361.7253    307.91296    14007 
83000000    -1019.498    11389.243    12901.608    3883.5908    8525.1497     309.1808    14028 
84000000   -1021.1127    11464.518    12891.677    3982.8206    8502.8104    308.94281    14007 
85000000   -995.18997    11297.126    12894.296     3898.133    8394.1829    309.00557    14046 
86000000   -1024.3481     11227.55    12704.194     3894.501    8357.3969    304.44986    14015 
87000000   -1003.2747    11241.071    13072.724    3848.1841    8396.1615    313.28153    14010 
88000000   -1020.5803     11133.54    12912.528    3892.1545    8261.9656     309.4425    14026 
89000000   -947.35977    11280.458    12836.858    3863.3436    8364.4742     307.6291    14009 
90000000   -976.60315    11263.528    13008.101    3920.1479    8319.9832    311.73286    14025 
91000000   -1011.9317     11356.65    12956.844    3898.5281    8470.0533    310.50451    14026 
92000000   -1000.3634    11308.828    12859.565    3945.1016    8364.0898    308.17326    14030 
93000000   -1033.5827    11289.188    12912.631    3908.9708    8413.7998    309.44498    13996 
94000000   -993.20514    11232.393    12981.139    3823.0008    8402.5968    311.08674    14030 
95000000    -999.0841    11276.981    13113.385    3926.6196    8349.4458    314.25594    14015 
96000000   -946.30236    11302.808    12761.061    3843.8352    8405.2754    305.81266    14028 
97000000   -1006.3581    11346.693    12994.835    3911.7539    8441.2968    311.41495    14014 
98000000   -1008.2032    11311.858    12819.632     3889.297    8430.7643     307.2163    14003 
99000000   -995.88958    11364.345    12895.345    3857.9771    8502.2578    309.03072    14016 
100000000   -931.95556        11410    12863.195    3902.0189    8439.9366    308.26026    13987 
101000000   -953.55378    11363.926    12964.718    3897.2812    8420.1983     310.6932    13979 
102000000   -967.64387    11339.678    12839.564    3923.3819    8383.9397    307.69396    14001 
103000000   -981.18773    11336.752      12973.9    3959.2046    8358.7347    310.91326    13991 
104000000   -956.57509    11350.379    12950.769    3868.1053    8438.8489    310.35892    13981 
105000000   -1009.9594    11297.581    12987.324    3817.9323    8489.6083    311.23496    14003 
106000000   -923.44707    11324.536    12984.233    3937.8266    8310.1564    311.16088    13982 
107000000   -973.13915    11236.647    12929.977    3835.8742    8373.9119    309.86066    14012 
108000000   -962.18479    11251.219    12991.393    3876.0218    8337.3815    311.33246    14009 
109000000   -992.20285    11316.937    12960.084    3903.9281    8405.2121    310.58215    14032 
110000000   -940.63148    11374.146    12819.372     3910.778         8404    307.21005    14006 
111000000   -948.14122    11369.598    12884.158    3962.4369    8355.3024    308.76263    13982 
112000000   -985.89764    11286.279    12906.344    3852.4135    8419.7633    309.29429    14026 
113000000   -998.35439    11248.672    13016.299    3819.6256    8427.4011    311.92933    14015 
114000000   -993.19245    11304.251    12927.849    3936.5909     8360.853    309.80965    13997 
115000000   -1024.1904    11278.129    12889.579    3897.2107    8405.1087    308.89255    14008 
116000000   -956.57414    11475.947    12937.639    3926.5633    8505.9578    310.04428    14001 
117000000   -1026.9008    11171.887     13030.69     3842.959    8355.8285     312.2742    14031 
118000000   -999.51686    11443.174    12972.236    3947.2513    8495.4397    310.87337    13973 
119000000   -927.82541    11372.572    12978.471    3886.1864    8414.2114    311.02279    13982 
120000000   -936.90169    11377.087    12859.648    3896.5354     8417.453    308.17527    14011 
121000000   -1066.2322    11113.317    12899.326    3889.2206    8290.3291    309.12613    14017 
122000000   -1068.7119    11312.101     13029.04    3875.2316     8505.581    312.23465    14024 
123000000   -1108.5782    11272.004    12905.233    3865.7614    8514.8213    309.26767    14044 
124000000   -1014.4019    11247.149    12748.946    3934.2777    8327.2735    305.52234    13985 
125000000     -975.959    11134.219    12904.436    3877.4907    8232.6876    309.24859    14016 
126000000   -1017.2115    11322.705    12920.472    3908.4984     8431.418    309.63288    13988 
127000000    -1014.436     11321.93    12870.086    3869.6335     8466.732    308.42539    14003 
128000000   -1032.7474    11249.013    12947.601    3902.3704    8379.3905    310.28301    13991 
129000000   -969.12596    11320.644     13012.33    3944.3314    8345.4381    311.83421    14015 
130000000   -970.26227    11464.242    12968.104    3898.1047    8536.3992    310.77435    13985 
131000000   -978.36936    11350.809    13033.745    3939.1786    8390.0001     312.3474    13988 
132000000   -979.09445    11454.474    12810.625    3911.0188    8522.5491    307.00044    13992 
133000000   -1008.6649    11236.887     13068.95    3884.4348    8361.1174    313.19108    14003 
134000000   -957.87679     11361.19    12886.131    3946.3271      8372.74    308.80991    13994 
135000000   -965.32529    11446.028    12863.929    3964.6807    8446.6727    308.27786    13989 
136000000   -947.55709    11321.991    12992.283    3839.5982    8429.9502    311.35378    14006 
137000000   -976.78631    11237.503    12914.729    3907.3877    8306.9017    309.49525    13969 
138000000    -938.8932    11462.051    12971.027     3959.966    8440.9777     310.8444    13979 
139000000    -973.0914    11189.423    12908.358    3851.6738    8310.8407    309.34256    13988 
140000000   -969.91873    11461.036    12873.898     4012.369    8418.5857    308.51674    14002 
141000000   -971.72855    11281.911     12856.89    3926.1682    8327.4715    308.10917    13992 
142000000   -1052.7945    11134.391    12873.184    3831.0549    8356.1304    308.49963    14034 
143000000   -1012.3856    11325.289    13003.387    3887.0753    8450.5997    311.61989    14007 
144000000   -999.97922    11489.718    13019.522    3908.5427    8581.1545    312.00655    14011 
145000000   -1001.0704     11320.49    12959.496    3863.9929    8457.5675    310.56807    13994 
146000000   -949.93263    11319.362    12854.298    3875.2839    8394.0104    308.04705    14020 
147000000   -971.22751    11340.017    13016.433    3944.9514    8366.2931    311.93252    13998 
148000000   -959.20043    11275.315     12966.11     3908.651    8325.8645    310.72657    13988 
149000000   -974.08964    11409.012     13057.93    3884.6253    8498.4762    312.92698    13988 
150000000   -979.65299    11312.424    12933.629    3860.0447    8432.0328    309.94818    13998 
151000000    -1023.354    11366.994    13047.904    3892.9745    8497.3734    312.68671    13992 
152000000   -1055.4013    11186.201    13006.615    3851.4945     8390.108    311.69724    14015 
153000000   -1017.2211    11238.129    12901.656    3865.7206    8389.6298    309.18195    14049 
154000000   -971.63942     11442.92    12846.345    3973.7816     8440.778    307.85646    14012 
155000000   -1028.3253    11395.262    12884.453    3906.7486    8516.8383    308.76971    14003 
156000000   -976.61404    11373.761    12816.469    3983.9809    8366.3946     307.1405    13981 
157000000   -959.77697    11438.394    12851.218     3975.672    8422.4991    307.97323    14004 
158000000   -963.58228    11242.755    13021.167    3842.0853    8364.2523    312.04599    14045 
159000000   -963.19018    11372.207    12817.354    3949.6237    8385.7734     307.1617    13993 
160000000   -995.39419    11308.012    12809.764      3894.64    8408.7658    306.97981    13996 
161000000   -973.48898    11404.762     12897.09    3889.6975    8488.5539    309.07254    14007 
162000000   -982.96935    11317.268    12786.288    3940.9056    8359.3321    306.41722    14004 
163000000   -932.21402    11535.307    12950.127    4029.1926    8438.3286    310.34355    13991 
164000000   -937.75089    11344.248    12957.241    3927.4264    8354.5727    310.51403    13990 
165000000   -976.63939    11464.038    12918.516    3902.9422    8537.7349    309.58599    13993 
166000000   -935.96506    11340.384    12862.394     3929.445    8346.9036    308.24106    13993 
167000000   -1017.0724    11331.834    12877.093    3963.7262    8385.1804    308.59332    14018 
168000000   -945.88499    11439.042    12944.629    3960.0968    8424.8306    310.21178    13978 
169000000   -949.24439    11333.878    12835.201    3905.7078    8377.4149     307.5894    13994 
170000000   -938.33882    11463.463    12925.877    3942.3817    8459.4199    309.76241    13982 
171000000    -910.7593    11366.493    12904.779    3898.6382    8378.6138     309.2568    13972 
172000000   -991.22169     11227.23     13007.22    3825.2555    8393.1962    311.71175    14000 
173000000   -939.52365    11336.876    12925.227       3891.4    8384.9996    309.74683    13997 
174000000   -967.22559    11366.344    12930.893    3904.7887    8428.7814     309.8826    13964 
175000000   -934.47873    11456.543    12915.095    3920.6951    8470.3269    309.50401    13993 
176000000   -1019.3136    11421.828    12884.136    4000.5159    8440.6261    308.76211    13995 
177000000   -962.34154    11351.609    12953.418    3850.4659    8463.4847    310.42242    13989 
178000000   -975.63541    11337.557    12940.693    3922.4236    8390.7691    310.11747    13980 
179000000   -944.59937    11427.255    12981.361    3981.5499    8390.3043    311.09205    14018 
180000000   -970.57842    11395.551    12849.853     3955.909    8410.2207    307.94054    13954 
181000000   -953.18599    11355.429    12905.716    3890.4688    8418.1464    309.27926    13999 
182000000   -974.21771    11281.351    12809.274     3910.868    8344.7004    306.96808    13992 
183000000   -956.17986    11334.437    13029.959    3887.9549    8402.6616    312.25667    13980 
184000000   -939.10767    11312.561    12930.973    3917.0351     8334.634    309.88453    14001 
185000000   -1001.4196    11405.348    12992.557    3959.0708    8447.6966    311.36035    13989 
186000000   -989.60069    11385.155    12897.174     3942.653    8432.1029    309.07455    13996 
187000000   -967.24357    11326.353    12834.602    3845.5804    8448.0159    307.57505    14009 
188000000   -915.10357    11583.642    12965.845    3992.3286    8506.4166    310.72021    13964 
189000000   -962.25141    11332.531    12842.585    3867.3256    8427.4568    307.76635    13983 
190000000   -935.85673    11380.276    12922.106    3936.1124    8380.0208    309.67204    13959 
191000000   -912.31584    11680.034    12979.055    4099.2396    8493.1098     311.0368    13958 
192000000   -964.24637    11451.016    13002.221    3947.7836    8467.4788    311.59196    13987 
193000000   -947.96791    11440.356    12719.733    3997.4522    8390.8715    304.82227    13980 
194000000   -877.52285    11469.466    12830.705    3949.4839    8397.5047    307.48166    13961 
195000000   -935.61614    11282.371    12838.713    3886.5777    8331.4094    307.67357    14003 
196000000   -908.68425    11581.593    12895.359    3965.7289    8524.5485    309.03104    13972 
197000000   -979.30419    11316.668    12826.063    3874.3814    8421.5907     307.3704    13979 
198000000    -900.0695    11500.915    12763.838    3980.4398    8420.5449    305.87922    13966 
199000000   -926.75758    11450.279    12793.437    4026.2566    8350.7802    306.58855    13963 
200000000   -905.37491    11327.607    13008.362     3917.193    8315.7892    311.73912    13995 
201000000    -893.6083    11370.466    12944.663    3877.2867    8386.7874    310.21261    13977 
202000000   -938.23744    11393.339    12742.023    3955.3687    8376.2081    305.35644    13984 
203000000   -973.46124    11369.985    12951.432    3925.5143    8417.9322    310.37482    13998 
204000000   -976.03618     11412.85    12877.849    3948.0616    8440.8241    308.61143    14014 
205000000   -932.34218     11356.53    12887.103    3878.0603    8410.8122     308.8332    13966 
206000000    -938.6496    11394.672    12971.238    3920.1395    8413.1823    310.84947    13977 
207000000   -948.33712    11476.061    12899.727    3978.9991    8445.3992    309.13572    13976 
208000000   -989.68808     11381.93    12767.128    3846.8042    8524.8137    305.95806    14009 
209000000    -964.7546    11365.547    13059.056    3924.6512    8405.6503    312.95397    13986 
210000000   -885.53869    11432.035    12873.243    4020.8035    8296.7701    308.50105    13973 
211000000   -903.93666    11488.016    12937.747    4002.9661    8388.9863    310.04685    13994 
212000000   -909.05174    11470.653    13056.584    3941.5218    8438.1826    312.89474    13973 
213000000   -961.90911    11284.216    12977.349    3869.5735    8376.5521    310.99591    14005 
214000000   -949.13876    11419.051    12990.395    3965.2429    8402.9471    311.30854    13967 
215000000   -926.84415    11518.485     13064.94    4051.0918    8394.2374    313.09498    13990 
216000000   -964.57595    11176.438    13087.468    3840.0048    8301.0091    313.63484    13977 
217000000   -878.36497    11367.708    12950.053    3932.7366    8313.3359    310.34176    13962 
218000000   -946.68576    11479.703    12894.921    3907.4165    8518.9726    309.02056    13964 
219000000   -904.39582     11413.63    12879.107    4008.3807    8309.6456    308.64159    13984 
220000000   -966.89955    11349.143    12905.714    3924.9283    8391.1143    309.27919    14005 
221000000   -930.48517    11449.604    12818.454    3918.4305    8461.6588    307.18807    13973 
222000000   -944.84989     11282.17    12973.303    3933.0949    8293.9245    310.89894    14001 
223000000   -960.40173    11323.844    13052.067    3922.4988     8361.747    312.78649    13984 
224000000   -953.27087    11244.042    12860.842    3934.5827    8262.7298    308.20387    13988 
225000000   -921.15838    11428.918    13014.662    3943.1859    8406.8906     311.8901    13978 
226000000   -940.25112    11319.577    12831.802    3939.4197    8320.4081    307.50793    13991 
227000000   -1002.8189    11367.819    12993.233    3928.1249    8442.5126    311.37656    14005 
228000000   -881.78966    11452.867     12976.83    3898.7657    8435.8904    310.98347    14004 
229000000   -989.67106    11428.603    13155.186    3931.6834    8486.5907    315.25769    13982 
230000000   -950.03458     11351.96    12798.897    3910.5732    8391.4218    306.71938    13996 
231000000   -956.40192    11176.823    12875.347    3822.1916     8311.033    308.55147    14016 
232000000   -956.34206    11453.003     12913.71    3986.5793    8422.7659    309.47082    13983 
233000000   -970.00651    11342.265    12947.963     3896.101    8416.1707    310.29169    14002 
234000000   -968.04132    11339.415    12930.237    3914.5895    8392.8664    309.86689    13992 
235000000   -1019.3903    11324.049    13039.755    3895.3089    8448.1303    312.49144    14022 
236000000   -969.38695    11202.185    12870.672    3906.2356    8265.3366    308.43943    14015 
237000000   -960.58065    11340.657    12804.794    3891.0989     8410.139    306.86071    13982 
238000000   -933.49336    11388.334    12989.117    3848.7083    8473.1196    311.27792    13997 
239000000   -955.73931    11344.626    13020.732    3886.4494     8413.916    312.03555    14020 
240000000   -960.99237    11395.328    12973.592    3879.9794     8476.341    310.90586    13989 
241000000   -995.78067    11300.269    12986.543    3949.4782    8346.5717    311.21624    14011 
242000000   -962.55962    11291.652    13087.836    3908.8993    8345.3119    313.64367    14021 
243000000   -1002.8724    11381.739    13060.438    3956.8661    8427.7457    312.98709    13987 
244000000    -992.7527    11265.009    12982.139    3872.0275     8385.734    311.11069    13994 
245000000   -1029.4188    11120.214    12803.217     3844.614    8305.0187    306.82293    14027 
246000000   -996.58928    11189.157    12910.018     3796.816    8388.9305    309.38236    14011 
247000000   -995.84965     11295.64    12861.119    3944.2273    8347.2623     308.2105    14020 
248000000   -955.74841    11499.788    12853.875    3959.7145    8495.8223    308.03692    13983 
249000000   -957.73369    11426.228    13089.761    3894.5115    8489.4505    313.68981    13975 
250000000   -970.79973     11401.68    12974.655    3947.2144    8425.2656    310.93134    14014 
251000000   -975.13482    11418.879    13034.525    3911.9642    8482.0494    312.36609    13986 
252000000   -960.80402    11278.233     12824.97    3900.4524    8338.5843    307.34421    13990 
253000000   -983.83262    11322.941    12860.743    3907.6351    8399.1384    308.20149    13983 
254000000   -987.30352    11313.346    12902.641    3858.1612    8442.4878    309.20557    13995 
255000000   -990.83711    11222.544    12977.914    3870.9806    8342.4001    311.00944    14009 
256000000   -940.94949    11425.594     12962.64    3909.6401    8456.9032    310.64341    14008 
257000000   -964.91307    11290.967    12926.641    3992.1735    8263.7061    309.78071    13982 
258000000   -938.51662    11320.403    12777.565    3931.8517    8327.0674    306.20818    13978 
259000000   -962.16343    11499.007    12894.955    4044.3406    8416.8294    309.02136    13996 
260000000   -964.99987    11406.239    12894.508    3943.5866    8427.6522    309.01065    14028 
261000000   -929.70065    11295.225    12960.665    3891.3796     8333.546    310.59608    13993 
262000000   -964.56916    11252.269    12843.956    3877.5321    8339.3062    307.79921    13998 
263000000   -1023.3885    11315.844    13043.439    3832.2119    8507.0202    312.57971    14031 
264000000   -998.90476    11300.807    12967.301    3889.3124    8410.3997    310.75511    13989 
265000000   -993.57238    11214.893    12921.068    3759.4056    8449.0597    309.64715    14040 
266000000   -999.43115    11227.957    12890.747    3862.5956    8364.7927    308.92053    14033 
267000000   -1000.6614    11271.704    13078.713    3856.4457    8415.9199    313.42503    14001 
268000000   -974.52631    11374.764    12931.533    3893.4795    8455.8111    309.89795    13971 
269000000   -955.20226    11267.432    12981.286    3901.9099    8320.7245    311.09026    13985 
270000000   -952.01173    11239.173    13027.717    3842.1826    8349.0017    312.20294    13999 
271000000    -974.3034    11450.635     12968.27    3959.2789    8465.6599    310.77834    13996 
272000000      -992.32    11409.766    12938.534    4023.4006    8378.6856    310.06571    13978 
273000000   -997.22561    11323.066    12974.571     3935.808    8384.4833    310.92932    14006 
274000000   -1023.5455    11324.918    12809.154    3929.3746    8419.0886    306.96519    14008 
275000000   -902.30831    11368.916    13092.229    3879.8058    8391.4181    313.74894    13988 
276000000   -949.19419    11273.818     12952.24    3937.2954    8285.7171    310.39418    13993 
277000000   -990.24765    11251.112    12818.464    3887.6881    8353.6714    307.18829    14007 
278000000   -999.72366    11421.681    12972.231    3903.2937    8518.1105    310.87326    14007 
279000000   -1004.9216    11290.863    12864.704    3812.6147      8483.17    308.29642    14010 
280000000   -947.48999    11378.248    13075.433    3985.0498    8340.6883    313.34643    13966 
281000000   -1004.8359    11262.246    12928.603    3868.5641    8398.5179    309.82774    14015 
282000000   -1025.5357    11351.431    12947.012    3981.7047    8395.2618    310.26888    14006 
283000000   -1004.1884    11244.708    12990.353    3919.8324    8329.0636    311.30754    14014 
284000000   -936.61551    11261.582    12941.026    3869.5977    8328.5997    310.12544    14002 
285000000   -1015.0768    11244.637    13065.665    3875.8258    8383.8876    313.11236    14007 
286000000   -932.30467    11429.046    12926.728    3994.9547    8366.3964     309.7828    13991 
287000000    -946.5438    11331.882    12827.257    3905.9386    8372.4872    307.39902    13990 
288000000   -1022.0938    11371.933    12852.693    3928.8891    8465.1373    308.00859    14010 
289000000   -966.52499    11475.998    13057.839    3940.1767    8502.3461     312.9248    13998 
290000000   -979.51982    11394.463    12974.183     3936.027    8437.9557    310.92004    13981 
291000000   -1010.6668    11298.765    12796.433    3803.1164    8506.3151    306.66034    14011 
292000000   -1025.2117    11373.489    13145.516    3950.6703      8448.03    315.02594    14001 
293000000   -976.76677     11265.99    13031.411    3903.2739    8339.4825    312.29146    13996 
294000000   -977.24779    11256.468    12918.531    3873.2273    8360.4888    309.58636    13989 
295000000   -983.49289    11298.322    12901.473    3885.7135    8396.1014    309.17757    14012 
296000000   -1009.7128    11215.976    12706.085    3881.7689    8343.9198    304.49519    14011 
297000000   -969.95374    11392.241    12897.459    3859.9674    8502.2272    309.08138    13990 
298000000   -949.96339    11358.411    12945.685    3908.9848    8399.3894    310.23709    13996 
299000000   -1012.3979    11353.787    12965.166    3903.5515    8462.6336    310.70395    14021 
300000000   -1034.2007    11196.102    13065.899    3882.9998     8347.303    313.11796    14014 
301000000   -1068.6414    11332.765    12933.474    3927.0872    8474.3189    309.94447    14013 
302000000   -996.04927    11310.475    12835.067    3933.8849    8372.6391    307.58619    14015 
303000000   -951.26132    11394.364    12969.905    3879.0385    8466.5865    310.81751    13966 
304000000   -909.04456    11476.057     13100.62    3971.2319    8413.8695    313.95002    13971 
305000000   -950.27874    11454.752    13009.641    3956.1498     8448.881    311.76976    14011 
306000000   -929.78857    11298.118    12970.375    3837.6538    8390.2525    310.82877    13984 
307000000   -954.04265    11420.592    12928.125    3960.7801    8413.8549    309.81628    13996 
308000000   -977.64285    11215.221    12769.937    3897.0386    8295.8257    306.02537    14003 
309000000   -940.17386    11406.191    12827.044    3899.4495    8446.9156    307.39392    13997 
310000000   -964.68701    11301.284    12999.549    3947.5369    8318.4345    311.52791    13981 
311000000   -967.63914    11201.594     12971.29    3850.9557     8318.277    310.85071    13983 
312000000   -971.08829    11437.995    12930.996     3987.155    8421.9288    309.88508    13975 
313000000   -938.30779    11394.108     12839.23    3905.0682    8427.3472    307.68595    13989 
314000000   -1003.2357    11355.418    12889.124     3996.327    8362.3267    308.88164    13983 
315000000   -962.21733    11253.569    12800.432    3820.8573    8394.9289    306.75618    14003 
316000000   -1003.7916     11218.82    12825.282    3858.7112    8363.9002    307.35169    13986 
317000000   -1012.9078     11225.79    12852.325    3909.1633    8329.5349    307.99977    14007 
318000000   -923.06419    11329.377    12903.617    3929.8203    8322.6211    309.22894    13988 
319000000   -972.99036    11378.758    12931.596    3922.4268    8429.3214    309.89945    13990 
320000000   -961.18667    11287.302    12782.462    3903.9499    8344.5386    306.32553    14001 
321000000   -941.00198    11328.769    12752.002    3847.8593    8421.9115    305.59556    14003 
322000000   -969.33243      11445.1     12939.09    3954.5399    8459.8927    310.07906    13977 
323000000   -947.22658    11303.979    12864.821    3818.0562    8433.1496    308.29922    14007 
324000000   -919.36577    11167.869    12982.637    3862.8912    8224.3435    311.12262    13976 
325000000   -934.89237    11294.053    13035.404    3910.1439    8318.8018    312.38716    13995 
326000000    -987.4034    11212.555      12919.5     3855.771     8344.187    309.60958    14023 
327000000     -994.057    11460.031    12813.878     4026.187     8427.901     307.0784    13986 
328000000   -978.61702    11477.094    13085.235    3988.7662    8466.9445    313.58135    13980 
329000000   -926.22203    11398.103    12999.671    3945.4068    8378.9181    311.53084    13994 
330000000   -992.13687    11259.617    12865.227    3820.7818    8430.9719    308.30894    13975 
331000000   -941.26914    11343.553    13098.709    3947.0698    8337.7526    313.90424    13983 
332000000   -935.14627    11415.405    12773.513    3886.1361     8464.415    306.11106    13982 
333000000   -926.11274    11356.467    12882.254    3877.1996    8405.3805      308.717    13957 
334000000    -938.5014    11458.403    13057.402    3970.5371    8426.3674    312.91433    13989 
335000000   -895.20017     11510.44    12987.986     3947.703    8457.9374    311.25081    13978 
336000000   -957.56226    11409.942    12999.873    3878.0406    8489.4632    311.53568    13988 
337000000    -977.7453    11336.302    12849.598    3875.3632    8438.6846    307.93442    13993 
338000000   -982.54502    11412.844    12809.831    4000.8947    8394.4938    306.98142    14018 
339000000   -1026.5013    11379.342    12922.513    3945.9094     8459.934    309.68178    13998 
340000000   -908.72058    11405.834    12919.917    3958.4998    8356.0549    309.61958    13977 
341000000   -965.35964    11320.665    13019.814    3905.5679    8380.4565    312.01357    13996 
342000000   -947.73732    11373.776    12866.765    3921.4994    8400.0139    308.34582    14033 
343000000   -908.34761    11354.517    12803.851    3871.3811     8391.483     306.8381    13985 
344000000   -908.62891    11583.359    12910.946     3990.411    8501.5774    309.40459    13975 
345000000   -938.11193    11427.868    12854.458    3920.4995    8445.4801    308.05088    14007 
346000000   -940.82803    11441.535    13092.175    3939.8159    8442.5472    313.74765    13962 
347000000   -950.09946    11325.489    12907.431    3900.7393     8374.849    309.32036    13986 
348000000   -899.58755    11482.827    12974.247    4002.0942    8380.3201    310.92156    13970 
349000000   -917.60467    11469.792    13031.144    3928.8768    8458.5197    312.28507    14000 
350000000   -969.41374    11425.607    12778.176    3890.2237    8504.7968    306.22283    13985 
351000000   -953.53524    11419.963    12896.432    3930.5938     8442.904    309.05677    13996 
352000000   -879.40577    11348.686    12905.415    3900.1178    8327.9735    309.27205    13985 
353000000   -879.07557    11392.605    12891.764    3854.9841    8416.6969     308.9449    13974 
354000000   -922.27473    11367.808    12839.292    3949.6154    8340.4669    307.68742    13975 
355000000   -925.57644    11322.677    12955.483    3954.9395    8293.3142    310.47191    13974 
356000000   -894.91137     11531.48    12851.726    3887.2909    8539.1008    307.98542    13977 
357000000   -927.25237    11404.479    12791.172    3948.4217    8383.3099    306.53426    13988 
358000000   -930.63332    11434.017    12869.925    3952.9919    8411.6585    308.42154    13983 
359000000   -1007.2519    11310.728    12897.993    3883.6637    8434.3166    309.09417    14016 
360000000   -964.87659    11332.585    12962.227    3924.0538    8373.4075    310.63351    13998 
361000000   -909.34235    11446.414    12971.888    3942.6214    8413.1348    310.86504    13975 
362000000   -926.18086    11464.592    12924.324    4007.3581    8383.4145    309.72518    13994 
363000000   -979.32001    11201.166    12980.211    3793.3539    8387.1324     311.0645    13992 
364000000   -903.66782    11366.464    13057.538    3843.2293    8426.9021    312.91759    13985 
365000000   -980.97389    11040.982    13022.456    3828.7131    8193.2423    312.07688    13999 
366000000   -961.20738    11489.683    12926.064    3942.1114    8508.7792    309.76689    13984 
367000000   -878.93776    11343.918    13010.739    3888.4148    8334.4408    311.79607    13970 
368000000   -977.92378    11233.304     13052.41    3857.0154    8354.2121    312.79471    13974 
369000000   -925.21306    11400.243    13076.414    3971.1654    8354.2909    313.36995    13965 
370000000   -955.67694     11460.67    13076.623    3974.6032     8441.744    313.37496    13996 
371000000   -951.13785    11418.648    12898.739    3877.8141    8491.9719    309.11204    13978 
372000000     -960.344     11243.68    12990.887    3887.4728    8316.5514    311.32033    13989 
373000000   -997.17487    11375.812    13003.306    3956.4057    8416.5806    311.61795    13978 
374000000   -943.17789    11353.378    12959.285    3962.1216    8334.4343    310.56301    13991 
375000000   -905.61734    11563.794    12944.629    4029.9443    8439.4672    310.21179    13958 
376000000   -967.41775    11495.136    12793.098    3922.8415    8539.7126    306.58041    13993 
377000000   -894.51236    11348.832    12977.134    3939.8666    8303.4773    310.99075    13986 
378000000   -949.82702    11375.796    12705.647    3822.6858    8502.9368     304.4847    13982 
379000000   -940.63874    11367.686    12923.386     3907.171    8401.1534     309.7027    14004 
380000000   -986.19687    11366.205    12951.478    3851.4106    8500.9913    310.37591    13998 
381000000   -902.03128    11521.897    12947.158    3915.3643    8508.5637     310.2724    13981 
382000000   -918.95911     11568.61    12961.985    4018.6741    8468.8954    310.62771    13965 
383000000   -952.22175    11487.061     12900.07    4015.6427    8423.6401    309.14394    13986 
384000000   -939.60337    11438.096    13029.269    3916.1235    8461.5755    312.24014    14019 
385000000   -919.79553     11405.48    12828.594     3877.334    8447.9413    307.43106    13986 
386000000   -962.03663    11368.834     12923.13    3941.1948    8389.6759    309.69658    13995 
387000000   -940.80806    11368.548    12904.265    3856.8951    8452.4612    309.24448    13971 
388000000   -940.06311    11463.134    12821.812    3930.5432    8472.6544    307.26853    13991 
389000000     -916.803    11381.446    12987.743     3911.314     8386.935    311.24499    13964 
390000000   -936.11856    11344.889    12859.257    3950.1374    8330.8706    308.16588    13978 
391000000   -962.81474    11394.768    12922.809    3829.6008     8527.982    309.68888    13977 
392000000   -1005.2161    11314.945    12802.243    3869.9413    8450.2193    306.79956    13998 
393000000   -988.88194    11416.418    13049.022     3966.697    8438.6025    312.71351    13978 
394000000   -961.30606     11354.19    13050.595     3997.827     8317.669     312.7512    13988 
395000000   -929.65671    11569.059    12971.915    4011.9108    8486.8051    310.86569    13959 
396000000   -1001.7067    11219.719    12949.075    3877.3629    8344.0624    310.31832    13992 
397000000   -941.63805    11240.111     13009.48    3818.7908    8362.9579    311.76591    14007 
398000000   -915.10966     11473.42    12990.599    4008.6849    8379.8444    311.31344    13989 
399000000   -971.50968     11269.86    12920.475    3853.0776    8388.2925    309.63295    14030 
400000000   -918.38267    11370.817    13014.303    3905.3951    8383.8046    311.88148    13960 
401000000    -982.0924    11272.474    12837.526    3833.3315    8421.2349     307.6451    14003 
402000000   -933.42106    11294.384     12987.52    3887.2895     8340.516    311.23964    14008 
403000000   -959.64405     11389.11     12895.84    3975.7712    8372.9827    309.04258    13989 
404000000   -864.26641    11411.284    12988.872    3956.7587    8318.7914    311.27205    13968 
405000000   -939.87944    11437.387    12837.903    3984.8639    8392.4023    307.65414    13971 
406000000   -959.89475    11290.901    12964.363    3880.9651    8369.8309    310.68471    14003 
407000000   -910.58615     11431.75    12891.583    3932.6304    8409.7054    308.94057    13993 
408000000   -1009.3237     11329.83    12875.598    3959.0376    8380.1165    308.55749    14006 
409000000   -894.56163    11473.552    13018.612    3920.3276    8447.7858    311.98476    13978 
410000000   -975.71032    11455.305    13064.349    3939.9907    8491.0251    313.08081    13989 
411000000   -1024.6535    11417.426    12832.393    3933.8073    8508.2726     307.5221    14004 
412000000   -1019.4592    11406.675      12968.4    3933.4873    8492.6465    310.78145    13982 
413000000   -928.96132    11396.272    12894.605    3959.0922    8366.1409    309.01298    13987 
414000000   -965.54063    11289.046    13097.453    3825.1482    8429.4385    313.87414    13992 
415000000   -989.31678    11373.796    12865.864    3969.5268    8393.5858    308.32422    14014 
416000000   -1041.3953    11175.477    13091.758     3879.221    8337.6517    313.73766    14018 
417000000   -981.00444    11330.966    12862.729    3905.6253    8406.3452    308.24909    14000 
418000000    -931.3648    11359.011    13057.567    3942.3226    8348.0529    312.91829    14006 
419000000   -1000.3771        11405    12732.946     4017.231    8388.1461    305.13889    13992 
420000000    -992.2638    11298.376    12843.639    3873.8909    8416.7487    307.79161    14016 
421000000   -983.89915    11382.219    13096.199    3885.6086    8480.5093    313.84408    13989 
422000000   -997.37466      11212.3    12793.152    3887.8727    8321.8021     306.5817    14013 
423000000   -941.86843     11297.01    13129.781     3896.913    8341.9652    314.64887    14022 
424000000   -946.72717     11341.15    12865.297    3898.4205     8389.457    308.31063    14007 
425000000   -936.61693    11429.139    13062.337    3936.8829    8428.8732     313.0326    13970 
426000000   -921.01674    11285.939    12984.069     3786.633    8420.3229    311.15696    13983 
427000000   -904.01239    11473.469    12846.069     3949.579    8427.9023    307.84983    13984 
428000000    -926.2758    11199.463    13094.967    3824.5333    8301.2053    313.81455    14001 
429000000   -942.83745    11528.356     12968.09    3875.2297    8595.9635    310.77401    13979 
430000000   -921.36991      11316.4    12912.741    3970.1981    8267.5721     309.4476    13994 
431000000   -968.60178    11496.872     13056.21    4033.2832    8432.1905    312.88577    13960 
432000000   -941.45263    11257.436    12905.934    3865.7379    8333.1502    309.28447    13962 
433000000   -974.40381    11365.624    12923.312    3938.7122    8401.3157    309.70092    13987 
434000000   -991.84245    11377.561    12963.278    3944.7529    8424.6506     310.6587    13998 
435000000   -1004.3264    11391.513    13032.422    3981.0581    8414.7816     312.3157    13993 
436000000   -968.68569    11331.683    12941.746    3922.4115    8377.9573    310.14269    14019 
437000000   -939.44137    11425.735    13022.229    4011.3477    8353.8289    312.07144    13952 
438000000   -986.33618    11328.733    13031.868    3887.0257    8428.0431    312.30241    13998 
439000000    -957.1367    11224.694    12985.046    3886.4821    8295.3484    311.18036    14023 
440000000   -1003.0692     11373.99    12969.001    3829.5314    8547.5276    310.79586    13984 
441000000   -952.60459    11422.034     12866.95    3939.2346    8435.4042    308.35025    13979 
442000000   -934.86052    11383.631    12838.278     3928.376    8390.1156    307.66312    13987 
443000000   -985.55066    11323.943     12822.52    3866.2118    8443.2823    307.28551    14004 
444000000   -938.54908    11340.803    12869.831    3929.7643    8349.5874    308.41928    14025 
445000000   -948.31648    11389.101    12979.531    3897.7371    8439.6806     311.0482    13991 
446000000   -984.02861     11397.14    12862.795    3875.6945    8505.4736    308.25067    14014 
447000000   -1006.0075    11437.485    13005.126    3994.8634    8448.6294    311.66156    13999 
448000000   -965.60866    11267.705    12978.405    3897.0004    8336.3128    311.02122    14034 
449000000   -941.26365    11405.899     12925.43    3927.4587    8419.7042    309.75168    14002 
450000000   -899.03593    11398.756    13017.765    3933.6065    8364.1855    311.96445    13999 
451000000   -989.82838    11138.152    12932.324    3839.9411    8288.0393    309.91689    14042 
452000000   -947.86255    11432.819    13002.278    3981.1587    8399.5228    311.59332    14010 
453000000   -953.47189    11500.103    12918.377    3967.9717     8485.603    309.58268    13976 
454000000      -969.01    11291.343    12863.948    3877.0118    8383.3413    308.27831    14013 
455000000   -935.55877    11356.945    12928.313    3914.5076    8377.9965    309.82078    14024 
456000000   -928.77959    11358.258    12982.406    3897.6945    8389.3435    311.11708    13974 
457000000   -883.53235    11411.139    12881.788    3920.2268    8374.4448    308.70583    13993 
458000000   -934.71268    11412.046    12859.508    3936.4654    8410.2929    308.17191    13968 
459000000   -925.24783    11409.894     13049.12    3927.8673    8407.2745    312.71586    13973 
460000000   -905.63778    11463.767    12970.367    3911.6862    8457.7182    310.82859    13969 
461000000     -930.866    11353.733    12737.418    3955.0616    8329.5373    305.24607    14002 
462000000   -971.45311      11449.9    12959.068    3981.5505    8439.8028     310.5578    13981 
463000000   -963.94398    11433.169    13098.278    3926.4997    8470.6133    313.89391    13972 
464000000    -970.9665    11385.101    13058.279    3849.7984    8506.2693    312.93535    14001 
465000000   -928.50396    11469.391    12870.695    3991.4362    8406.4584    308.43999    13953 
466000000    -949.6821    11238.004    12890.707    3792.7147    8394.9716    308.91957    13988 
467000000   -973.19327     11422.58    12782.066    3984.5569    8411.2165    306.31605    13987 
468000000   -930.73244    11421.312    13012.865    3939.5214    8412.5235    311.84702    13977 
469000000   -958.88272    11421.386    12955.471    3950.1184    8430.1502     310.4716    14010 
470000000   -997.41679    11294.944    12955.253     3936.463    8355.8975    310.46639    14019 
471000000   -950.15964     11402.35    12875.796    3894.0643    8458.4449    308.56223    13996 
472000000   -1026.1912     11281.42    12836.387    3829.9196    8477.6915    307.61781    14023 
473000000   -1029.1173    11291.335     13005.63    3892.5399    8427.9126    311.67365    14039 
474000000   -916.29588    11448.253    12969.747    3897.0014    8467.5472    310.81373    13971 
475000000   -952.43264    11215.467    12880.078    3846.5933    8321.3066    308.66486    14004 
476000000   -928.18476    11443.074    12887.309    3918.9536    8452.3048    308.83814    13994 
477000000   -893.44962    11263.188    12791.271    3821.9644    8334.6731    306.53663    13977 
478000000   -919.21784    11402.009    12859.314    3933.5045    8387.7221    308.16724    13984 
479000000   -958.71815    11363.101    12924.636    3880.2318    8441.5871    309.73267    13999 
480000000   -960.95577    11486.267    13047.077    3942.0521    8505.1706     312.6669    13992 
481000000   -930.22993    11369.858    13008.898     3884.829    8415.2586    311.75196    13979 
482000000   -947.93525    11434.032    12891.161    3966.5827    8415.3846    308.93045    13968 
483000000   -1005.0937    11287.336     12969.08    3934.3516    8358.0782    310.79775    14015 
484000000   -1016.2463    11261.757    12983.006     3889.039    8388.9647    311.13147    13989 
485000000   -920.20637    11477.261    12855.906    3858.8461     8538.621    308.08557    13975 
486000000    -975.7948    11285.856    13045.041    3880.6857     8380.965    312.61811    13993 
487000000    -967.9772    11346.755    12954.535    3962.3733    8352.3591    310.44917    13986 
488000000   -967.60889    11380.313    13059.091    3925.1938    8422.7281    312.95481    13985 
489000000    -966.2471     11374.37    12948.535    3912.8597    8427.7571     310.3054    14004 
490000000     -964.451    11388.353     12939.73    4005.9793    8346.8243    310.09438    14015 
491000000   -957.99561    11215.766    12751.149    3923.7307    8250.0313    305.57512    14013 
492000000   -1004.6597    11400.477     12821.94    3882.5015    8522.6354    307.27161    13999 
493000000   -1035.3469    11468.341    12887.876    3962.7233    8540.9646    308.85172    14004 
494000000   -1033.3471    11138.814    12842.711     3903.932    8268.2292    307.76938    14009 
495000000   -999.16552    11173.735    12724.038    3846.2365    8326.6636    304.92543    14000 
496000000   -1012.3714    11335.583    13105.697    3957.3038    8390.6503     314.0717    14024 
497000000   -1045.4212     11167.32    12881.377     3850.016    8362.7248    308.69599    14028 
498000000   -936.76567     11326.02    12862.044    3828.8368    8433.9493    308.23267    13988 
499000000    -991.3257    11135.776     12848.29    3851.9668    8275.1347    307.90308    14016 
500000000   -1021.9766    11341.301    12979.192    3887.4663    8475.8116    311.04008    14002 
Loop time of 113186 on 28 procs for 500000000 steps with 14000 atoms

Performance: 9541.805 ns/day, 0.003 hours/ns, 4417.502 timesteps/s
99.4% CPU use with 28 MPI tasks x no OpenMP threads

MPI task timing breakdown:
Section |  min time  |  avg time  |  max time  |%varavg| %total
---------------------------------------------------------------
Pair    | 7999.9     | 8647.1     | 9217.7     | 300.7 |  7.64
Bond    | 5518.1     | 5849.6     | 8177.6     | 713.6 |  5.17
Neigh   | 27112      | 27402      | 27771      |  97.5 | 24.21
Comm    | 39162      | 41163      | 42953      | 460.7 | 36.37
Output  | 0.64109    | 0.64254    | 0.64346    |   0.1 |  0.00
Modify  | 22147      | 22404      | 22888      | 119.9 | 19.79
Other   |            | 7721       |            |       |  6.82

Nlocal:    500 ave 541 max 424 min
Histogram: 1 0 0 3 0 5 9 2 6 2
Nghost:    414.036 ave 592 max 313 min
Histogram: 3 5 6 4 4 1 1 2 0 2
Neighs:    2376.64 ave 3376 max 1738 min
Histogram: 2 4 4 9 2 2 1 1 2 1

Total # of neighbors = 66546
Ave neighs/atom = 4.75329
Ave special neighs/atom = 6.13386
Neighbor list builds = 100018616
Dangerous builds = 0
System init for write_restart ...
Total wall time: 31:26:28
