       14000
  Built with Packmol                                             
  A          115.878260      244.948907     -201.564438
  A          114.150557      244.146284     -200.955474
  A          112.422853      243.343662     -200.346509
  A          110.695150      242.541039     -199.737544
  A          108.967446      241.738417     -199.128580
  A          107.239743      240.935795     -198.519615
  A          105.512039      240.133172     -197.910651
  A          103.784336      239.330550     -197.301686
  A          102.056632      238.527927     -196.692722
  A          100.328929      237.725305     -196.083757
  A           98.601225      236.922682     -195.474793
  A           96.873522      236.120060     -194.865828
  A           95.145818      235.317437     -194.256864
  A           93.418115      234.514815     -193.647899
  A           91.690411      233.712192     -193.038934
  A           89.962708      232.909570     -192.429970
  A           88.235004      232.106947     -191.821005
  A           86.507301      231.304325     -191.212041
  A           84.779597      230.501702     -190.603076
  A           83.051894      229.699080     -189.994112
  AL          81.324190      228.896458     -189.385147
  AL          79.596487      228.093835     -188.776183
  AL          77.868783      227.291213     -188.167218
  AL          76.141080      226.488590     -187.558254
  AL          74.413376      225.685968     -186.949289
  AL          72.685673      224.883345     -186.340324
  AL          70.957969      224.080723     -185.731360
  AL          69.230266      223.278100     -185.122395
  AL          67.502562      222.475478     -184.513431
  AL          65.774859      221.672855     -183.904466
  AL          64.047155      220.870233     -183.295502
  AL          62.319452      220.067610     -182.686537
  AL          60.591748      219.264988     -182.077573
  AL          58.864045      218.462365     -181.468608
  AL          57.136341      217.659743     -180.859644
  AL          55.408638      216.857121     -180.250679
  AL          53.680934      216.054498     -179.641714
  AL          51.953231      215.251876     -179.032750
  AL          50.225527      214.449253     -178.423785
  AL          48.497824      213.646631     -177.814821
  AL          46.770120      212.844008     -177.205856
  AL          45.042417      212.041386     -176.596892
  AL          43.314713      211.238763     -175.987927
  AL          41.587010      210.436141     -175.378963
  AL          39.859306      209.633518     -174.769998
  AL          38.131603      208.830896     -174.161034
  AL          36.403900      208.028273     -173.552069
  AL          34.676196      207.225651     -172.943104
  AL          32.948493      206.423028     -172.334140
  AL          31.220789      205.620406     -171.725175
  AL          29.493086      204.817783     -171.116211
  AL          27.765382      204.015161     -170.507246
  AL          26.037679      203.212539     -169.898282
  AL          24.309975      202.409916     -169.289317
  AL          22.582272      201.607294     -168.680353
  AL          20.854568      200.804671     -168.071388
  AL          19.126865      200.002049     -167.462424
  AL          17.399161      199.199426     -166.853459
  AL          15.671458      198.396804     -166.244494
  AL          13.943754      197.594181     -165.635530
  AL          12.216051      196.791559     -165.026565
  AL          10.488347      195.988936     -164.417601
  AL           8.760644      195.186314     -163.808636
  AL           7.032940      194.383691     -163.199672
  AL           5.305237      193.581069     -162.590707
  AL           3.577533      192.778446     -161.981743
  AL           1.849830      191.975824     -161.372778
  AL           0.122126      191.173202     -160.763814
  AL          -1.605577      190.370579     -160.154849
  AL          -3.333281      189.567957     -159.545884
  A          -97.893661      -57.562352      -76.331321
  A          -99.214169      -57.062943      -77.747954
  A         -100.534676      -56.563535      -79.164587
  A         -101.855184      -56.064126      -80.581221
  A         -103.175692      -55.564717      -81.997854
  A         -104.496200      -55.065308      -83.414488
  A         -105.816707      -54.565900      -84.831121
  A         -107.137215      -54.066491      -86.247754
  A         -108.457723      -53.567082      -87.664388
  A         -109.778231      -53.067673      -89.081021
  A         -111.098738      -52.568265      -90.497654
  A         -112.419246      -52.068856      -91.914288
  A         -113.739754      -51.569447      -93.330921
  A         -115.060262      -51.070038      -94.747555
  A         -116.380769      -50.570629      -96.164188
  A         -117.701277      -50.071221      -97.580821
  A         -119.021785      -49.571812      -98.997455
  A         -120.342293      -49.072403     -100.414088
  A         -121.662801      -48.572994     -101.830722
  A         -122.983308      -48.073586     -103.247355
  AL        -124.303816      -47.574177     -104.663988
  AL        -125.624324      -47.074768     -106.080622
  AL        -126.944832      -46.575359     -107.497255
  AL        -128.265339      -46.075951     -108.913889
  AL        -129.585847      -45.576542     -110.330522
  AL        -130.906355      -45.077133     -111.747155
  AL        -132.226863      -44.577724     -113.163789
  AL        -133.547370      -44.078316     -114.580422
  AL        -134.867878      -43.578907     -115.997056
  AL        -136.188386      -43.079498     -117.413689
  AL        -137.508894      -42.580089     -118.830322
  AL        -138.829401      -42.080681     -120.246956
  AL        -140.149909      -41.581272     -121.663589
  AL        -141.470417      -41.081863     -123.080222
  AL        -142.790925      -40.582454     -124.496856
  AL        -144.111432      -40.083046     -125.913489
  AL        -145.431940      -39.583637     -127.330123
  AL        -146.752448      -39.084228     -128.746756
  AL        -148.072956      -38.584819     -130.163389
  AL        -149.393463      -38.085411     -131.580023
  AL        -150.713971      -37.586002     -132.996656
  AL        -152.034479      -37.086593     -134.413290
  AL        -153.354987      -36.587184     -135.829923
  AL        -154.675494      -36.087776     -137.246556
  AL        -155.996002      -35.588367     -138.663190
  AL        -157.316510      -35.088958     -140.079823
  AL        -158.637018      -34.589549     -141.496457
  AL        -159.957525      -34.090141     -142.913090
  AL        -161.278033      -33.590732     -144.329723
  AL        -162.598541      -33.091323     -145.746357
  AL        -163.919049      -32.591914     -147.162990
  AL        -165.239556      -32.092506     -148.579623
  AL        -166.560064      -31.593097     -149.996257
  AL        -167.880572      -31.093688     -151.412890
  AL        -169.201080      -30.594279     -152.829524
  AL        -170.521587      -30.094871     -154.246157
  AL        -171.842095      -29.595462     -155.662790
  AL        -173.162603      -29.096053     -157.079424
  AL        -174.483111      -28.596644     -158.496057
  AL        -175.803619      -28.097235     -159.912691
  AL        -177.124126      -27.597827     -161.329324
  AL        -178.444634      -27.098418     -162.745957
  AL        -179.765142      -26.599009     -164.162591
  AL        -181.085650      -26.099600     -165.579224
  AL        -182.406157      -25.600192     -166.995858
  AL        -183.726665      -25.100783     -168.412491
  AL        -185.047173      -24.601374     -169.829124
  AL        -186.367681      -24.101965     -171.245758
  AL        -187.688188      -23.602557     -172.662391
  AL        -189.008696      -23.103148     -174.079025
  A           93.571025     -112.511933       25.380837
  A           93.976595     -111.093416       24.030533
  A           94.382166     -109.674900       22.680228
  A           94.787736     -108.256383       21.329923
  A           95.193307     -106.837866       19.979618
  A           95.598877     -105.419350       18.629313
  A           96.004448     -104.000833       17.279009
  A           96.410018     -102.582316       15.928704
  A           96.815589     -101.163800       14.578399
  A           97.221159      -99.745283       13.228094
  A           97.626730      -98.326766       11.877789
  A           98.032300      -96.908250       10.527485
  A           98.437871      -95.489733        9.177180
  A           98.843441      -94.071216        7.826875
  A           99.249012      -92.652700        6.476570
  A           99.654582      -91.234183        5.126265
  A          100.060153      -89.815666        3.775961
  A          100.465723      -88.397150        2.425656
  A          100.871294      -86.978633        1.075351
  A          101.276864      -85.560116       -0.274954
  AL         101.682435      -84.141600       -1.625259
  AL         102.088005      -82.723083       -2.975563
  AL         102.493576      -81.304566       -4.325868
  AL         102.899146      -79.886050       -5.676173
  AL         103.304717      -78.467533       -7.026478
  AL         103.710287      -77.049016       -8.376783
  AL         104.115858      -75.630500       -9.727087
  AL         104.521428      -74.211983      -11.077392
  AL         104.926999      -72.793466      -12.427697
  AL         105.332569      -71.374950      -13.778002
  AL         105.738140      -69.956433      -15.128307
  AL         106.143710      -68.537917      -16.478611
  AL         106.549281      -67.119400      -17.828916
  AL         106.954851      -65.700883      -19.179221
  AL         107.360422      -64.282367      -20.529526
  AL         107.765992      -62.863850      -21.879831
  AL         108.171563      -61.445333      -23.230135
  AL         108.577133      -60.026817      -24.580440
  AL         108.982704      -58.608300      -25.930745
  AL         109.388274      -57.189783      -27.281050
  AL         109.793845      -55.771267      -28.631355
  AL         110.199415      -54.352750      -29.981659
  AL         110.604986      -52.934233      -31.331964
  AL         111.010556      -51.515717      -32.682269
  AL         111.416127      -50.097200      -34.032574
  AL         111.821697      -48.678683      -35.382879
  AL         112.227268      -47.260167      -36.733183
  AL         112.632838      -45.841650      -38.083488
  AL         113.038409      -44.423133      -39.433793
  AL         113.443979      -43.004617      -40.784098
  AL         113.849550      -41.586100      -42.134403
  AL         114.255120      -40.167583      -43.484707
  AL         114.660691      -38.749067      -44.835012
  AL         115.066261      -37.330550      -46.185317
  AL         115.471832      -35.912033      -47.535622
  AL         115.877402      -34.493517      -48.885927
  AL         116.282973      -33.075000      -50.236231
  AL         116.688543      -31.656483      -51.586536
  AL         117.094114      -30.237967      -52.936841
  AL         117.499684      -28.819450      -54.287146
  AL         117.905255      -27.400933      -55.637451
  AL         118.310825      -25.982417      -56.987755
  AL         118.716396      -24.563900      -58.338060
  AL         119.121966      -23.145383      -59.688365
  AL         119.527537      -21.726867      -61.038670
  AL         119.933107      -20.308350      -62.388975
  AL         120.338678      -18.889833      -63.739279
  AL         120.744249      -17.471317      -65.089584
  AL         121.149819      -16.052800      -66.439889
  AL         121.555390      -14.634283      -67.790194
  A          287.129065        7.589423      -76.078677
  A          286.428866        7.014510      -74.295647
  A          285.728666        6.439597      -72.512617
  A          285.028467        5.864684      -70.729587
  A          284.328268        5.289771      -68.946557
  A          283.628068        4.714858      -67.163527
  A          282.927869        4.139945      -65.380497
  A          282.227670        3.565033      -63.597467
  A          281.527470        2.990120      -61.814437
  A          280.827271        2.415207      -60.031407
  A          280.127071        1.840294      -58.248377
  A          279.426872        1.265381      -56.465347
  A          278.726673        0.690468      -54.682317
  A          278.026473        0.115555      -52.899287
  A          277.326274       -0.459357      -51.116257
  A          276.626074       -1.034270      -49.333227
  A          275.925875       -1.609183      -47.550197
  A          275.225676       -2.184096      -45.767167
  A          274.525476       -2.759009      -43.984137
  A          273.825277       -3.333922      -42.201107
  AL         273.125077       -3.908835      -40.418077
  AL         272.424878       -4.483747      -38.635047
  AL         271.724679       -5.058660      -36.852017
  AL         271.024479       -5.633573      -35.068987
  AL         270.324280       -6.208486      -33.285957
  AL         269.624081       -6.783399      -31.502927
  AL         268.923881       -7.358312      -29.719897
  AL         268.223682       -7.933225      -27.936867
  AL         267.523482       -8.508137      -26.153837
  AL         266.823283       -9.083050      -24.370807
  AL         266.123084       -9.657963      -22.587777
  AL         265.422884      -10.232876      -20.804747
  AL         264.722685      -10.807789      -19.021717
  AL         264.022485      -11.382702      -17.238687
  AL         263.322286      -11.957615      -15.455657
  AL         262.622087      -12.532527      -13.672627
  AL         261.921887      -13.107440      -11.889597
  AL         261.221688      -13.682353      -10.106567
  AL         260.521488      -14.257266       -8.323537
  AL         259.821289      -14.832179       -6.540507
  AL         259.121090      -15.407092       -4.757477
  AL         258.420890      -15.982005       -2.974447
  AL         257.720691      -16.556917       -1.191417
  AL         257.020492      -17.131830        0.591613
  AL         256.320292      -17.706743        2.374643
  AL         255.620093      -18.281656        4.157673
  AL         254.919893      -18.856569        5.940703
  AL         254.219694      -19.431482        7.723733
  AL         253.519495      -20.006395        9.506763
  AL         252.819295      -20.581308       11.289793
  AL         252.119096      -21.156220       13.072823
  AL         251.418896      -21.731133       14.855853
  AL         250.718697      -22.306046       16.638883
  AL         250.018498      -22.880959       18.421913
  AL         249.318298      -23.455872       20.204943
  AL         248.618099      -24.030785       21.987973
  AL         247.917899      -24.605698       23.771003
  AL         247.217700      -25.180610       25.554033
  AL         246.517501      -25.755523       27.337063
  AL         245.817301      -26.330436       29.120093
  AL         245.117102      -26.905349       30.903123
  AL         244.416902      -27.480262       32.686153
  AL         243.716703      -28.055175       34.469183
  AL         243.016504      -28.630088       36.252213
  AL         242.316304      -29.205000       38.035243
  AL         241.616105      -29.779913       39.818273
  AL         240.915906      -30.354826       41.601303
  AL         240.215706      -30.929739       43.384333
  AL         239.515507      -31.504652       45.167363
  AL         238.815307      -32.079565       46.950393
  A         -123.988778      -81.034848     -114.027121
  A         -122.463340      -82.151606     -114.679725
  A         -120.937903      -83.268364     -115.332329
  A         -119.412465      -84.385122     -115.984933
  A         -117.887028      -85.501880     -116.637537
  A         -116.361591      -86.618638     -117.290141
  A         -114.836153      -87.735396     -117.942745
  A         -113.310716      -88.852154     -118.595349
  A         -111.785278      -89.968912     -119.247952
  A         -110.259841      -91.085670     -119.900556
  A         -108.734403      -92.202429     -120.553160
  A         -107.208966      -93.319187     -121.205764
  A         -105.683528      -94.435945     -121.858368
  A         -104.158091      -95.552703     -122.510972
  A         -102.632653      -96.669461     -123.163576
  A         -101.107216      -97.786219     -123.816180
  A          -99.581778      -98.902977     -124.468784
  A          -98.056341     -100.019735     -125.121388
  A          -96.530903     -101.136493     -125.773992
  A          -95.005466     -102.253251     -126.426596
  AL         -93.480028     -103.370009     -127.079200
  AL         -91.954591     -104.486767     -127.731804
  AL         -90.429153     -105.603525     -128.384408
  AL         -88.903716     -106.720283     -129.037012
  AL         -87.378278     -107.837041     -129.689616
  AL         -85.852841     -108.953800     -130.342220
  AL         -84.327403     -110.070558     -130.994824
  AL         -82.801966     -111.187316     -131.647427
  AL         -81.276528     -112.304074     -132.300031
  AL         -79.751091     -113.420832     -132.952635
  AL         -78.225653     -114.537590     -133.605239
  AL         -76.700216     -115.654348     -134.257843
  AL         -75.174779     -116.771106     -134.910447
  AL         -73.649341     -117.887864     -135.563051
  AL         -72.123904     -119.004622     -136.215655
  AL         -70.598466     -120.121380     -136.868259
  AL         -69.073029     -121.238138     -137.520863
  AL         -67.547591     -122.354896     -138.173467
  AL         -66.022154     -123.471654     -138.826071
  AL         -64.496716     -124.588413     -139.478675
  AL         -62.971279     -125.705171     -140.131279
  AL         -61.445841     -126.821929     -140.783883
  AL         -59.920404     -127.938687     -141.436487
  AL         -58.394966     -129.055445     -142.089091
  AL         -56.869529     -130.172203     -142.741695
  AL         -55.344091     -131.288961     -143.394299
  AL         -53.818654     -132.405719     -144.046903
  AL         -52.293216     -133.522477     -144.699506
  AL         -50.767779     -134.639235     -145.352110
  AL         -49.242341     -135.755993     -146.004714
  AL         -47.716904     -136.872751     -146.657318
  AL         -46.191466     -137.989509     -147.309922
  AL         -44.666029     -139.106267     -147.962526
  AL         -43.140591     -140.223025     -148.615130
  AL         -41.615154     -141.339784     -149.267734
  AL         -40.089716     -142.456542     -149.920338
  AL         -38.564279     -143.573300     -150.572942
  AL         -37.038842     -144.690058     -151.225546
  AL         -35.513404     -145.806816     -151.878150
  AL         -33.987967     -146.923574     -152.530754
  AL         -32.462529     -148.040332     -153.183358
  AL         -30.937092     -149.157090     -153.835962
  AL         -29.411654     -150.273848     -154.488566
  AL         -27.886217     -151.390606     -155.141170
  AL         -26.360779     -152.507364     -155.793774
  AL         -24.835342     -153.624122     -156.446378
  AL         -23.309904     -154.740880     -157.098981
  AL         -21.784467     -155.857638     -157.751585
  AL         -20.259029     -156.974396     -158.404189
  AL         -18.733592     -158.091155     -159.056793
  A          174.673268      154.857105     -155.212795
  A          174.722117      152.864644     -155.046317
  A          174.770967      150.872184     -154.879840
  A          174.819816      148.879723     -154.713362
  A          174.868665      146.887262     -154.546885
  A          174.917514      144.894802     -154.380407
  A          174.966363      142.902341     -154.213930
  A          175.015213      140.909881     -154.047452
  A          175.064062      138.917420     -153.880975
  A          175.112911      136.924960     -153.714497
  A          175.161760      134.932499     -153.548020
  A          175.210609      132.940039     -153.381542
  A          175.259459      130.947578     -153.215065
  A          175.308308      128.955118     -153.048587
  A          175.357157      126.962657     -152.882110
  A          175.406006      124.970197     -152.715632
  A          175.454856      122.977736     -152.549155
  A          175.503705      120.985275     -152.382677
  A          175.552554      118.992815     -152.216200
  A          175.601403      117.000354     -152.049722
  AL         175.650252      115.007894     -151.883245
  AL         175.699102      113.015433     -151.716767
  AL         175.747951      111.022973     -151.550290
  AL         175.796800      109.030512     -151.383812
  AL         175.845649      107.038052     -151.217335
  AL         175.894498      105.045591     -151.050857
  AL         175.943348      103.053131     -150.884380
  AL         175.992197      101.060670     -150.717902
  AL         176.041046       99.068210     -150.551425
  AL         176.089895       97.075749     -150.384947
  AL         176.138744       95.083288     -150.218470
  AL         176.187594       93.090828     -150.051992
  AL         176.236443       91.098367     -149.885515
  AL         176.285292       89.105907     -149.719037
  AL         176.334141       87.113446     -149.552560
  AL         176.382990       85.120986     -149.386082
  AL         176.431840       83.128525     -149.219605
  AL         176.480689       81.136065     -149.053127
  AL         176.529538       79.143604     -148.886650
  AL         176.578387       77.151144     -148.720172
  AL         176.627237       75.158683     -148.553695
  AL         176.676086       73.166223     -148.387217
  AL         176.724935       71.173762     -148.220740
  AL         176.773784       69.181301     -148.054262
  AL         176.822633       67.188841     -147.887785
  AL         176.871483       65.196380     -147.721307
  AL         176.920332       63.203920     -147.554830
  AL         176.969181       61.211459     -147.388352
  AL         177.018030       59.218999     -147.221875
  AL         177.066879       57.226538     -147.055397
  AL         177.115729       55.234078     -146.888920
  AL         177.164578       53.241617     -146.722442
  AL         177.213427       51.249157     -146.555965
  AL         177.262276       49.256696     -146.389487
  AL         177.311125       47.264236     -146.223010
  AL         177.359975       45.271775     -146.056532
  AL         177.408824       43.279314     -145.890055
  AL         177.457673       41.286854     -145.723577
  AL         177.506522       39.294393     -145.557100
  AL         177.555371       37.301933     -145.390622
  AL         177.604221       35.309472     -145.224145
  AL         177.653070       33.317012     -145.057667
  AL         177.701919       31.324551     -144.891190
  AL         177.750768       29.332091     -144.724712
  AL         177.799618       27.339630     -144.558235
  AL         177.848467       25.347170     -144.391757
  AL         177.897316       23.354709     -144.225280
  AL         177.946165       21.362249     -144.058802
  AL         177.995014       19.369788     -143.892325
  AL         178.043864       17.377327     -143.725847
  A          -62.112797     -259.265539      209.759948
  A          -60.666140     -257.895813      209.583780
  A          -59.219483     -256.526088      209.407612
  A          -57.772826     -255.156362      209.231443
  A          -56.326169     -253.786636      209.055275
  A          -54.879512     -252.416911      208.879107
  A          -53.432855     -251.047185      208.702939
  A          -51.986198     -249.677459      208.526770
  A          -50.539541     -248.307734      208.350602
  A          -49.092884     -246.938008      208.174434
  A          -47.646227     -245.568283      207.998265
  A          -46.199570     -244.198557      207.822097
  A          -44.752913     -242.828831      207.645929
  A          -43.306256     -241.459106      207.469761
  A          -41.859600     -240.089380      207.293592
  A          -40.412943     -238.719654      207.117424
  A          -38.966286     -237.349929      206.941256
  A          -37.519629     -235.980203      206.765087
  A          -36.072972     -234.610477      206.588919
  A          -34.626315     -233.240752      206.412751
  AL         -33.179658     -231.871026      206.236582
  AL         -31.733001     -230.501300      206.060414
  AL         -30.286344     -229.131575      205.884246
  AL         -28.839687     -227.761849      205.708078
  AL         -27.393030     -226.392123      205.531909
  AL         -25.946373     -225.022398      205.355741
  AL         -24.499716     -223.652672      205.179573
  AL         -23.053059     -222.282947      205.003404
  AL         -21.606402     -220.913221      204.827236
  AL         -20.159745     -219.543495      204.651068
  AL         -18.713088     -218.173770      204.474900
  AL         -17.266431     -216.804044      204.298731
  AL         -15.819774     -215.434318      204.122563
  AL         -14.373117     -214.064593      203.946395
  AL         -12.926460     -212.694867      203.770226
  AL         -11.479803     -211.325141      203.594058
  AL         -10.033146     -209.955416      203.417890
  AL          -8.586489     -208.585690      203.241722
  AL          -7.139832     -207.215964      203.065553
  AL          -5.693175     -205.846239      202.889385
  AL          -4.246518     -204.476513      202.713217
  AL          -2.799861     -203.106787      202.537048
  AL          -1.353204     -201.737062      202.360880
  AL           0.093453     -200.367336      202.184712
  AL           1.540110     -198.997611      202.008543
  AL           2.986766     -197.627885      201.832375
  AL           4.433423     -196.258159      201.656207
  AL           5.880080     -194.888434      201.480039
  AL           7.326737     -193.518708      201.303870
  AL           8.773394     -192.148982      201.127702
  AL          10.220051     -190.779257      200.951534
  AL          11.666708     -189.409531      200.775365
  AL          13.113365     -188.039805      200.599197
  AL          14.560022     -186.670080      200.423029
  AL          16.006679     -185.300354      200.246861
  AL          17.453336     -183.930628      200.070692
  AL          18.899993     -182.560903      199.894524
  AL          20.346650     -181.191177      199.718356
  AL          21.793307     -179.821451      199.542187
  AL          23.239964     -178.451726      199.366019
  AL          24.686621     -177.082000      199.189851
  AL          26.133278     -175.712275      199.013682
  AL          27.579935     -174.342549      198.837514
  AL          29.026592     -172.972823      198.661346
  AL          30.473249     -171.603098      198.485178
  AL          31.919906     -170.233372      198.309009
  AL          33.366563     -168.863646      198.132841
  AL          34.813220     -167.493921      197.956673
  AL          36.259877     -166.124195      197.780504
  AL          37.706534     -164.754469      197.604336
  A         -280.590410       -3.874583     -115.449036
  A         -279.497891       -2.327171     -114.807230
  A         -278.405371       -0.779758     -114.165423
  A         -277.312852        0.767655     -113.523616
  A         -276.220333        2.315067     -112.881809
  A         -275.127814        3.862480     -112.240003
  A         -274.035294        5.409892     -111.598196
  A         -272.942775        6.957305     -110.956389
  A         -271.850256        8.504718     -110.314583
  A         -270.757737       10.052130     -109.672776
  A         -269.665217       11.599543     -109.030969
  A         -268.572698       13.146956     -108.389162
  A         -267.480179       14.694368     -107.747356
  A         -266.387659       16.241781     -107.105549
  A         -265.295140       17.789193     -106.463742
  A         -264.202621       19.336606     -105.821936
  A         -263.110102       20.884019     -105.180129
  A         -262.017582       22.431431     -104.538322
  A         -260.925063       23.978844     -103.896515
  A         -259.832544       25.526256     -103.254709
  AL        -258.740025       27.073669     -102.612902
  AL        -257.647505       28.621082     -101.971095
  AL        -256.554986       30.168494     -101.329288
  AL        -255.462467       31.715907     -100.687482
  AL        -254.369947       33.263319     -100.045675
  AL        -253.277428       34.810732      -99.403868
  AL        -252.184909       36.358145      -98.762062
  AL        -251.092390       37.905557      -98.120255
  AL        -249.999870       39.452970      -97.478448
  AL        -248.907351       41.000382      -96.836641
  AL        -247.814832       42.547795      -96.194835
  AL        -246.722313       44.095208      -95.553028
  AL        -245.629793       45.642620      -94.911221
  AL        -244.537274       47.190033      -94.269415
  AL        -243.444755       48.737445      -93.627608
  AL        -242.352236       50.284858      -92.985801
  AL        -241.259716       51.832271      -92.343994
  AL        -240.167197       53.379683      -91.702188
  AL        -239.074678       54.927096      -91.060381
  AL        -237.982158       56.474509      -90.418574
  AL        -236.889639       58.021921      -89.776767
  AL        -235.797120       59.569334      -89.134961
  AL        -234.704601       61.116746      -88.493154
  AL        -233.612081       62.664159      -87.851347
  AL        -232.519562       64.211572      -87.209541
  AL        -231.427043       65.758984      -86.567734
  AL        -230.334524       67.306397      -85.925927
  AL        -229.242004       68.853809      -85.284120
  AL        -228.149485       70.401222      -84.642314
  AL        -227.056966       71.948635      -84.000507
  AL        -225.964446       73.496047      -83.358700
  AL        -224.871927       75.043460      -82.716894
  AL        -223.779408       76.590872      -82.075087
  AL        -222.686889       78.138285      -81.433280
  AL        -221.594369       79.685698      -80.791473
  AL        -220.501850       81.233110      -80.149667
  AL        -219.409331       82.780523      -79.507860
  AL        -218.316812       84.327935      -78.866053
  AL        -217.224292       85.875348      -78.224246
  AL        -216.131773       87.422761      -77.582440
  AL        -215.039254       88.970173      -76.940633
  AL        -213.946734       90.517586      -76.298826
  AL        -212.854215       92.064998      -75.657020
  AL        -211.761696       93.612411      -75.015213
  AL        -210.669177       95.159824      -74.373406
  AL        -209.576657       96.707236      -73.731599
  AL        -208.484138       98.254649      -73.089793
  AL        -207.391619       99.802061      -72.447986
  AL        -206.299100      101.349474      -71.806179
  AL        -205.206580      102.896887      -71.164373
  A           77.870937     -255.101120     -150.422503
  A           76.788614     -253.660709     -151.290715
  A           75.706292     -252.220297     -152.158927
  A           74.623969     -250.779886     -153.027140
  A           73.541646     -249.339475     -153.895352
  A           72.459323     -247.899063     -154.763564
  A           71.377000     -246.458652     -155.631777
  A           70.294677     -245.018241     -156.499989
  A           69.212354     -243.577830     -157.368201
  A           68.130032     -242.137418     -158.236414
  A           67.047709     -240.697007     -159.104626
  A           65.965386     -239.256596     -159.972838
  A           64.883063     -237.816185     -160.841051
  A           63.800740     -236.375773     -161.709263
  A           62.718417     -234.935362     -162.577475
  A           61.636094     -233.494951     -163.445687
  A           60.553772     -232.054540     -164.313900
  A           59.471449     -230.614128     -165.182112
  A           58.389126     -229.173717     -166.050324
  A           57.306803     -227.733306     -166.918537
  AL          56.224480     -226.292894     -167.786749
  AL          55.142157     -224.852483     -168.654961
  AL          54.059835     -223.412072     -169.523174
  AL          52.977512     -221.971661     -170.391386
  AL          51.895189     -220.531249     -171.259598
  AL          50.812866     -219.090838     -172.127811
  AL          49.730543     -217.650427     -172.996023
  AL          48.648220     -216.210016     -173.864235
  AL          47.565897     -214.769604     -174.732448
  AL          46.483575     -213.329193     -175.600660
  AL          45.401252     -211.888782     -176.468872
  AL          44.318929     -210.448371     -177.337085
  AL          43.236606     -209.007959     -178.205297
  AL          42.154283     -207.567548     -179.073509
  AL          41.071960     -206.127137     -179.941721
  AL          39.989637     -204.686725     -180.809934
  AL          38.907315     -203.246314     -181.678146
  AL          37.824992     -201.805903     -182.546358
  AL          36.742669     -200.365492     -183.414571
  AL          35.660346     -198.925080     -184.282783
  AL          34.578023     -197.484669     -185.150995
  AL          33.495700     -196.044258     -186.019208
  AL          32.413377     -194.603847     -186.887420
  AL          31.331055     -193.163435     -187.755632
  AL          30.248732     -191.723024     -188.623845
  AL          29.166409     -190.282613     -189.492057
  AL          28.084086     -188.842202     -190.360269
  AL          27.001763     -187.401790     -191.228482
  AL          25.919440     -185.961379     -192.096694
  AL          24.837117     -184.520968     -192.964906
  AL          23.754795     -183.080556     -193.833119
  AL          22.672472     -181.640145     -194.701331
  AL          21.590149     -180.199734     -195.569543
  AL          20.507826     -178.759323     -196.437756
  AL          19.425503     -177.318911     -197.305968
  AL          18.343180     -175.878500     -198.174180
  AL          17.260858     -174.438089     -199.042392
  AL          16.178535     -172.997678     -199.910605
  AL          15.096212     -171.557266     -200.778817
  AL          14.013889     -170.116855     -201.647029
  AL          12.931566     -168.676444     -202.515242
  AL          11.849243     -167.236033     -203.383454
  AL          10.766920     -165.795621     -204.251666
  AL           9.684598     -164.355210     -205.119879
  AL           8.602275     -162.914799     -205.988091
  AL           7.519952     -161.474388     -206.856303
  AL           6.437629     -160.033976     -207.724516
  AL           5.355306     -158.593565     -208.592728
  AL           4.272983     -157.153154     -209.460940
  AL           3.190660     -155.712742     -210.329153
  A          241.703895      101.755879     -269.625159
  A          239.943181      101.484136     -268.716292
  A          238.182466      101.212393     -267.807424
  A          236.421752      100.940649     -266.898557
  A          234.661037      100.668906     -265.989690
  A          232.900323      100.397163     -265.080822
  A          231.139608      100.125420     -264.171955
  A          229.378894       99.853676     -263.263088
  A          227.618179       99.581933     -262.354220
  A          225.857464       99.310190     -261.445353
  A          224.096750       99.038447     -260.536486
  A          222.336035       98.766703     -259.627618
  A          220.575321       98.494960     -258.718751
  A          218.814606       98.223217     -257.809884
  A          217.053892       97.951474     -256.901016
  A          215.293177       97.679730     -255.992149
  A          213.532463       97.407987     -255.083282
  A          211.771748       97.136244     -254.174414
  A          210.011033       96.864501     -253.265547
  A          208.250319       96.592757     -252.356680
  AL         206.489604       96.321014     -251.447812
  AL         204.728890       96.049271     -250.538945
  AL         202.968175       95.777528     -249.630078
  AL         201.207461       95.505784     -248.721210
  AL         199.446746       95.234041     -247.812343
  AL         197.686032       94.962298     -246.903476
  AL         195.925317       94.690554     -245.994608
  AL         194.164602       94.418811     -245.085741
  AL         192.403888       94.147068     -244.176874
  AL         190.643173       93.875325     -243.268006
  AL         188.882459       93.603581     -242.359139
  AL         187.121744       93.331838     -241.450272
  AL         185.361030       93.060095     -240.541404
  AL         183.600315       92.788352     -239.632537
  AL         181.839601       92.516608     -238.723669
  AL         180.078886       92.244865     -237.814802
  AL         178.318171       91.973122     -236.905935
  AL         176.557457       91.701379     -235.997067
  AL         174.796742       91.429635     -235.088200
  AL         173.036028       91.157892     -234.179333
  AL         171.275313       90.886149     -233.270465
  AL         169.514599       90.614406     -232.361598
  AL         167.753884       90.342662     -231.452731
  AL         165.993169       90.070919     -230.543863
  AL         164.232455       89.799176     -229.634996
  AL         162.471740       89.527432     -228.726129
  AL         160.711026       89.255689     -227.817261
  AL         158.950311       88.983946     -226.908394
  AL         157.189597       88.712203     -225.999527
  AL         155.428882       88.440459     -225.090659
  AL         153.668168       88.168716     -224.181792
  AL         151.907453       87.896973     -223.272925
  AL         150.146738       87.625230     -222.364057
  AL         148.386024       87.353486     -221.455190
  AL         146.625309       87.081743     -220.546323
  AL         144.864595       86.810000     -219.637455
  AL         143.103880       86.538257     -218.728588
  AL         141.343166       86.266513     -217.819721
  AL         139.582451       85.994770     -216.910853
  AL         137.821737       85.723027     -216.001986
  AL         136.061022       85.451284     -215.093119
  AL         134.300307       85.179540     -214.184251
  AL         132.539593       84.907797     -213.275384
  AL         130.778878       84.636054     -212.366517
  AL         129.018164       84.364310     -211.457649
  AL         127.257449       84.092567     -210.548782
  AL         125.496735       83.820824     -209.639915
  AL         123.736020       83.549081     -208.731047
  AL         121.975306       83.277337     -207.822180
  AL         120.214591       83.005594     -206.913313
  A           75.243883      -81.995303     -191.219086
  A           75.225380      -79.995994     -191.169902
  A           75.206877      -77.996684     -191.120719
  A           75.188373      -75.997374     -191.071535
  A           75.169870      -73.998065     -191.022351
  A           75.151367      -71.998755     -190.973168
  A           75.132864      -69.999446     -190.923984
  A           75.114360      -68.000136     -190.874800
  A           75.095857      -66.000827     -190.825617
  A           75.077354      -64.001517     -190.776433
  A           75.058851      -62.002208     -190.727250
  A           75.040347      -60.002898     -190.678066
  A           75.021844      -58.003589     -190.628882
  A           75.003341      -56.004279     -190.579699
  A           74.984838      -54.004970     -190.530515
  A           74.966334      -52.005660     -190.481332
  A           74.947831      -50.006351     -190.432148
  A           74.929328      -48.007041     -190.382964
  A           74.910825      -46.007732     -190.333781
  A           74.892321      -44.008422     -190.284597
  AL          74.873818      -42.009112     -190.235413
  AL          74.855315      -40.009803     -190.186230
  AL          74.836812      -38.010493     -190.137046
  AL          74.818308      -36.011184     -190.087863
  AL          74.799805      -34.011874     -190.038679
  AL          74.781302      -32.012565     -189.989495
  AL          74.762799      -30.013255     -189.940312
  AL          74.744295      -28.013946     -189.891128
  AL          74.725792      -26.014636     -189.841945
  AL          74.707289      -24.015327     -189.792761
  AL          74.688786      -22.016017     -189.743577
  AL          74.670282      -20.016708     -189.694394
  AL          74.651779      -18.017398     -189.645210
  AL          74.633276      -16.018089     -189.596026
  AL          74.614773      -14.018779     -189.546843
  AL          74.596269      -12.019469     -189.497659
  AL          74.577766      -10.020160     -189.448476
  AL          74.559263       -8.020850     -189.399292
  AL          74.540760       -6.021541     -189.350108
  AL          74.522256       -4.022231     -189.300925
  AL          74.503753       -2.022922     -189.251741
  AL          74.485250       -0.023612     -189.202557
  AL          74.466747        1.975697     -189.153374
  AL          74.448243        3.975007     -189.104190
  AL          74.429740        5.974316     -189.055007
  AL          74.411237        7.973626     -189.005823
  AL          74.392734        9.972935     -188.956639
  AL          74.374230       11.972245     -188.907456
  AL          74.355727       13.971554     -188.858272
  AL          74.337224       15.970864     -188.809089
  AL          74.318721       17.970173     -188.759905
  AL          74.300217       19.969483     -188.710721
  AL          74.281714       21.968793     -188.661538
  AL          74.263211       23.968102     -188.612354
  AL          74.244708       25.967412     -188.563170
  AL          74.226204       27.966721     -188.513987
  AL          74.207701       29.966031     -188.464803
  AL          74.189198       31.965340     -188.415620
  AL          74.170695       33.964650     -188.366436
  AL          74.152191       35.963959     -188.317252
  AL          74.133688       37.963269     -188.268069
  AL          74.115185       39.962578     -188.218885
  AL          74.096682       41.961888     -188.169701
  AL          74.078178       43.961197     -188.120518
  AL          74.059675       45.960507     -188.071334
  AL          74.041172       47.959816     -188.022151
  AL          74.022669       49.959126     -187.972967
  AL          74.004165       51.958436     -187.923783
  AL          73.985662       53.957745     -187.874600
  AL          73.967159       55.957055     -187.825416
  A          127.677484      -46.748177      180.975603
  A          126.917570      -48.597821      180.938860
  A          126.157657      -50.447464      180.902116
  A          125.397743      -52.297108      180.865373
  A          124.637830      -54.146751      180.828630
  A          123.877916      -55.996395      180.791887
  A          123.118003      -57.846038      180.755143
  A          122.358089      -59.695682      180.718400
  A          121.598176      -61.545326      180.681657
  A          120.838262      -63.394969      180.644913
  A          120.078349      -65.244613      180.608170
  A          119.318435      -67.094256      180.571427
  A          118.558522      -68.943900      180.534684
  A          117.798608      -70.793544      180.497940
  A          117.038695      -72.643187      180.461197
  A          116.278781      -74.492831      180.424454
  A          115.518868      -76.342474      180.387711
  A          114.758954      -78.192118      180.350967
  A          113.999041      -80.041761      180.314224
  A          113.239127      -81.891405      180.277481
  AL         112.479214      -83.741049      180.240738
  AL         111.719300      -85.590692      180.203994
  AL         110.959387      -87.440336      180.167251
  AL         110.199473      -89.289979      180.130508
  AL         109.439559      -91.139623      180.093765
  AL         108.679646      -92.989266      180.057021
  AL         107.919732      -94.838910      180.020278
  AL         107.159819      -96.688554      179.983535
  AL         106.399905      -98.538197      179.946791
  AL         105.639992     -100.387841      179.910048
  AL         104.880078     -102.237484      179.873305
  AL         104.120165     -104.087128      179.836562
  AL         103.360251     -105.936772      179.799818
  AL         102.600338     -107.786415      179.763075
  AL         101.840424     -109.636059      179.726332
  AL         101.080511     -111.485702      179.689589
  AL         100.320597     -113.335346      179.652845
  AL          99.560684     -115.184989      179.616102
  AL          98.800770     -117.034633      179.579359
  AL          98.040857     -118.884277      179.542616
  AL          97.280943     -120.733920      179.505872
  AL          96.521030     -122.583564      179.469129
  AL          95.761116     -124.433207      179.432386
  AL          95.001203     -126.282851      179.395643
  AL          94.241289     -128.132495      179.358899
  AL          93.481376     -129.982138      179.322156
  AL          92.721462     -131.831782      179.285413
  AL          91.961549     -133.681425      179.248669
  AL          91.201635     -135.531069      179.211926
  AL          90.441721     -137.380712      179.175183
  AL          89.681808     -139.230356      179.138440
  AL          88.921894     -141.080000      179.101696
  AL          88.161981     -142.929643      179.064953
  AL          87.402067     -144.779287      179.028210
  AL          86.642154     -146.628930      178.991467
  AL          85.882240     -148.478574      178.954723
  AL          85.122327     -150.328217      178.917980
  AL          84.362413     -152.177861      178.881237
  AL          83.602500     -154.027505      178.844494
  AL          82.842586     -155.877148      178.807750
  AL          82.082673     -157.726792      178.771007
  AL          81.322759     -159.576435      178.734264
  AL          80.562846     -161.426079      178.697521
  AL          79.802932     -163.275723      178.660777
  AL          79.043019     -165.125366      178.624034
  AL          78.283105     -166.975010      178.587291
  AL          77.523192     -168.824653      178.550547
  AL          76.763278     -170.674297      178.513804
  AL          76.003365     -172.523940      178.477061
  AL          75.243451     -174.373584      178.440318
  A         -232.627288      172.729901     -129.329276
  A         -232.444642      171.591300     -130.963359
  A         -232.261996      170.452698     -132.597442
  A         -232.079350      169.314096     -134.231524
  A         -231.896704      168.175494     -135.865607
  A         -231.714058      167.036893     -137.499690
  A         -231.531412      165.898291     -139.133773
  A         -231.348766      164.759689     -140.767855
  A         -231.166120      163.621087     -142.401938
  A         -230.983474      162.482486     -144.036021
  A         -230.800827      161.343884     -145.670104
  A         -230.618181      160.205282     -147.304186
  A         -230.435535      159.066680     -148.938269
  A         -230.252889      157.928078     -150.572352
  A         -230.070243      156.789477     -152.206435
  A         -229.887597      155.650875     -153.840517
  A         -229.704951      154.512273     -155.474600
  A         -229.522305      153.373671     -157.108683
  A         -229.339659      152.235070     -158.742766
  A         -229.157013      151.096468     -160.376848
  AL        -228.974367      149.957866     -162.010931
  AL        -228.791721      148.819264     -163.645014
  AL        -228.609075      147.680663     -165.279097
  AL        -228.426429      146.542061     -166.913179
  AL        -228.243783      145.403459     -168.547262
  AL        -228.061137      144.264857     -170.181345
  AL        -227.878491      143.126255     -171.815428
  AL        -227.695845      141.987654     -173.449510
  AL        -227.513199      140.849052     -175.083593
  AL        -227.330553      139.710450     -176.717676
  AL        -227.147906      138.571848     -178.351759
  AL        -226.965260      137.433247     -179.985841
  AL        -226.782614      136.294645     -181.619924
  AL        -226.599968      135.156043     -183.254007
  AL        -226.417322      134.017441     -184.888089
  AL        -226.234676      132.878840     -186.522172
  AL        -226.052030      131.740238     -188.156255
  AL        -225.869384      130.601636     -189.790338
  AL        -225.686738      129.463034     -191.424420
  AL        -225.504092      128.324432     -193.058503
  AL        -225.321446      127.185831     -194.692586
  AL        -225.138800      126.047229     -196.326669
  AL        -224.956154      124.908627     -197.960751
  AL        -224.773508      123.770025     -199.594834
  AL        -224.590862      122.631424     -201.228917
  AL        -224.408216      121.492822     -202.863000
  AL        -224.225570      120.354220     -204.497082
  AL        -224.042924      119.215618     -206.131165
  AL        -223.860278      118.077017     -207.765248
  AL        -223.677632      116.938415     -209.399331
  AL        -223.494985      115.799813     -211.033413
  AL        -223.312339      114.661211     -212.667496
  AL        -223.129693      113.522609     -214.301579
  AL        -222.947047      112.384008     -215.935662
  AL        -222.764401      111.245406     -217.569744
  AL        -222.581755      110.106804     -219.203827
  AL        -222.399109      108.968202     -220.837910
  AL        -222.216463      107.829601     -222.471993
  AL        -222.033817      106.690999     -224.106075
  AL        -221.851171      105.552397     -225.740158
  AL        -221.668525      104.413795     -227.374241
  AL        -221.485879      103.275194     -229.008324
  AL        -221.303233      102.136592     -230.642406
  AL        -221.120587      100.997990     -232.276489
  AL        -220.937941       99.859388     -233.910572
  AL        -220.755295       98.720786     -235.544655
  AL        -220.572649       97.582185     -237.178737
  AL        -220.390003       96.443583     -238.812820
  AL        -220.207357       95.304981     -240.446903
  AL        -220.024711       94.166379     -242.080986
  A         -123.882928      227.814680      149.183169
  A         -122.606035      226.858716      150.389683
  A         -121.329141      225.902752      151.596197
  A         -120.052248      224.946788      152.802711
  A         -118.775355      223.990825      154.009226
  A         -117.498461      223.034861      155.215740
  A         -116.221568      222.078897      156.422254
  A         -114.944675      221.122933      157.628768
  A         -113.667781      220.166969      158.835283
  A         -112.390888      219.211006      160.041797
  A         -111.113995      218.255042      161.248311
  A         -109.837101      217.299078      162.454825
  A         -108.560208      216.343114      163.661340
  A         -107.283315      215.387150      164.867854
  A         -106.006421      214.431187      166.074368
  A         -104.729528      213.475223      167.280882
  A         -103.452635      212.519259      168.487397
  A         -102.175741      211.563295      169.693911
  A         -100.898848      210.607331      170.900425
  A          -99.621955      209.651368      172.106939
  AL         -98.345061      208.695404      173.313454
  AL         -97.068168      207.739440      174.519968
  AL         -95.791275      206.783476      175.726482
  AL         -94.514381      205.827512      176.932996
  AL         -93.237488      204.871549      178.139511
  AL         -91.960595      203.915585      179.346025
  AL         -90.683701      202.959621      180.552539
  AL         -89.406808      202.003657      181.759053
  AL         -88.129915      201.047693      182.965568
  AL         -86.853021      200.091730      184.172082
  AL         -85.576128      199.135766      185.378596
  AL         -84.299235      198.179802      186.585110
  AL         -83.022341      197.223838      187.791625
  AL         -81.745448      196.267874      188.998139
  AL         -80.468555      195.311911      190.204653
  AL         -79.191661      194.355947      191.411167
  AL         -77.914768      193.399983      192.617682
  AL         -76.637875      192.444019      193.824196
  AL         -75.360981      191.488055      195.030710
  AL         -74.084088      190.532092      196.237224
  AL         -72.807195      189.576128      197.443738
  AL         -71.530301      188.620164      198.650253
  AL         -70.253408      187.664200      199.856767
  AL         -68.976515      186.708236      201.063281
  AL         -67.699621      185.752273      202.269795
  AL         -66.422728      184.796309      203.476310
  AL         -65.145835      183.840345      204.682824
  AL         -63.868941      182.884381      205.889338
  AL         -62.592048      181.928417      207.095852
  AL         -61.315155      180.972454      208.302367
  AL         -60.038261      180.016490      209.508881
  AL         -58.761368      179.060526      210.715395
  AL         -57.484475      178.104562      211.921909
  AL         -56.207581      177.148598      213.128424
  AL         -54.930688      176.192635      214.334938
  AL         -53.653795      175.236671      215.541452
  AL         -52.376901      174.280707      216.747966
  AL         -51.100008      173.324743      217.954481
  AL         -49.823115      172.368779      219.160995
  AL         -48.546221      171.412816      220.367509
  AL         -47.269328      170.456852      221.574023
  AL         -45.992435      169.500888      222.780538
  AL         -44.715541      168.544924      223.987052
  AL         -43.438648      167.588960      225.193566
  AL         -42.161755      166.632997      226.400080
  AL         -40.884861      165.677033      227.606595
  AL         -39.607968      164.721069      228.813109
  AL         -38.331075      163.765105      230.019623
  AL         -37.054181      162.809141      231.226137
  AL         -35.777288      161.853178      232.432652
  A           74.041135      -39.181003     -233.114569
  A           72.313892      -40.019287     -232.554293
  A           70.586648      -40.857572     -231.994017
  A           68.859405      -41.695856     -231.433740
  A           67.132161      -42.534140     -230.873464
  A           65.404918      -43.372425     -230.313187
  A           63.677675      -44.210709     -229.752911
  A           61.950431      -45.048994     -229.192635
  A           60.223188      -45.887278     -228.632358
  A           58.495945      -46.725562     -228.072082
  A           56.768701      -47.563847     -227.511805
  A           55.041458      -48.402131     -226.951529
  A           53.314214      -49.240415     -226.391253
  A           51.586971      -50.078700     -225.830976
  A           49.859728      -50.916984     -225.270700
  A           48.132484      -51.755269     -224.710424
  A           46.405241      -52.593553     -224.150147
  A           44.677998      -53.431837     -223.589871
  A           42.950754      -54.270122     -223.029594
  A           41.223511      -55.108406     -222.469318
  AL          39.496267      -55.946690     -221.909042
  AL          37.769024      -56.784975     -221.348765
  AL          36.041781      -57.623259     -220.788489
  AL          34.314537      -58.461544     -220.228212
  AL          32.587294      -59.299828     -219.667936
  AL          30.860051      -60.138112     -219.107660
  AL          29.132807      -60.976397     -218.547383
  AL          27.405564      -61.814681     -217.987107
  AL          25.678320      -62.652965     -217.426830
  AL          23.951077      -63.491250     -216.866554
  AL          22.223834      -64.329534     -216.306278
  AL          20.496590      -65.167818     -215.746001
  AL          18.769347      -66.006103     -215.185725
  AL          17.042104      -66.844387     -214.625449
  AL          15.314860      -67.682672     -214.065172
  AL          13.587617      -68.520956     -213.504896
  AL          11.860373      -69.359240     -212.944619
  AL          10.133130      -70.197525     -212.384343
  AL           8.405887      -71.035809     -211.824067
  AL           6.678643      -71.874093     -211.263790
  AL           4.951400      -72.712378     -210.703514
  AL           3.224157      -73.550662     -210.143237
  AL           1.496913      -74.388947     -209.582961
  AL          -0.230330      -75.227231     -209.022685
  AL          -1.957574      -76.065515     -208.462408
  AL          -3.684817      -76.903800     -207.902132
  AL          -5.412060      -77.742084     -207.341855
  AL          -7.139304      -78.580368     -206.781579
  AL          -8.866547      -79.418653     -206.221303
  AL         -10.593791      -80.256937     -205.661026
  AL         -12.321034      -81.095222     -205.100750
  AL         -14.048277      -81.933506     -204.540474
  AL         -15.775521      -82.771790     -203.980197
  AL         -17.502764      -83.610075     -203.419921
  AL         -19.230007      -84.448359     -202.859644
  AL         -20.957251      -85.286643     -202.299368
  AL         -22.684494      -86.124928     -201.739092
  AL         -24.411738      -86.963212     -201.178815
  AL         -26.138981      -87.801497     -200.618539
  AL         -27.866224      -88.639781     -200.058262
  AL         -29.593468      -89.478065     -199.497986
  AL         -31.320711      -90.316350     -198.937710
  AL         -33.047954      -91.154634     -198.377433
  AL         -34.775198      -91.992918     -197.817157
  AL         -36.502441      -92.831203     -197.256880
  AL         -38.229685      -93.669487     -196.696604
  AL         -39.956928      -94.507771     -196.136328
  AL         -41.684171      -95.346056     -195.576051
  AL         -43.411415      -96.184340     -195.015775
  AL         -45.138658      -97.022625     -194.455499
  A          127.546893      -29.951770     -208.894531
  A          126.615599      -31.031297     -207.491921
  A          125.684305      -32.110823     -206.089312
  A          124.753011      -33.190350     -204.686702
  A          123.821717      -34.269876     -203.284092
  A          122.890423      -35.349403     -201.881482
  A          121.959129      -36.428929     -200.478873
  A          121.027835      -37.508456     -199.076263
  A          120.096541      -38.587982     -197.673653
  A          119.165247      -39.667508     -196.271043
  A          118.233954      -40.747035     -194.868433
  A          117.302660      -41.826561     -193.465824
  A          116.371366      -42.906088     -192.063214
  A          115.440072      -43.985614     -190.660604
  A          114.508778      -45.065141     -189.257994
  A          113.577484      -46.144667     -187.855384
  A          112.646190      -47.224194     -186.452775
  A          111.714896      -48.303720     -185.050165
  A          110.783602      -49.383247     -183.647555
  A          109.852308      -50.462773     -182.244945
  AL         108.921014      -51.542300     -180.842336
  AL         107.989721      -52.621826     -179.439726
  AL         107.058427      -53.701353     -178.037116
  AL         106.127133      -54.780879     -176.634506
  AL         105.195839      -55.860406     -175.231896
  AL         104.264545      -56.939932     -173.829287
  AL         103.333251      -58.019459     -172.426677
  AL         102.401957      -59.098985     -171.024067
  AL         101.470663      -60.178512     -169.621457
  AL         100.539369      -61.258038     -168.218848
  AL          99.608075      -62.337565     -166.816238
  AL          98.676781      -63.417091     -165.413628
  AL          97.745488      -64.496618     -164.011018
  AL          96.814194      -65.576144     -162.608408
  AL          95.882900      -66.655671     -161.205799
  AL          94.951606      -67.735197     -159.803189
  AL          94.020312      -68.814724     -158.400579
  AL          93.089018      -69.894250     -156.997969
  AL          92.157724      -70.973777     -155.595360
  AL          91.226430      -72.053303     -154.192750
  AL          90.295136      -73.132830     -152.790140
  AL          89.363842      -74.212356     -151.387530
  AL          88.432548      -75.291883     -149.984920
  AL          87.501255      -76.371409     -148.582311
  AL          86.569961      -77.450936     -147.179701
  AL          85.638667      -78.530462     -145.777091
  AL          84.707373      -79.609989     -144.374481
  AL          83.776079      -80.689515     -142.971871
  AL          82.844785      -81.769042     -141.569262
  AL          81.913491      -82.848568     -140.166652
  AL          80.982197      -83.928095     -138.764042
  AL          80.050903      -85.007621     -137.361432
  AL          79.119609      -86.087148     -135.958823
  AL          78.188315      -87.166674     -134.556213
  AL          77.257021      -88.246201     -133.153603
  AL          76.325728      -89.325727     -131.750993
  AL          75.394434      -90.405254     -130.348383
  AL          74.463140      -91.484780     -128.945774
  AL          73.531846      -92.564307     -127.543164
  AL          72.600552      -93.643833     -126.140554
  AL          71.669258      -94.723360     -124.737944
  AL          70.737964      -95.802886     -123.335335
  AL          69.806670      -96.882413     -121.932725
  AL          68.875376      -97.961939     -120.530115
  AL          67.944082      -99.041466     -119.127505
  AL          67.012788     -100.120992     -117.724895
  AL          66.081495     -101.200519     -116.322286
  AL          65.150201     -102.280045     -114.919676
  AL          64.218907     -103.359572     -113.517066
  AL          63.287613     -104.439098     -112.114456
  A         -258.852789      -21.766055       54.928771
  A         -256.947203      -22.106456       54.425912
  A         -255.041616      -22.446857       53.923053
  A         -253.136030      -22.787257       53.420194
  A         -251.230443      -23.127658       52.917335
  A         -249.324857      -23.468059       52.414476
  A         -247.419270      -23.808460       51.911616
  A         -245.513684      -24.148861       51.408757
  A         -243.608097      -24.489262       50.905898
  A         -241.702511      -24.829663       50.403039
  A         -239.796924      -25.170064       49.900180
  A         -237.891338      -25.510465       49.397321
  A         -235.985751      -25.850866       48.894462
  A         -234.080165      -26.191267       48.391603
  A         -232.174579      -26.531668       47.888744
  A         -230.268992      -26.872069       47.385884
  A         -228.363406      -27.212470       46.883025
  A         -226.457819      -27.552871       46.380166
  A         -224.552233      -27.893272       45.877307
  A         -222.646646      -28.233673       45.374448
  AL        -220.741060      -28.574074       44.871589
  AL        -218.835473      -28.914475       44.368730
  AL        -216.929887      -29.254876       43.865871
  AL        -215.024300      -29.595277       43.363012
  AL        -213.118714      -29.935678       42.860153
  AL        -211.213127      -30.276079       42.357293
  AL        -209.307541      -30.616480       41.854434
  AL        -207.401954      -30.956881       41.351575
  AL        -205.496368      -31.297282       40.848716
  AL        -203.590781      -31.637683       40.345857
  AL        -201.685195      -31.978084       39.842998
  AL        -199.779608      -32.318485       39.340139
  AL        -197.874022      -32.658886       38.837280
  AL        -195.968435      -32.999287       38.334421
  AL        -194.062849      -33.339688       37.831561
  AL        -192.157262      -33.680089       37.328702
  AL        -190.251676      -34.020490       36.825843
  AL        -188.346089      -34.360891       36.322984
  AL        -186.440503      -34.701292       35.820125
  AL        -184.534916      -35.041693       35.317266
  AL        -182.629330      -35.382094       34.814407
  AL        -180.723743      -35.722495       34.311548
  AL        -178.818157      -36.062896       33.808689
  AL        -176.912570      -36.403297       33.305829
  AL        -175.006984      -36.743698       32.802970
  AL        -173.101397      -37.084099       32.300111
  AL        -171.195811      -37.424500       31.797252
  AL        -169.290224      -37.764901       31.294393
  AL        -167.384638      -38.105302       30.791534
  AL        -165.479051      -38.445703       30.288675
  AL        -163.573465      -38.786104       29.785816
  AL        -161.667878      -39.126505       29.282957
  AL        -159.762292      -39.466906       28.780098
  AL        -157.856705      -39.807307       28.277238
  AL        -155.951119      -40.147708       27.774379
  AL        -154.045532      -40.488109       27.271520
  AL        -152.139946      -40.828510       26.768661
  AL        -150.234359      -41.168911       26.265802
  AL        -148.328773      -41.509312       25.762943
  AL        -146.423186      -41.849713       25.260084
  AL        -144.517600      -42.190114       24.757225
  AL        -142.612013      -42.530515       24.254366
  AL        -140.706427      -42.870915       23.751506
  AL        -138.800840      -43.211316       23.248647
  AL        -136.895254      -43.551717       22.745788
  AL        -134.989667      -43.892118       22.242929
  AL        -133.084081      -44.232519       21.740070
  AL        -131.178494      -44.572920       21.237211
  AL        -129.272908      -44.913321       20.734352
  AL        -127.367321      -45.253722       20.231493
  A           -6.203638      -56.430908     -165.381781
  A           -5.538676      -57.559039     -163.870111
  A           -4.873714      -58.687170     -162.358441
  A           -4.208752      -59.815301     -160.846771
  A           -3.543791      -60.943432     -159.335101
  A           -2.878829      -62.071563     -157.823431
  A           -2.213867      -63.199695     -156.311761
  A           -1.548905      -64.327826     -154.800091
  A           -0.883944      -65.455957     -153.288421
  A           -0.218982      -66.584088     -151.776751
  A            0.445980      -67.712219     -150.265081
  A            1.110941      -68.840350     -148.753411
  A            1.775903      -69.968481     -147.241741
  A            2.440865      -71.096613     -145.730071
  A            3.105827      -72.224744     -144.218401
  A            3.770788      -73.352875     -142.706731
  A            4.435750      -74.481006     -141.195062
  A            5.100712      -75.609137     -139.683392
  A            5.765674      -76.737268     -138.171722
  A            6.430635      -77.865399     -136.660052
  AL           7.095597      -78.993531     -135.148382
  AL           7.760559      -80.121662     -133.636712
  AL           8.425520      -81.249793     -132.125042
  AL           9.090482      -82.377924     -130.613372
  AL           9.755444      -83.506055     -129.101702
  AL          10.420406      -84.634186     -127.590032
  AL          11.085367      -85.762317     -126.078362
  AL          11.750329      -86.890449     -124.566692
  AL          12.415291      -88.018580     -123.055022
  AL          13.080253      -89.146711     -121.543352
  AL          13.745214      -90.274842     -120.031682
  AL          14.410176      -91.402973     -118.520012
  AL          15.075138      -92.531104     -117.008342
  AL          15.740099      -93.659235     -115.496672
  AL          16.405061      -94.787367     -113.985002
  AL          17.070023      -95.915498     -112.473333
  AL          17.734985      -97.043629     -110.961663
  AL          18.399946      -98.171760     -109.449993
  AL          19.064908      -99.299891     -107.938323
  AL          19.729870     -100.428022     -106.426653
  AL          20.394832     -101.556153     -104.914983
  AL          21.059793     -102.684285     -103.403313
  AL          21.724755     -103.812416     -101.891643
  AL          22.389717     -104.940547     -100.379973
  AL          23.054678     -106.068678      -98.868303
  AL          23.719640     -107.196809      -97.356633
  AL          24.384602     -108.324940      -95.844963
  AL          25.049564     -109.453071      -94.333293
  AL          25.714525     -110.581202      -92.821623
  AL          26.379487     -111.709334      -91.309953
  AL          27.044449     -112.837465      -89.798283
  AL          27.709411     -113.965596      -88.286613
  AL          28.374372     -115.093727      -86.774943
  AL          29.039334     -116.221858      -85.263273
  AL          29.704296     -117.349989      -83.751604
  AL          30.369257     -118.478120      -82.239934
  AL          31.034219     -119.606252      -80.728264
  AL          31.699181     -120.734383      -79.216594
  AL          32.364143     -121.862514      -77.704924
  AL          33.029104     -122.990645      -76.193254
  AL          33.694066     -124.118776      -74.681584
  AL          34.359028     -125.246907      -73.169914
  AL          35.023990     -126.375038      -71.658244
  AL          35.688951     -127.503170      -70.146574
  AL          36.353913     -128.631301      -68.634904
  AL          37.018875     -129.759432      -67.123234
  AL          37.683836     -130.887563      -65.611564
  AL          38.348798     -132.015694      -64.099894
  AL          39.013760     -133.143825      -62.588224
  AL          39.678722     -134.271956      -61.076554
  A          168.572335      -63.501311     -230.572838
  A          170.343270      -62.643885     -230.214218
  A          172.114206      -61.786458     -229.855599
  A          173.885141      -60.929032     -229.496979
  A          175.656076      -60.071605     -229.138360
  A          177.427012      -59.214179     -228.779741
  A          179.197947      -58.356752     -228.421121
  A          180.968882      -57.499326     -228.062502
  A          182.739818      -56.641899     -227.703883
  A          184.510753      -55.784473     -227.345263
  A          186.281688      -54.927046     -226.986644
  A          188.052624      -54.069620     -226.628025
  A          189.823559      -53.212193     -226.269405
  A          191.594494      -52.354767     -225.910786
  A          193.365430      -51.497340     -225.552167
  A          195.136365      -50.639914     -225.193547
  A          196.907300      -49.782487     -224.834928
  A          198.678235      -48.925061     -224.476309
  A          200.449171      -48.067634     -224.117689
  A          202.220106      -47.210208     -223.759070
  AL         203.991041      -46.352781     -223.400451
  AL         205.761977      -45.495355     -223.041831
  AL         207.532912      -44.637928     -222.683212
  AL         209.303847      -43.780502     -222.324593
  AL         211.074783      -42.923075     -221.965973
  AL         212.845718      -42.065649     -221.607354
  AL         214.616653      -41.208222     -221.248735
  AL         216.387589      -40.350795     -220.890115
  AL         218.158524      -39.493369     -220.531496
  AL         219.929459      -38.635942     -220.172876
  AL         221.700395      -37.778516     -219.814257
  AL         223.471330      -36.921089     -219.455638
  AL         225.242265      -36.063663     -219.097018
  AL         227.013201      -35.206236     -218.738399
  AL         228.784136      -34.348810     -218.379780
  AL         230.555071      -33.491383     -218.021160
  AL         232.326007      -32.633957     -217.662541
  AL         234.096942      -31.776530     -217.303922
  AL         235.867877      -30.919104     -216.945302
  AL         237.638813      -30.061677     -216.586683
  AL         239.409748      -29.204251     -216.228064
  AL         241.180683      -28.346824     -215.869444
  AL         242.951619      -27.489398     -215.510825
  AL         244.722554      -26.631971     -215.152206
  AL         246.493489      -25.774545     -214.793586
  AL         248.264425      -24.917118     -214.434967
  AL         250.035360      -24.059692     -214.076348
  AL         251.806295      -23.202265     -213.717728
  AL         253.577231      -22.344839     -213.359109
  AL         255.348166      -21.487412     -213.000490
  AL         257.119101      -20.629986     -212.641870
  AL         258.890037      -19.772559     -212.283251
  AL         260.660972      -18.915132     -211.924631
  AL         262.431907      -18.057706     -211.566012
  AL         264.202843      -17.200279     -211.207393
  AL         265.973778      -16.342853     -210.848773
  AL         267.744713      -15.485426     -210.490154
  AL         269.515649      -14.628000     -210.131535
  AL         271.286584      -13.770573     -209.772915
  AL         273.057519      -12.913147     -209.414296
  AL         274.828454      -12.055720     -209.055677
  AL         276.599390      -11.198294     -208.697057
  AL         278.370325      -10.340867     -208.338438
  AL         280.141260       -9.483441     -207.979819
  AL         281.912196       -8.626014     -207.621199
  AL         283.683131       -7.768588     -207.262580
  AL         285.454066       -6.911161     -206.903961
  AL         287.225002       -6.053735     -206.545341
  AL         288.995937       -5.196308     -206.186722
  AL         290.766872       -4.338882     -205.828103
  A          -55.752071        2.414134       62.903964
  A          -56.463372        4.005387       61.923166
  A          -57.174672        5.596640       60.942368
  A          -57.885972        7.187894       59.961570
  A          -58.597273        8.779147       58.980772
  A          -59.308573       10.370400       57.999974
  A          -60.019873       11.961654       57.019176
  A          -60.731174       13.552907       56.038378
  A          -61.442474       15.144161       55.057581
  A          -62.153774       16.735414       54.076783
  A          -62.865075       18.326667       53.095985
  A          -63.576375       19.917921       52.115187
  A          -64.287675       21.509174       51.134389
  A          -64.998976       23.100428       50.153591
  A          -65.710276       24.691681       49.172793
  A          -66.421576       26.282934       48.191995
  A          -67.132877       27.874188       47.211197
  A          -67.844177       29.465441       46.230399
  A          -68.555477       31.056694       45.249601
  A          -69.266778       32.647948       44.268804
  AL         -69.978078       34.239201       43.288006
  AL         -70.689378       35.830455       42.307208
  AL         -71.400679       37.421708       41.326410
  AL         -72.111979       39.012961       40.345612
  AL         -72.823279       40.604215       39.364814
  AL         -73.534580       42.195468       38.384016
  AL         -74.245880       43.786721       37.403218
  AL         -74.957180       45.377975       36.422420
  AL         -75.668481       46.969228       35.441622
  AL         -76.379781       48.560482       34.460825
  AL         -77.091081       50.151735       33.480027
  AL         -77.802382       51.742988       32.499229
  AL         -78.513682       53.334242       31.518431
  AL         -79.224982       54.925495       30.537633
  AL         -79.936283       56.516748       29.556835
  AL         -80.647583       58.108002       28.576037
  AL         -81.358883       59.699255       27.595239
  AL         -82.070184       61.290509       26.614441
  AL         -82.781484       62.881762       25.633643
  AL         -83.492784       64.473015       24.652846
  AL         -84.204085       66.064269       23.672048
  AL         -84.915385       67.655522       22.691250
  AL         -85.626685       69.246776       21.710452
  AL         -86.337986       70.838029       20.729654
  AL         -87.049286       72.429282       19.748856
  AL         -87.760586       74.020536       18.768058
  AL         -88.471887       75.611789       17.787260
  AL         -89.183187       77.203042       16.806462
  AL         -89.894487       78.794296       15.825664
  AL         -90.605788       80.385549       14.844867
  AL         -91.317088       81.976803       13.864069
  AL         -92.028388       83.568056       12.883271
  AL         -92.739689       85.159309       11.902473
  AL         -93.450989       86.750563       10.921675
  AL         -94.162289       88.341816        9.940877
  AL         -94.873590       89.933069        8.960079
  AL         -95.584890       91.524323        7.979281
  AL         -96.296190       93.115576        6.998483
  AL         -97.007491       94.706830        6.017685
  AL         -97.718791       96.298083        5.036888
  AL         -98.430091       97.889336        4.056090
  AL         -99.141392       99.480590        3.075292
  AL         -99.852692      101.071843        2.094494
  AL        -100.563992      102.663096        1.113696
  AL        -101.275293      104.254350        0.132898
  AL        -101.986593      105.845603       -0.847900
  AL        -102.697893      107.436857       -1.828698
  AL        -103.409194      109.028110       -2.809496
  AL        -104.120494      110.619363       -3.790294
  AL        -104.831794      112.210617       -4.771091
  A          -93.615030       66.845089       74.214367
  A          -92.533449       68.406809       74.839837
  A          -91.451869       69.968530       75.465307
  A          -90.370288       71.530250       76.090777
  A          -89.288708       73.091971       76.716247
  A          -88.207127       74.653691       77.341717
  A          -87.125546       76.215412       77.967187
  A          -86.043966       77.777132       78.592657
  A          -84.962385       79.338853       79.218127
  A          -83.880805       80.900573       79.843597
  A          -82.799224       82.462293       80.469067
  A          -81.717644       84.024014       81.094537
  A          -80.636063       85.585734       81.720007
  A          -79.554483       87.147455       82.345477
  A          -78.472902       88.709175       82.970947
  A          -77.391322       90.270896       83.596417
  A          -76.309741       91.832616       84.221887
  A          -75.228161       93.394337       84.847357
  A          -74.146580       94.956057       85.472827
  A          -73.064999       96.517778       86.098297
  AL         -71.983419       98.079498       86.723767
  AL         -70.901838       99.641218       87.349237
  AL         -69.820258      101.202939       87.974707
  AL         -68.738677      102.764659       88.600177
  AL         -67.657097      104.326380       89.225647
  AL         -66.575516      105.888100       89.851117
  AL         -65.493936      107.449821       90.476587
  AL         -64.412355      109.011541       91.102057
  AL         -63.330775      110.573262       91.727527
  AL         -62.249194      112.134982       92.352997
  AL         -61.167614      113.696703       92.978467
  AL         -60.086033      115.258423       93.603937
  AL         -59.004452      116.820144       94.229407
  AL         -57.922872      118.381864       94.854877
  AL         -56.841291      119.943584       95.480347
  AL         -55.759711      121.505305       96.105817
  AL         -54.678130      123.067025       96.731287
  AL         -53.596550      124.628746       97.356757
  AL         -52.514969      126.190466       97.982227
  AL         -51.433389      127.752187       98.607697
  AL         -50.351808      129.313907       99.233167
  AL         -49.270228      130.875628       99.858637
  AL         -48.188647      132.437348      100.484107
  AL         -47.107066      133.999069      101.109577
  AL         -46.025486      135.560789      101.735047
  AL         -44.943905      137.122509      102.360517
  AL         -43.862325      138.684230      102.985987
  AL         -42.780744      140.245950      103.611457
  AL         -41.699164      141.807671      104.236927
  AL         -40.617583      143.369391      104.862397
  AL         -39.536003      144.931112      105.487867
  AL         -38.454422      146.492832      106.113337
  AL         -37.372842      148.054553      106.738807
  AL         -36.291261      149.616273      107.364278
  AL         -35.209681      151.177994      107.989748
  AL         -34.128100      152.739714      108.615218
  AL         -33.046519      154.301435      109.240688
  AL         -31.964939      155.863155      109.866158
  AL         -30.883358      157.424875      110.491628
  AL         -29.801778      158.986596      111.117098
  AL         -28.720197      160.548316      111.742568
  AL         -27.638617      162.110037      112.368038
  AL         -26.557036      163.671757      112.993508
  AL         -25.475456      165.233478      113.618978
  AL         -24.393875      166.795198      114.244448
  AL         -23.312295      168.356919      114.869918
  AL         -22.230714      169.918639      115.495388
  AL         -21.149133      171.480360      116.120858
  AL         -20.067553      173.042080      116.746328
  AL         -18.985972      174.603800      117.371798
  A         -226.445014      128.739408      126.532594
  A         -226.475213      129.683212      128.295637
  A         -226.505412      130.627016      130.058680
  A         -226.535611      131.570820      131.821724
  A         -226.565810      132.514624      133.584767
  A         -226.596009      133.458428      135.347810
  A         -226.626208      134.402232      137.110854
  A         -226.656407      135.346037      138.873897
  A         -226.686606      136.289841      140.636940
  A         -226.716805      137.233645      142.399984
  A         -226.747004      138.177449      144.163027
  A         -226.777203      139.121253      145.926070
  A         -226.807402      140.065057      147.689114
  A         -226.837600      141.008861      149.452157
  A         -226.867799      141.952665      151.215200
  A         -226.897998      142.896469      152.978244
  A         -226.928197      143.840274      154.741287
  A         -226.958396      144.784078      156.504330
  A         -226.988595      145.727882      158.267374
  A         -227.018794      146.671686      160.030417
  AL        -227.048993      147.615490      161.793460
  AL        -227.079192      148.559294      163.556504
  AL        -227.109391      149.503098      165.319547
  AL        -227.139590      150.446902      167.082590
  AL        -227.169789      151.390707      168.845634
  AL        -227.199988      152.334511      170.608677
  AL        -227.230187      153.278315      172.371720
  AL        -227.260386      154.222119      174.134764
  AL        -227.290585      155.165923      175.897807
  AL        -227.320784      156.109727      177.660850
  AL        -227.350983      157.053531      179.423894
  AL        -227.381182      157.997335      181.186937
  AL        -227.411381      158.941140      182.949980
  AL        -227.441579      159.884944      184.713024
  AL        -227.471778      160.828748      186.476067
  AL        -227.501977      161.772552      188.239110
  AL        -227.532176      162.716356      190.002154
  AL        -227.562375      163.660160      191.765197
  AL        -227.592574      164.603964      193.528240
  AL        -227.622773      165.547768      195.291284
  AL        -227.652972      166.491573      197.054327
  AL        -227.683171      167.435377      198.817370
  AL        -227.713370      168.379181      200.580414
  AL        -227.743569      169.322985      202.343457
  AL        -227.773768      170.266789      204.106500
  AL        -227.803967      171.210593      205.869544
  AL        -227.834166      172.154397      207.632587
  AL        -227.864365      173.098201      209.395630
  AL        -227.894564      174.042006      211.158674
  AL        -227.924763      174.985810      212.921717
  AL        -227.954962      175.929614      214.684760
  AL        -227.985161      176.873418      216.447804
  AL        -228.015359      177.817222      218.210847
  AL        -228.045558      178.761026      219.973890
  AL        -228.075757      179.704830      221.736934
  AL        -228.105956      180.648634      223.499977
  AL        -228.136155      181.592439      225.263020
  AL        -228.166354      182.536243      227.026064
  AL        -228.196553      183.480047      228.789107
  AL        -228.226752      184.423851      230.552150
  AL        -228.256951      185.367655      232.315194
  AL        -228.287150      186.311459      234.078237
  AL        -228.317349      187.255263      235.841280
  AL        -228.347548      188.199067      237.604324
  AL        -228.377747      189.142871      239.367367
  AL        -228.407946      190.086676      241.130410
  AL        -228.438145      191.030480      242.893454
  AL        -228.468344      191.974284      244.656497
  AL        -228.498543      192.918088      246.419540
  AL        -228.528742      193.861892      248.182584
  A         -230.700698      -38.548873     -234.350139
  A         -229.947313      -40.400448     -234.414035
  A         -229.193928      -42.252022     -234.477931
  A         -228.440543      -44.103597     -234.541828
  A         -227.687158      -45.955171     -234.605724
  A         -226.933773      -47.806746     -234.669620
  A         -226.180388      -49.658320     -234.733517
  A         -225.427003      -51.509895     -234.797413
  A         -224.673618      -53.361470     -234.861309
  A         -223.920233      -55.213044     -234.925206
  A         -223.166848      -57.064619     -234.989102
  A         -222.413462      -58.916193     -235.052998
  A         -221.660077      -60.767768     -235.116895
  A         -220.906692      -62.619342     -235.180791
  A         -220.153307      -64.470917     -235.244687
  A         -219.399922      -66.322491     -235.308584
  A         -218.646537      -68.174066     -235.372480
  A         -217.893152      -70.025640     -235.436376
  A         -217.139767      -71.877215     -235.500273
  A         -216.386382      -73.728789     -235.564169
  AL        -215.632997      -75.580364     -235.628065
  AL        -214.879612      -77.431938     -235.691962
  AL        -214.126227      -79.283513     -235.755858
  AL        -213.372842      -81.135088     -235.819754
  AL        -212.619457      -82.986662     -235.883651
  AL        -211.866072      -84.838237     -235.947547
  AL        -211.112687      -86.689811     -236.011443
  AL        -210.359302      -88.541386     -236.075340
  AL        -209.605917      -90.392960     -236.139236
  AL        -208.852532      -92.244535     -236.203132
  AL        -208.099147      -94.096109     -236.267028
  AL        -207.345762      -95.947684     -236.330925
  AL        -206.592377      -97.799258     -236.394821
  AL        -205.838992      -99.650833     -236.458717
  AL        -205.085607     -101.502407     -236.522614
  AL        -204.332221     -103.353982     -236.586510
  AL        -203.578836     -105.205556     -236.650406
  AL        -202.825451     -107.057131     -236.714303
  AL        -202.072066     -108.908705     -236.778199
  AL        -201.318681     -110.760280     -236.842095
  AL        -200.565296     -112.611855     -236.905992
  AL        -199.811911     -114.463429     -236.969888
  AL        -199.058526     -116.315004     -237.033784
  AL        -198.305141     -118.166578     -237.097681
  AL        -197.551756     -120.018153     -237.161577
  AL        -196.798371     -121.869727     -237.225473
  AL        -196.044986     -123.721302     -237.289370
  AL        -195.291601     -125.572876     -237.353266
  AL        -194.538216     -127.424451     -237.417162
  AL        -193.784831     -129.276025     -237.481059
  AL        -193.031446     -131.127600     -237.544955
  AL        -192.278061     -132.979174     -237.608851
  AL        -191.524676     -134.830749     -237.672748
  AL        -190.771291     -136.682323     -237.736644
  AL        -190.017906     -138.533898     -237.800540
  AL        -189.264521     -140.385472     -237.864437
  AL        -188.511136     -142.237047     -237.928333
  AL        -187.757751     -144.088622     -237.992229
  AL        -187.004366     -145.940196     -238.056125
  AL        -186.250980     -147.791771     -238.120022
  AL        -185.497595     -149.643345     -238.183918
  AL        -184.744210     -151.494920     -238.247814
  AL        -183.990825     -153.346494     -238.311711
  AL        -183.237440     -155.198069     -238.375607
  AL        -182.484055     -157.049643     -238.439503
  AL        -181.730670     -158.901218     -238.503400
  AL        -180.977285     -160.752792     -238.567296
  AL        -180.223900     -162.604367     -238.631192
  AL        -179.470515     -164.455941     -238.695089
  AL        -178.717130     -166.307516     -238.758985
  A          149.107725      -87.491630        0.508008
  A          147.781856      -88.163729        1.846049
  A          146.455987      -88.835828        3.184090
  A          145.130119      -89.507927        4.522131
  A          143.804250      -90.180026        5.860173
  A          142.478381      -90.852125        7.198214
  A          141.152512      -91.524224        8.536255
  A          139.826643      -92.196323        9.874297
  A          138.500774      -92.868422       11.212338
  A          137.174905      -93.540521       12.550379
  A          135.849036      -94.212620       13.888421
  A          134.523167      -94.884719       15.226462
  A          133.197298      -95.556818       16.564503
  A          131.871429      -96.228917       17.902544
  A          130.545560      -96.901016       19.240586
  A          129.219691      -97.573115       20.578627
  A          127.893822      -98.245214       21.916668
  A          126.567953      -98.917313       23.254710
  A          125.242085      -99.589412       24.592751
  A          123.916216     -100.261511       25.930792
  AL         122.590347     -100.933610       27.268834
  AL         121.264478     -101.605709       28.606875
  AL         119.938609     -102.277808       29.944916
  AL         118.612740     -102.949907       31.282957
  AL         117.286871     -103.622006       32.620999
  AL         115.961002     -104.294105       33.959040
  AL         114.635133     -104.966204       35.297081
  AL         113.309264     -105.638303       36.635123
  AL         111.983395     -106.310402       37.973164
  AL         110.657526     -106.982501       39.311205
  AL         109.331657     -107.654600       40.649247
  AL         108.005788     -108.326699       41.987288
  AL         106.679919     -108.998798       43.325329
  AL         105.354050     -109.670897       44.663370
  AL         104.028182     -110.342996       46.001412
  AL         102.702313     -111.015095       47.339453
  AL         101.376444     -111.687194       48.677494
  AL         100.050575     -112.359293       50.015536
  AL          98.724706     -113.031391       51.353577
  AL          97.398837     -113.703490       52.691618
  AL          96.072968     -114.375589       54.029660
  AL          94.747099     -115.047688       55.367701
  AL          93.421230     -115.719787       56.705742
  AL          92.095361     -116.391886       58.043783
  AL          90.769492     -117.063985       59.381825
  AL          89.443623     -117.736084       60.719866
  AL          88.117754     -118.408183       62.057907
  AL          86.791885     -119.080282       63.395949
  AL          85.466016     -119.752381       64.733990
  AL          84.140148     -120.424480       66.072031
  AL          82.814279     -121.096579       67.410073
  AL          81.488410     -121.768678       68.748114
  AL          80.162541     -122.440777       70.086155
  AL          78.836672     -123.112876       71.424196
  AL          77.510803     -123.784975       72.762238
  AL          76.184934     -124.457074       74.100279
  AL          74.859065     -125.129173       75.438320
  AL          73.533196     -125.801272       76.776362
  AL          72.207327     -126.473371       78.114403
  AL          70.881458     -127.145470       79.452444
  AL          69.555589     -127.817569       80.790486
  AL          68.229720     -128.489668       82.128527
  AL          66.903851     -129.161767       83.466568
  AL          65.577982     -129.833866       84.804609
  AL          64.252113     -130.505965       86.142651
  AL          62.926245     -131.178064       87.480692
  AL          61.600376     -131.850163       88.818733
  AL          60.274507     -132.522262       90.156775
  AL          58.948638     -133.194361       91.494816
  AL          57.622769     -133.866460       92.832857
  A         -179.296251     -187.280545      107.675004
  A         -180.293868     -186.032815      108.878304
  A         -181.291484     -184.785085      110.081603
  A         -182.289101     -183.537354      111.284903
  A         -183.286717     -182.289624      112.488203
  A         -184.284334     -181.041894      113.691502
  A         -185.281951     -179.794163      114.894802
  A         -186.279567     -178.546433      116.098102
  A         -187.277184     -177.298703      117.301401
  A         -188.274800     -176.050972      118.504701
  A         -189.272417     -174.803242      119.708001
  A         -190.270034     -173.555512      120.911301
  A         -191.267650     -172.307781      122.114600
  A         -192.265267     -171.060051      123.317900
  A         -193.262883     -169.812321      124.521200
  A         -194.260500     -168.564590      125.724499
  A         -195.258117     -167.316860      126.927799
  A         -196.255733     -166.069130      128.131099
  A         -197.253350     -164.821399      129.334398
  A         -198.250966     -163.573669      130.537698
  AL        -199.248583     -162.325939      131.740998
  AL        -200.246200     -161.078208      132.944297
  AL        -201.243816     -159.830478      134.147597
  AL        -202.241433     -158.582748      135.350897
  AL        -203.239049     -157.335018      136.554196
  AL        -204.236666     -156.087287      137.757496
  AL        -205.234283     -154.839557      138.960796
  AL        -206.231899     -153.591827      140.164095
  AL        -207.229516     -152.344096      141.367395
  AL        -208.227133     -151.096366      142.570695
  AL        -209.224749     -149.848636      143.773994
  AL        -210.222366     -148.600905      144.977294
  AL        -211.219982     -147.353175      146.180594
  AL        -212.217599     -146.105445      147.383894
  AL        -213.215216     -144.857714      148.587193
  AL        -214.212832     -143.609984      149.790493
  AL        -215.210449     -142.362254      150.993793
  AL        -216.208065     -141.114523      152.197092
  AL        -217.205682     -139.866793      153.400392
  AL        -218.203299     -138.619063      154.603692
  AL        -219.200915     -137.371332      155.806991
  AL        -220.198532     -136.123602      157.010291
  AL        -221.196148     -134.875872      158.213591
  AL        -222.193765     -133.628141      159.416890
  AL        -223.191382     -132.380411      160.620190
  AL        -224.188998     -131.132681      161.823490
  AL        -225.186615     -129.884950      163.026789
  AL        -226.184231     -128.637220      164.230089
  AL        -227.181848     -127.389490      165.433389
  AL        -228.179465     -126.141759      166.636688
  AL        -229.177081     -124.894029      167.839988
  AL        -230.174698     -123.646299      169.043288
  AL        -231.172314     -122.398568      170.246588
  AL        -232.169931     -121.150838      171.449887
  AL        -233.167548     -119.903108      172.653187
  AL        -234.165164     -118.655377      173.856487
  AL        -235.162781     -117.407647      175.059786
  AL        -236.160398     -116.159917      176.263086
  AL        -237.158014     -114.912186      177.466386
  AL        -238.155631     -113.664456      178.669685
  AL        -239.153247     -112.416726      179.872985
  AL        -240.150864     -111.168995      181.076285
  AL        -241.148481     -109.921265      182.279584
  AL        -242.146097     -108.673535      183.482884
  AL        -243.143714     -107.425804      184.686184
  AL        -244.141330     -106.178074      185.889483
  AL        -245.138947     -104.930344      187.092783
  AL        -246.136564     -103.682613      188.296083
  AL        -247.134180     -102.434883      189.499382
  AL        -248.131797     -101.187153      190.702682
  A         -262.126065      227.009464        6.241493
  A         -260.611604      226.931454        7.545456
  A         -259.097142      226.853443        8.849419
  A         -257.582680      226.775433       10.153383
  A         -256.068218      226.697422       11.457346
  A         -254.553757      226.619412       12.761309
  A         -253.039295      226.541402       14.065272
  A         -251.524833      226.463391       15.369235
  A         -250.010371      226.385381       16.673199
  A         -248.495910      226.307370       17.977162
  A         -246.981448      226.229360       19.281125
  A         -245.466986      226.151350       20.585088
  A         -243.952525      226.073339       21.889051
  A         -242.438063      225.995329       23.193015
  A         -240.923601      225.917318       24.496978
  A         -239.409139      225.839308       25.800941
  A         -237.894678      225.761298       27.104904
  A         -236.380216      225.683287       28.408867
  A         -234.865754      225.605277       29.712831
  A         -233.351292      225.527267       31.016794
  AL        -231.836831      225.449256       32.320757
  AL        -230.322369      225.371246       33.624720
  AL        -228.807907      225.293235       34.928683
  AL        -227.293445      225.215225       36.232647
  AL        -225.778984      225.137215       37.536610
  AL        -224.264522      225.059204       38.840573
  AL        -222.750060      224.981194       40.144536
  AL        -221.235598      224.903183       41.448499
  AL        -219.721137      224.825173       42.752463
  AL        -218.206675      224.747163       44.056426
  AL        -216.692213      224.669152       45.360389
  AL        -215.177751      224.591142       46.664352
  AL        -213.663290      224.513131       47.968315
  AL        -212.148828      224.435121       49.272278
  AL        -210.634366      224.357111       50.576242
  AL        -209.119904      224.279100       51.880205
  AL        -207.605443      224.201090       53.184168
  AL        -206.090981      224.123079       54.488131
  AL        -204.576519      224.045069       55.792094
  AL        -203.062058      223.967059       57.096058
  AL        -201.547596      223.889048       58.400021
  AL        -200.033134      223.811038       59.703984
  AL        -198.518672      223.733028       61.007947
  AL        -197.004211      223.655017       62.311910
  AL        -195.489749      223.577007       63.615874
  AL        -193.975287      223.498996       64.919837
  AL        -192.460825      223.420986       66.223800
  AL        -190.946364      223.342976       67.527763
  AL        -189.431902      223.264965       68.831726
  AL        -187.917440      223.186955       70.135690
  AL        -186.402978      223.108944       71.439653
  AL        -184.888517      223.030934       72.743616
  AL        -183.374055      222.952924       74.047579
  AL        -181.859593      222.874913       75.351542
  AL        -180.345131      222.796903       76.655506
  AL        -178.830670      222.718892       77.959469
  AL        -177.316208      222.640882       79.263432
  AL        -175.801746      222.562872       80.567395
  AL        -174.287284      222.484861       81.871358
  AL        -172.772823      222.406851       83.175322
  AL        -171.258361      222.328841       84.479285
  AL        -169.743899      222.250830       85.783248
  AL        -168.229437      222.172820       87.087211
  AL        -166.714976      222.094809       88.391174
  AL        -165.200514      222.016799       89.695138
  AL        -163.686052      221.938789       90.999101
  AL        -162.171591      221.860778       92.303064
  AL        -160.657129      221.782768       93.607027
  AL        -159.142667      221.704757       94.910990
  AL        -157.628205      221.626747       96.214953
  A          -59.664517      -10.896286     -162.772675
  A          -60.791805      -10.118329     -164.230071
  A          -61.919094       -9.340371     -165.687467
  A          -63.046382       -8.562413     -167.144863
  A          -64.173671       -7.784456     -168.602259
  A          -65.300959       -7.006498     -170.059655
  A          -66.428247       -6.228541     -171.517051
  A          -67.555536       -5.450583     -172.974447
  A          -68.682824       -4.672626     -174.431843
  A          -69.810112       -3.894668     -175.889239
  A          -70.937401       -3.116711     -177.346635
  A          -72.064689       -2.338753     -178.804031
  A          -73.191977       -1.560796     -180.261427
  A          -74.319266       -0.782838     -181.718823
  A          -75.446554       -0.004880     -183.176219
  A          -76.573843        0.773077     -184.633615
  A          -77.701131        1.551035     -186.091011
  A          -78.828419        2.328992     -187.548407
  A          -79.955708        3.106950     -189.005803
  A          -81.082996        3.884907     -190.463199
  AL         -82.210284        4.662865     -191.920595
  AL         -83.337573        5.440822     -193.377991
  AL         -84.464861        6.218780     -194.835387
  AL         -85.592150        6.996737     -196.292783
  AL         -86.719438        7.774695     -197.750179
  AL         -87.846726        8.552652     -199.207574
  AL         -88.974015        9.330610     -200.664970
  AL         -90.101303       10.108568     -202.122366
  AL         -91.228591       10.886525     -203.579762
  AL         -92.355880       11.664483     -205.037158
  AL         -93.483168       12.442440     -206.494554
  AL         -94.610456       13.220398     -207.951950
  AL         -95.737745       13.998355     -209.409346
  AL         -96.865033       14.776313     -210.866742
  AL         -97.992322       15.554270     -212.324138
  AL         -99.119610       16.332228     -213.781534
  AL        -100.246898       17.110185     -215.238930
  AL        -101.374187       17.888143     -216.696326
  AL        -102.501475       18.666101     -218.153722
  AL        -103.628763       19.444058     -219.611118
  AL        -104.756052       20.222016     -221.068514
  AL        -105.883340       20.999973     -222.525910
  AL        -107.010629       21.777931     -223.983306
  AL        -108.137917       22.555888     -225.440702
  AL        -109.265205       23.333846     -226.898098
  AL        -110.392494       24.111803     -228.355494
  AL        -111.519782       24.889761     -229.812890
  AL        -112.647070       25.667718     -231.270286
  AL        -113.774359       26.445676     -232.727682
  AL        -114.901647       27.223633     -234.185078
  AL        -116.028935       28.001591     -235.642474
  AL        -117.156224       28.779549     -237.099870
  AL        -118.283512       29.557506     -238.557266
  AL        -119.410801       30.335464     -240.014662
  AL        -120.538089       31.113421     -241.472057
  AL        -121.665377       31.891379     -242.929453
  AL        -122.792666       32.669336     -244.386849
  AL        -123.919954       33.447294     -245.844245
  AL        -125.047242       34.225251     -247.301641
  AL        -126.174531       35.003209     -248.759037
  AL        -127.301819       35.781166     -250.216433
  AL        -128.429108       36.559124     -251.673829
  AL        -129.556396       37.337082     -253.131225
  AL        -130.683684       38.115039     -254.588621
  AL        -131.810973       38.892997     -256.046017
  AL        -132.938261       39.670954     -257.503413
  AL        -134.065549       40.448912     -258.960809
  AL        -135.192838       41.226869     -260.418205
  AL        -136.320126       42.004827     -261.875601
  AL        -137.447414       42.782784     -263.332997
  A         -257.504294      -57.956851     -199.101244
  A         -255.831322      -56.898519     -198.816464
  A         -254.158351      -55.840187     -198.531683
  A         -252.485379      -54.781855     -198.246902
  A         -250.812408      -53.723523     -197.962122
  A         -249.139437      -52.665191     -197.677341
  A         -247.466465      -51.606859     -197.392561
  A         -245.793494      -50.548527     -197.107780
  A         -244.120522      -49.490195     -196.822999
  A         -242.447551      -48.431863     -196.538219
  A         -240.774580      -47.373531     -196.253438
  A         -239.101608      -46.315198     -195.968657
  A         -237.428637      -45.256866     -195.683877
  A         -235.755665      -44.198534     -195.399096
  A         -234.082694      -43.140202     -195.114316
  A         -232.409723      -42.081870     -194.829535
  A         -230.736751      -41.023538     -194.544754
  A         -229.063780      -39.965206     -194.259974
  A         -227.390809      -38.906874     -193.975193
  A         -225.717837      -37.848542     -193.690413
  AL        -224.044866      -36.790210     -193.405632
  AL        -222.371894      -35.731878     -193.120851
  AL        -220.698923      -34.673546     -192.836071
  AL        -219.025952      -33.615214     -192.551290
  AL        -217.352980      -32.556882     -192.266510
  AL        -215.680009      -31.498550     -191.981729
  AL        -214.007037      -30.440218     -191.696948
  AL        -212.334066      -29.381886     -191.412168
  AL        -210.661095      -28.323554     -191.127387
  AL        -208.988123      -27.265222     -190.842607
  AL        -207.315152      -26.206890     -190.557826
  AL        -205.642180      -25.148558     -190.273045
  AL        -203.969209      -24.090226     -189.988265
  AL        -202.296238      -23.031894     -189.703484
  AL        -200.623266      -21.973562     -189.418704
  AL        -198.950295      -20.915229     -189.133923
  AL        -197.277323      -19.856897     -188.849142
  AL        -195.604352      -18.798565     -188.564362
  AL        -193.931381      -17.740233     -188.279581
  AL        -192.258409      -16.681901     -187.994801
  AL        -190.585438      -15.623569     -187.710020
  AL        -188.912466      -14.565237     -187.425239
  AL        -187.239495      -13.506905     -187.140459
  AL        -185.566524      -12.448573     -186.855678
  AL        -183.893552      -11.390241     -186.570898
  AL        -182.220581      -10.331909     -186.286117
  AL        -180.547609       -9.273577     -186.001336
  AL        -178.874638       -8.215245     -185.716556
  AL        -177.201667       -7.156913     -185.431775
  AL        -175.528695       -6.098581     -185.146995
  AL        -173.855724       -5.040249     -184.862214
  AL        -172.182752       -3.981917     -184.577433
  AL        -170.509781       -2.923585     -184.292653
  AL        -168.836810       -1.865253     -184.007872
  AL        -167.163838       -0.806921     -183.723091
  AL        -165.490867        0.251411     -183.438311
  AL        -163.817895        1.309743     -183.153530
  AL        -162.144924        2.368075     -182.868750
  AL        -160.471953        3.426407     -182.583969
  AL        -158.798981        4.484740     -182.299188
  AL        -157.126010        5.543072     -182.014408
  AL        -155.453038        6.601404     -181.729627
  AL        -153.780067        7.659736     -181.444847
  AL        -152.107096        8.718068     -181.160066
  AL        -150.434124        9.776400     -180.875285
  AL        -148.761153       10.834732     -180.590505
  AL        -147.088181       11.893064     -180.305724
  AL        -145.415210       12.951396     -180.020944
  AL        -143.742239       14.009728     -179.736163
  AL        -142.069267       15.068060     -179.451382
  A          -57.858283      -12.073372      -87.925319
  A          -56.490009      -12.726303      -86.620900
  A          -55.121735      -13.379235      -85.316482
  A          -53.753461      -14.032166      -84.012064
  A          -52.385187      -14.685098      -82.707646
  A          -51.016913      -15.338029      -81.403227
  A          -49.648639      -15.990961      -80.098809
  A          -48.280365      -16.643892      -78.794391
  A          -46.912091      -17.296823      -77.489973
  A          -45.543817      -17.949755      -76.185554
  A          -44.175543      -18.602686      -74.881136
  A          -42.807269      -19.255618      -73.576718
  A          -41.438995      -19.908549      -72.272300
  A          -40.070721      -20.561481      -70.967881
  A          -38.702447      -21.214412      -69.663463
  A          -37.334173      -21.867344      -68.359045
  A          -35.965899      -22.520275      -67.054627
  A          -34.597626      -23.173207      -65.750209
  A          -33.229352      -23.826138      -64.445790
  A          -31.861078      -24.479069      -63.141372
  AL         -30.492804      -25.132001      -61.836954
  AL         -29.124530      -25.784932      -60.532536
  AL         -27.756256      -26.437864      -59.228117
  AL         -26.387982      -27.090795      -57.923699
  AL         -25.019708      -27.743727      -56.619281
  AL         -23.651434      -28.396658      -55.314863
  AL         -22.283160      -29.049590      -54.010444
  AL         -20.914886      -29.702521      -52.706026
  AL         -19.546612      -30.355452      -51.401608
  AL         -18.178338      -31.008384      -50.097190
  AL         -16.810064      -31.661315      -48.792771
  AL         -15.441790      -32.314247      -47.488353
  AL         -14.073516      -32.967178      -46.183935
  AL         -12.705242      -33.620110      -44.879517
  AL         -11.336968      -34.273041      -43.575099
  AL          -9.968694      -34.925973      -42.270680
  AL          -8.600421      -35.578904      -40.966262
  AL          -7.232147      -36.231835      -39.661844
  AL          -5.863873      -36.884767      -38.357426
  AL          -4.495599      -37.537698      -37.053007
  AL          -3.127325      -38.190630      -35.748589
  AL          -1.759051      -38.843561      -34.444171
  AL          -0.390777      -39.496493      -33.139753
  AL           0.977497      -40.149424      -31.835334
  AL           2.345771      -40.802356      -30.530916
  AL           3.714045      -41.455287      -29.226498
  AL           5.082319      -42.108219      -27.922080
  AL           6.450593      -42.761150      -26.617661
  AL           7.818867      -43.414081      -25.313243
  AL           9.187141      -44.067013      -24.008825
  AL          10.555415      -44.719944      -22.704407
  AL          11.923689      -45.372876      -21.399988
  AL          13.291963      -46.025807      -20.095570
  AL          14.660237      -46.678739      -18.791152
  AL          16.028510      -47.331670      -17.486734
  AL          17.396784      -47.984602      -16.182316
  AL          18.765058      -48.637533      -14.877897
  AL          20.133332      -49.290464      -13.573479
  AL          21.501606      -49.943396      -12.269061
  AL          22.869880      -50.596327      -10.964643
  AL          24.238154      -51.249259       -9.660224
  AL          25.606428      -51.902190       -8.355806
  AL          26.974702      -52.555122       -7.051388
  AL          28.342976      -53.208053       -5.746970
  AL          29.711250      -53.860985       -4.442551
  AL          31.079524      -54.513916       -3.138133
  AL          32.447798      -55.166848       -1.833715
  AL          33.816072      -55.819779       -0.529297
  AL          35.184346      -56.472710        0.775122
  AL          36.552620      -57.125642        2.079540
  A         -102.554147     -253.680231      -59.022604
  A         -103.034718     -252.863396      -57.261402
  A         -103.515289     -252.046562      -55.500199
  A         -103.995860     -251.229728      -53.738997
  A         -104.476431     -250.412893      -51.977795
  A         -104.957001     -249.596059      -50.216593
  A         -105.437572     -248.779225      -48.455391
  A         -105.918143     -247.962390      -46.694188
  A         -106.398714     -247.145556      -44.932986
  A         -106.879285     -246.328721      -43.171784
  A         -107.359856     -245.511887      -41.410582
  A         -107.840427     -244.695053      -39.649379
  A         -108.320998     -243.878218      -37.888177
  A         -108.801568     -243.061384      -36.126975
  A         -109.282139     -242.244550      -34.365773
  A         -109.762710     -241.427715      -32.604570
  A         -110.243281     -240.610881      -30.843368
  A         -110.723852     -239.794047      -29.082166
  A         -111.204423     -238.977212      -27.320964
  A         -111.684994     -238.160378      -25.559762
  AL        -112.165564     -237.343544      -23.798559
  AL        -112.646135     -236.526709      -22.037357
  AL        -113.126706     -235.709875      -20.276155
  AL        -113.607277     -234.893041      -18.514953
  AL        -114.087848     -234.076206      -16.753750
  AL        -114.568419     -233.259372      -14.992548
  AL        -115.048990     -232.442538      -13.231346
  AL        -115.529560     -231.625703      -11.470144
  AL        -116.010131     -230.808869       -9.708941
  AL        -116.490702     -229.992035       -7.947739
  AL        -116.971273     -229.175200       -6.186537
  AL        -117.451844     -228.358366       -4.425335
  AL        -117.932415     -227.541532       -2.664133
  AL        -118.412986     -226.724697       -0.902930
  AL        -118.893556     -225.907863        0.858272
  AL        -119.374127     -225.091028        2.619474
  AL        -119.854698     -224.274194        4.380676
  AL        -120.335269     -223.457360        6.141879
  AL        -120.815840     -222.640525        7.903081
  AL        -121.296411     -221.823691        9.664283
  AL        -121.776982     -221.006857       11.425485
  AL        -122.257553     -220.190022       13.186688
  AL        -122.738123     -219.373188       14.947890
  AL        -123.218694     -218.556354       16.709092
  AL        -123.699265     -217.739519       18.470294
  AL        -124.179836     -216.922685       20.231496
  AL        -124.660407     -216.105851       21.992699
  AL        -125.140978     -215.289016       23.753901
  AL        -125.621549     -214.472182       25.515103
  AL        -126.102119     -213.655348       27.276305
  AL        -126.582690     -212.838513       29.037508
  AL        -127.063261     -212.021679       30.798710
  AL        -127.543832     -211.204845       32.559912
  AL        -128.024403     -210.388010       34.321114
  AL        -128.504974     -209.571176       36.082317
  AL        -128.985545     -208.754342       37.843519
  AL        -129.466115     -207.937507       39.604721
  AL        -129.946686     -207.120673       41.365923
  AL        -130.427257     -206.303839       43.127125
  AL        -130.907828     -205.487004       44.888328
  AL        -131.388399     -204.670170       46.649530
  AL        -131.868970     -203.853336       48.410732
  AL        -132.349541     -203.036501       50.171934
  AL        -132.830111     -202.219667       51.933137
  AL        -133.310682     -201.402832       53.694339
  AL        -133.791253     -200.585998       55.455541
  AL        -134.271824     -199.769164       57.216743
  AL        -134.752395     -198.952329       58.977946
  AL        -135.232966     -198.135495       60.739148
  AL        -135.713537     -197.318661       62.500350
  A          118.449996      -28.744938      -91.629136
  A          118.848644      -26.957839      -92.433720
  A          119.247292      -25.170739      -93.238304
  A          119.645939      -23.383639      -94.042888
  A          120.044587      -21.596540      -94.847471
  A          120.443235      -19.809440      -95.652055
  A          120.841883      -18.022340      -96.456639
  A          121.240531      -16.235241      -97.261222
  A          121.639178      -14.448141      -98.065806
  A          122.037826      -12.661042      -98.870390
  A          122.436474      -10.873942      -99.674973
  A          122.835122       -9.086842     -100.479557
  A          123.233769       -7.299743     -101.284141
  A          123.632417       -5.512643     -102.088724
  A          124.031065       -3.725543     -102.893308
  A          124.429713       -1.938444     -103.697892
  A          124.828361       -0.151344     -104.502475
  A          125.227008        1.635755     -105.307059
  A          125.625656        3.422855     -106.111643
  A          126.024304        5.209955     -106.916227
  AL         126.422952        6.997054     -107.720810
  AL         126.821599        8.784154     -108.525394
  AL         127.220247       10.571253     -109.329978
  AL         127.618895       12.358353     -110.134561
  AL         128.017543       14.145453     -110.939145
  AL         128.416191       15.932552     -111.743729
  AL         128.814838       17.719652     -112.548312
  AL         129.213486       19.506752     -113.352896
  AL         129.612134       21.293851     -114.157480
  AL         130.010782       23.080951     -114.962063
  AL         130.409429       24.868050     -115.766647
  AL         130.808077       26.655150     -116.571231
  AL         131.206725       28.442250     -117.375814
  AL         131.605373       30.229349     -118.180398
  AL         132.004021       32.016449     -118.984982
  AL         132.402668       33.803548     -119.789566
  AL         132.801316       35.590648     -120.594149
  AL         133.199964       37.377748     -121.398733
  AL         133.598612       39.164847     -122.203317
  AL         133.997259       40.951947     -123.007900
  AL         134.395907       42.739047     -123.812484
  AL         134.794555       44.526146     -124.617068
  AL         135.193203       46.313246     -125.421651
  AL         135.591851       48.100345     -126.226235
  AL         135.990498       49.887445     -127.030819
  AL         136.389146       51.674545     -127.835402
  AL         136.787794       53.461644     -128.639986
  AL         137.186442       55.248744     -129.444570
  AL         137.585089       57.035843     -130.249153
  AL         137.983737       58.822943     -131.053737
  AL         138.382385       60.610043     -131.858321
  AL         138.781033       62.397142     -132.662905
  AL         139.179681       64.184242     -133.467488
  AL         139.578328       65.971342     -134.272072
  AL         139.976976       67.758441     -135.076656
  AL         140.375624       69.545541     -135.881239
  AL         140.774272       71.332640     -136.685823
  AL         141.172919       73.119740     -137.490407
  AL         141.571567       74.906840     -138.294990
  AL         141.970215       76.693939     -139.099574
  AL         142.368863       78.481039     -139.904158
  AL         142.767511       80.268138     -140.708741
  AL         143.166158       82.055238     -141.513325
  AL         143.564806       83.842338     -142.317909
  AL         143.963454       85.629437     -143.122492
  AL         144.362102       87.416537     -143.927076
  AL         144.760749       89.203637     -144.731660
  AL         145.159397       90.990736     -145.536244
  AL         145.558045       92.777836     -146.340827
  AL         145.956693       94.564935     -147.145411
  A          139.299547      -85.048785      192.919497
  A          140.064944      -86.753162      193.633126
  A          140.830342      -88.457539      194.346754
  A          141.595739      -90.161916      195.060382
  A          142.361136      -91.866293      195.774011
  A          143.126533      -93.570670      196.487639
  A          143.891931      -95.275048      197.201268
  A          144.657328      -96.979425      197.914896
  A          145.422725      -98.683802      198.628525
  A          146.188122     -100.388179      199.342153
  A          146.953519     -102.092556      200.055782
  A          147.718917     -103.796933      200.769410
  A          148.484314     -105.501311      201.483039
  A          149.249711     -107.205688      202.196667
  A          150.015108     -108.910065      202.910296
  A          150.780506     -110.614442      203.623924
  A          151.545903     -112.318819      204.337553
  A          152.311300     -114.023196      205.051181
  A          153.076697     -115.727573      205.764809
  A          153.842094     -117.431951      206.478438
  AL         154.607492     -119.136328      207.192066
  AL         155.372889     -120.840705      207.905695
  AL         156.138286     -122.545082      208.619323
  AL         156.903683     -124.249459      209.332952
  AL         157.669081     -125.953836      210.046580
  AL         158.434478     -127.658214      210.760209
  AL         159.199875     -129.362591      211.473837
  AL         159.965272     -131.066968      212.187466
  AL         160.730669     -132.771345      212.901094
  AL         161.496067     -134.475722      213.614723
  AL         162.261464     -136.180099      214.328351
  AL         163.026861     -137.884477      215.041980
  AL         163.792258     -139.588854      215.755608
  AL         164.557655     -141.293231      216.469236
  AL         165.323053     -142.997608      217.182865
  AL         166.088450     -144.701985      217.896493
  AL         166.853847     -146.406362      218.610122
  AL         167.619244     -148.110740      219.323750
  AL         168.384642     -149.815117      220.037379
  AL         169.150039     -151.519494      220.751007
  AL         169.915436     -153.223871      221.464636
  AL         170.680833     -154.928248      222.178264
  AL         171.446230     -156.632625      222.891893
  AL         172.211628     -158.337003      223.605521
  AL         172.977025     -160.041380      224.319150
  AL         173.742422     -161.745757      225.032778
  AL         174.507819     -163.450134      225.746407
  AL         175.273217     -165.154511      226.460035
  AL         176.038614     -166.858888      227.173663
  AL         176.804011     -168.563265      227.887292
  AL         177.569408     -170.267643      228.600920
  AL         178.334805     -171.972020      229.314549
  AL         179.100203     -173.676397      230.028177
  AL         179.865600     -175.380774      230.741806
  AL         180.630997     -177.085151      231.455434
  AL         181.396394     -178.789528      232.169063
  AL         182.161792     -180.493906      232.882691
  AL         182.927189     -182.198283      233.596320
  AL         183.692586     -183.902660      234.309948
  AL         184.457983     -185.607037      235.023577
  AL         185.223380     -187.311414      235.737205
  AL         185.988778     -189.015791      236.450834
  AL         186.754175     -190.720169      237.164462
  AL         187.519572     -192.424546      237.878091
  AL         188.284969     -194.128923      238.591719
  AL         189.050367     -195.833300      239.305347
  AL         189.815764     -197.537677      240.018976
  AL         190.581161     -199.242054      240.732604
  AL         191.346558     -200.946432      241.446233
  AL         192.111955     -202.650809      242.159861
  A         -251.775444      191.770969     -120.010435
  A         -250.469524      190.264513     -119.851800
  A         -249.163604      188.758058     -119.693164
  A         -247.857684      187.251603     -119.534529
  A         -246.551764      185.745147     -119.375893
  A         -245.245844      184.238692     -119.217258
  A         -243.939924      182.732237     -119.058622
  A         -242.634004      181.225782     -118.899987
  A         -241.328084      179.719326     -118.741351
  A         -240.022164      178.212871     -118.582716
  A         -238.716243      176.706416     -118.424080
  A         -237.410323      175.199960     -118.265445
  A         -236.104403      173.693505     -118.106809
  A         -234.798483      172.187050     -117.948174
  A         -233.492563      170.680595     -117.789539
  A         -232.186643      169.174139     -117.630903
  A         -230.880723      167.667684     -117.472268
  A         -229.574803      166.161229     -117.313632
  A         -228.268883      164.654773     -117.154997
  A         -226.962963      163.148318     -116.996361
  AL        -225.657043      161.641863     -116.837726
  AL        -224.351123      160.135408     -116.679090
  AL        -223.045202      158.628952     -116.520455
  AL        -221.739282      157.122497     -116.361819
  AL        -220.433362      155.616042     -116.203184
  AL        -219.127442      154.109587     -116.044548
  AL        -217.821522      152.603131     -115.885913
  AL        -216.515602      151.096676     -115.727277
  AL        -215.209682      149.590221     -115.568642
  AL        -213.903762      148.083765     -115.410007
  AL        -212.597842      146.577310     -115.251371
  AL        -211.291922      145.070855     -115.092736
  AL        -209.986002      143.564400     -114.934100
  AL        -208.680081      142.057944     -114.775465
  AL        -207.374161      140.551489     -114.616829
  AL        -206.068241      139.045034     -114.458194
  AL        -204.762321      137.538578     -114.299558
  AL        -203.456401      136.032123     -114.140923
  AL        -202.150481      134.525668     -113.982287
  AL        -200.844561      133.019213     -113.823652
  AL        -199.538641      131.512757     -113.665016
  AL        -198.232721      130.006302     -113.506381
  AL        -196.926801      128.499847     -113.347745
  AL        -195.620881      126.993391     -113.189110
  AL        -194.314960      125.486936     -113.030475
  AL        -193.009040      123.980481     -112.871839
  AL        -191.703120      122.474026     -112.713204
  AL        -190.397200      120.967570     -112.554568
  AL        -189.091280      119.461115     -112.395933
  AL        -187.785360      117.954660     -112.237297
  AL        -186.479440      116.448204     -112.078662
  AL        -185.173520      114.941749     -111.920026
  AL        -183.867600      113.435294     -111.761391
  AL        -182.561680      111.928839     -111.602755
  AL        -181.255760      110.422383     -111.444120
  AL        -179.949840      108.915928     -111.285484
  AL        -178.643919      107.409473     -111.126849
  AL        -177.337999      105.903018     -110.968213
  AL        -176.032079      104.396562     -110.809578
  AL        -174.726159      102.890107     -110.650943
  AL        -173.420239      101.383652     -110.492307
  AL        -172.114319       99.877196     -110.333672
  AL        -170.808399       98.370741     -110.175036
  AL        -169.502479       96.864286     -110.016401
  AL        -168.196559       95.357831     -109.857765
  AL        -166.890639       93.851375     -109.699130
  AL        -165.584719       92.344920     -109.540494
  AL        -164.278798       90.838465     -109.381859
  AL        -162.972878       89.332009     -109.223223
  AL        -161.666958       87.825554     -109.064588
  A         -288.301762     -150.267560     -236.748912
  A         -287.994068     -148.294585     -236.636246
  A         -287.686374     -146.321610     -236.523579
  A         -287.378680     -144.348634     -236.410912
  A         -287.070986     -142.375659     -236.298246
  A         -286.763292     -140.402684     -236.185579
  A         -286.455598     -138.429709     -236.072912
  A         -286.147904     -136.456734     -235.960246
  A         -285.840210     -134.483759     -235.847579
  A         -285.532516     -132.510784     -235.734912
  A         -285.224822     -130.537809     -235.622245
  A         -284.917128     -128.564834     -235.509579
  A         -284.609434     -126.591859     -235.396912
  A         -284.301740     -124.618884     -235.284245
  A         -283.994046     -122.645909     -235.171579
  A         -283.686352     -120.672934     -235.058912
  A         -283.378658     -118.699959     -234.946245
  A         -283.070964     -116.726984     -234.833579
  A         -282.763270     -114.754008     -234.720912
  A         -282.455576     -112.781033     -234.608245
  AL        -282.147882     -110.808058     -234.495579
  AL        -281.840188     -108.835083     -234.382912
  AL        -281.532494     -106.862108     -234.270245
  AL        -281.224800     -104.889133     -234.157579
  AL        -280.917106     -102.916158     -234.044912
  AL        -280.609412     -100.943183     -233.932245
  AL        -280.301718      -98.970208     -233.819579
  AL        -279.994024      -96.997233     -233.706912
  AL        -279.686330      -95.024258     -233.594245
  AL        -279.378636      -93.051283     -233.481579
  AL        -279.070942      -91.078308     -233.368912
  AL        -278.763248      -89.105333     -233.256245
  AL        -278.455554      -87.132357     -233.143578
  AL        -278.147860      -85.159382     -233.030912
  AL        -277.840166      -83.186407     -232.918245
  AL        -277.532472      -81.213432     -232.805578
  AL        -277.224778      -79.240457     -232.692912
  AL        -276.917084      -77.267482     -232.580245
  AL        -276.609390      -75.294507     -232.467578
  AL        -276.301696      -73.321532     -232.354912
  AL        -275.994002      -71.348557     -232.242245
  AL        -275.686308      -69.375582     -232.129578
  AL        -275.378614      -67.402607     -232.016912
  AL        -275.070920      -65.429632     -231.904245
  AL        -274.763226      -63.456657     -231.791578
  AL        -274.455532      -61.483682     -231.678912
  AL        -274.147838      -59.510707     -231.566245
  AL        -273.840144      -57.537731     -231.453578
  AL        -273.532450      -55.564756     -231.340912
  AL        -273.224756      -53.591781     -231.228245
  AL        -272.917062      -51.618806     -231.115578
  AL        -272.609368      -49.645831     -231.002912
  AL        -272.301674      -47.672856     -230.890245
  AL        -271.993980      -45.699881     -230.777578
  AL        -271.686286      -43.726906     -230.664911
  AL        -271.378592      -41.753931     -230.552245
  AL        -271.070898      -39.780956     -230.439578
  AL        -270.763204      -37.807981     -230.326911
  AL        -270.455510      -35.835006     -230.214245
  AL        -270.147816      -33.862031     -230.101578
  AL        -269.840122      -31.889056     -229.988911
  AL        -269.532428      -29.916080     -229.876245
  AL        -269.224734      -27.943105     -229.763578
  AL        -268.917040      -25.970130     -229.650911
  AL        -268.609346      -23.997155     -229.538245
  AL        -268.301652      -22.024180     -229.425578
  AL        -267.993958      -20.051205     -229.312911
  AL        -267.686264      -18.078230     -229.200245
  AL        -267.378570      -16.105255     -229.087578
  AL        -267.070876      -14.132280     -228.974911
  A           -4.322031      169.818859      -19.772894
  A           -2.871532      171.188807      -19.911801
  A           -1.421034      172.558756      -20.050707
  A            0.029465      173.928704      -20.189614
  A            1.479963      175.298652      -20.328520
  A            2.930462      176.668601      -20.467427
  A            4.380961      178.038549      -20.606334
  A            5.831459      179.408498      -20.745240
  A            7.281958      180.778446      -20.884147
  A            8.732456      182.148395      -21.023053
  A           10.182955      183.518343      -21.161960
  A           11.633454      184.888292      -21.300867
  A           13.083952      186.258240      -21.439773
  A           14.534451      187.628189      -21.578680
  A           15.984949      188.998137      -21.717586
  A           17.435448      190.368085      -21.856493
  A           18.885947      191.738034      -21.995399
  A           20.336445      193.107982      -22.134306
  A           21.786944      194.477931      -22.273213
  A           23.237442      195.847879      -22.412119
  AL          24.687941      197.217828      -22.551026
  AL          26.138440      198.587776      -22.689932
  AL          27.588938      199.957725      -22.828839
  AL          29.039437      201.327673      -22.967745
  AL          30.489935      202.697622      -23.106652
  AL          31.940434      204.067570      -23.245559
  AL          33.390933      205.437519      -23.384465
  AL          34.841431      206.807467      -23.523372
  AL          36.291930      208.177415      -23.662278
  AL          37.742428      209.547364      -23.801185
  AL          39.192927      210.917312      -23.940091
  AL          40.643426      212.287261      -24.078998
  AL          42.093924      213.657209      -24.217905
  AL          43.544423      215.027158      -24.356811
  AL          44.994921      216.397106      -24.495718
  AL          46.445420      217.767055      -24.634624
  AL          47.895919      219.137003      -24.773531
  AL          49.346417      220.506952      -24.912437
  AL          50.796916      221.876900      -25.051344
  AL          52.247414      223.246848      -25.190251
  AL          53.697913      224.616797      -25.329157
  AL          55.148412      225.986745      -25.468064
  AL          56.598910      227.356694      -25.606970
  AL          58.049409      228.726642      -25.745877
  AL          59.499907      230.096591      -25.884783
  AL          60.950406      231.466539      -26.023690
  AL          62.400905      232.836488      -26.162597
  AL          63.851403      234.206436      -26.301503
  AL          65.301902      235.576385      -26.440410
  AL          66.752400      236.946333      -26.579316
  AL          68.202899      238.316282      -26.718223
  AL          69.653398      239.686230      -26.857129
  AL          71.103896      241.056178      -26.996036
  AL          72.554395      242.426127      -27.134943
  AL          74.004893      243.796075      -27.273849
  AL          75.455392      245.166024      -27.412756
  AL          76.905891      246.535972      -27.551662
  AL          78.356389      247.905921      -27.690569
  AL          79.806888      249.275869      -27.829475
  AL          81.257386      250.645818      -27.968382
  AL          82.707885      252.015766      -28.107289
  AL          84.158384      253.385715      -28.246195
  AL          85.608882      254.755663      -28.385102
  AL          87.059381      256.125611      -28.524008
  AL          88.509879      257.495560      -28.662915
  AL          89.960378      258.865508      -28.801822
  AL          91.410877      260.235457      -28.940728
  AL          92.861375      261.605405      -29.079635
  AL          94.311874      262.975354      -29.218541
  AL          95.762372      264.345302      -29.357448
  A         -182.286557     -157.726457     -160.074822
  A         -181.398918     -157.129040     -158.385092
  A         -180.511279     -156.531622     -156.695361
  A         -179.623640     -155.934204     -155.005631
  A         -178.736001     -155.336787     -153.315900
  A         -177.848361     -154.739369     -151.626170
  A         -176.960722     -154.141951     -149.936439
  A         -176.073083     -153.544533     -148.246709
  A         -175.185444     -152.947116     -146.556979
  A         -174.297805     -152.349698     -144.867248
  A         -173.410166     -151.752280     -143.177518
  A         -172.522527     -151.154862     -141.487787
  A         -171.634888     -150.557445     -139.798057
  A         -170.747249     -149.960027     -138.108326
  A         -169.859610     -149.362609     -136.418596
  A         -168.971971     -148.765192     -134.728866
  A         -168.084332     -148.167774     -133.039135
  A         -167.196693     -147.570356     -131.349405
  A         -166.309054     -146.972938     -129.659674
  A         -165.421415     -146.375521     -127.969944
  AL        -164.533776     -145.778103     -126.280213
  AL        -163.646136     -145.180685     -124.590483
  AL        -162.758497     -144.583267     -122.900752
  AL        -161.870858     -143.985850     -121.211022
  AL        -160.983219     -143.388432     -119.521292
  AL        -160.095580     -142.791014     -117.831561
  AL        -159.207941     -142.193597     -116.141831
  AL        -158.320302     -141.596179     -114.452100
  AL        -157.432663     -140.998761     -112.762370
  AL        -156.545024     -140.401343     -111.072639
  AL        -155.657385     -139.803926     -109.382909
  AL        -154.769746     -139.206508     -107.693179
  AL        -153.882107     -138.609090     -106.003448
  AL        -152.994468     -138.011672     -104.313718
  AL        -152.106829     -137.414255     -102.623987
  AL        -151.219190     -136.816837     -100.934257
  AL        -150.331550     -136.219419      -99.244526
  AL        -149.443911     -135.622002      -97.554796
  AL        -148.556272     -135.024584      -95.865065
  AL        -147.668633     -134.427166      -94.175335
  AL        -146.780994     -133.829748      -92.485605
  AL        -145.893355     -133.232331      -90.795874
  AL        -145.005716     -132.634913      -89.106144
  AL        -144.118077     -132.037495      -87.416413
  AL        -143.230438     -131.440078      -85.726683
  AL        -142.342799     -130.842660      -84.036952
  AL        -141.455160     -130.245242      -82.347222
  AL        -140.567521     -129.647824      -80.657492
  AL        -139.679882     -129.050407      -78.967761
  AL        -138.792243     -128.452989      -77.278031
  AL        -137.904604     -127.855571      -75.588300
  AL        -137.016965     -127.258153      -73.898570
  AL        -136.129325     -126.660736      -72.208839
  AL        -135.241686     -126.063318      -70.519109
  AL        -134.354047     -125.465900      -68.829378
  AL        -133.466408     -124.868483      -67.139648
  AL        -132.578769     -124.271065      -65.449918
  AL        -131.691130     -123.673647      -63.760187
  AL        -130.803491     -123.076229      -62.070457
  AL        -129.915852     -122.478812      -60.380726
  AL        -129.028213     -121.881394      -58.690996
  AL        -128.140574     -121.283976      -57.001265
  AL        -127.252935     -120.686558      -55.311535
  AL        -126.365296     -120.089141      -53.621805
  AL        -125.477657     -119.491723      -51.932074
  AL        -124.590018     -118.894305      -50.242344
  AL        -123.702379     -118.296888      -48.552613
  AL        -122.814740     -117.699470      -46.862883
  AL        -121.927100     -117.102052      -45.173152
  AL        -121.039461     -116.504634      -43.483422
  A          -22.544834     -219.732322      -57.074418
  A          -23.810906     -218.281820      -56.533024
  A          -25.076977     -216.831319      -55.991629
  A          -26.343049     -215.380818      -55.450234
  A          -27.609121     -213.930317      -54.908839
  A          -28.875193     -212.479815      -54.367445
  A          -30.141265     -211.029314      -53.826050
  A          -31.407336     -209.578813      -53.284655
  A          -32.673408     -208.128311      -52.743260
  A          -33.939480     -206.677810      -52.201866
  A          -35.205552     -205.227309      -51.660471
  A          -36.471623     -203.776808      -51.119076
  A          -37.737695     -202.326306      -50.577682
  A          -39.003767     -200.875805      -50.036287
  A          -40.269839     -199.425304      -49.494892
  A          -41.535911     -197.974802      -48.953497
  A          -42.801982     -196.524301      -48.412103
  A          -44.068054     -195.073800      -47.870708
  A          -45.334126     -193.623299      -47.329313
  A          -46.600198     -192.172797      -46.787918
  AL         -47.866270     -190.722296      -46.246524
  AL         -49.132341     -189.271795      -45.705129
  AL         -50.398413     -187.821293      -45.163734
  AL         -51.664485     -186.370792      -44.622339
  AL         -52.930557     -184.920291      -44.080945
  AL         -54.196628     -183.469790      -43.539550
  AL         -55.462700     -182.019288      -42.998155
  AL         -56.728772     -180.568787      -42.456761
  AL         -57.994844     -179.118286      -41.915366
  AL         -59.260916     -177.667785      -41.373971
  AL         -60.526987     -176.217283      -40.832576
  AL         -61.793059     -174.766782      -40.291182
  AL         -63.059131     -173.316281      -39.749787
  AL         -64.325203     -171.865779      -39.208392
  AL         -65.591275     -170.415278      -38.666997
  AL         -66.857346     -168.964777      -38.125603
  AL         -68.123418     -167.514276      -37.584208
  AL         -69.389490     -166.063774      -37.042813
  AL         -70.655562     -164.613273      -36.501418
  AL         -71.921634     -163.162772      -35.960024
  AL         -73.187705     -161.712270      -35.418629
  AL         -74.453777     -160.261769      -34.877234
  AL         -75.719849     -158.811268      -34.335840
  AL         -76.985921     -157.360767      -33.794445
  AL         -78.251992     -155.910265      -33.253050
  AL         -79.518064     -154.459764      -32.711655
  AL         -80.784136     -153.009263      -32.170261
  AL         -82.050208     -151.558761      -31.628866
  AL         -83.316280     -150.108260      -31.087471
  AL         -84.582351     -148.657759      -30.546076
  AL         -85.848423     -147.207258      -30.004682
  AL         -87.114495     -145.756756      -29.463287
  AL         -88.380567     -144.306255      -28.921892
  AL         -89.646639     -142.855754      -28.380497
  AL         -90.912710     -141.405252      -27.839103
  AL         -92.178782     -139.954751      -27.297708
  AL         -93.444854     -138.504250      -26.756313
  AL         -94.710926     -137.053749      -26.214919
  AL         -95.976997     -135.603247      -25.673524
  AL         -97.243069     -134.152746      -25.132129
  AL         -98.509141     -132.702245      -24.590734
  AL         -99.775213     -131.251743      -24.049340
  AL        -101.041285     -129.801242      -23.507945
  AL        -102.307356     -128.350741      -22.966550
  AL        -103.573428     -126.900240      -22.425155
  AL        -104.839500     -125.449738      -21.883761
  AL        -106.105572     -123.999237      -21.342366
  AL        -107.371644     -122.548736      -20.800971
  AL        -108.637715     -121.098234      -20.259576
  AL        -109.903787     -119.647733      -19.718182
  A         -196.215152      264.908059     -300.061026
  A         -194.870882      263.917933     -298.959850
  A         -193.526612      262.927807     -297.858674
  A         -192.182342      261.937681     -296.757498
  A         -190.838072      260.947556     -295.656322
  A         -189.493802      259.957430     -294.555146
  A         -188.149532      258.967304     -293.453970
  A         -186.805262      257.977178     -292.352793
  A         -185.460991      256.987053     -291.251617
  A         -184.116721      255.996927     -290.150441
  A         -182.772451      255.006801     -289.049265
  A         -181.428181      254.016675     -287.948089
  A         -180.083911      253.026550     -286.846913
  A         -178.739641      252.036424     -285.745737
  A         -177.395371      251.046298     -284.644561
  A         -176.051101      250.056172     -283.543385
  A         -174.706830      249.066047     -282.442208
  A         -173.362560      248.075921     -281.341032
  A         -172.018290      247.085795     -280.239856
  A         -170.674020      246.095670     -279.138680
  AL        -169.329750      245.105544     -278.037504
  AL        -167.985480      244.115418     -276.936328
  AL        -166.641210      243.125292     -275.835152
  AL        -165.296940      242.135167     -274.733976
  AL        -163.952670      241.145041     -273.632799
  AL        -162.608399      240.154915     -272.531623
  AL        -161.264129      239.164789     -271.430447
  AL        -159.919859      238.174664     -270.329271
  AL        -158.575589      237.184538     -269.228095
  AL        -157.231319      236.194412     -268.126919
  AL        -155.887049      235.204286     -267.025743
  AL        -154.542779      234.214161     -265.924567
  AL        -153.198509      233.224035     -264.823390
  AL        -151.854238      232.233909     -263.722214
  AL        -150.509968      231.243783     -262.621038
  AL        -149.165698      230.253658     -261.519862
  AL        -147.821428      229.263532     -260.418686
  AL        -146.477158      228.273406     -259.317510
  AL        -145.132888      227.283280     -258.216334
  AL        -143.788618      226.293155     -257.115158
  AL        -142.444348      225.303029     -256.013982
  AL        -141.100077      224.312903     -254.912805
  AL        -139.755807      223.322777     -253.811629
  AL        -138.411537      222.332652     -252.710453
  AL        -137.067267      221.342526     -251.609277
  AL        -135.722997      220.352400     -250.508101
  AL        -134.378727      219.362274     -249.406925
  AL        -133.034457      218.372149     -248.305749
  AL        -131.690187      217.382023     -247.204573
  AL        -130.345916      216.391897     -246.103396
  AL        -129.001646      215.401771     -245.002220
  AL        -127.657376      214.411646     -243.901044
  AL        -126.313106      213.421520     -242.799868
  AL        -124.968836      212.431394     -241.698692
  AL        -123.624566      211.441268     -240.597516
  AL        -122.280296      210.451143     -239.496340
  AL        -120.936026      209.461017     -238.395164
  AL        -119.591756      208.470891     -237.293987
  AL        -118.247485      207.480765     -236.192811
  AL        -116.903215      206.490640     -235.091635
  AL        -115.558945      205.500514     -233.990459
  AL        -114.214675      204.510388     -232.889283
  AL        -112.870405      203.520262     -231.788107
  AL        -111.526135      202.530137     -230.686931
  AL        -110.181865      201.540011     -229.585755
  AL        -108.837595      200.549885     -228.484579
  AL        -107.493324      199.559759     -227.383402
  AL        -106.149054      198.569634     -226.282226
  AL        -104.804784      197.579508     -225.181050
  AL        -103.460514      196.589382     -224.079874
  A          122.007152      -45.613645       44.924258
  A          120.197018      -46.387542       44.571412
  A          118.386885      -47.161439       44.218566
  A          116.576751      -47.935335       43.865720
  A          114.766618      -48.709232       43.512874
  A          112.956484      -49.483129       43.160028
  A          111.146350      -50.257025       42.807182
  A          109.336217      -51.030922       42.454336
  A          107.526083      -51.804819       42.101489
  A          105.715950      -52.578715       41.748643
  A          103.905816      -53.352612       41.395797
  A          102.095683      -54.126509       41.042951
  A          100.285549      -54.900405       40.690105
  A           98.475415      -55.674302       40.337259
  A           96.665282      -56.448199       39.984413
  A           94.855148      -57.222095       39.631567
  A           93.045015      -57.995992       39.278721
  A           91.234881      -58.769889       38.925875
  A           89.424747      -59.543786       38.573029
  A           87.614614      -60.317682       38.220183
  AL          85.804480      -61.091579       37.867337
  AL          83.994347      -61.865476       37.514491
  AL          82.184213      -62.639372       37.161645
  AL          80.374080      -63.413269       36.808799
  AL          78.563946      -64.187166       36.455953
  AL          76.753812      -64.961062       36.103107
  AL          74.943679      -65.734959       35.750261
  AL          73.133545      -66.508856       35.397415
  AL          71.323412      -67.282752       35.044569
  AL          69.513278      -68.056649       34.691723
  AL          67.703144      -68.830546       34.338877
  AL          65.893011      -69.604442       33.986031
  AL          64.082877      -70.378339       33.633184
  AL          62.272744      -71.152236       33.280338
  AL          60.462610      -71.926133       32.927492
  AL          58.652477      -72.700029       32.574646
  AL          56.842343      -73.473926       32.221800
  AL          55.032209      -74.247823       31.868954
  AL          53.222076      -75.021719       31.516108
  AL          51.411942      -75.795616       31.163262
  AL          49.601809      -76.569513       30.810416
  AL          47.791675      -77.343409       30.457570
  AL          45.981541      -78.117306       30.104724
  AL          44.171408      -78.891203       29.751878
  AL          42.361274      -79.665099       29.399032
  AL          40.551141      -80.438996       29.046186
  AL          38.741007      -81.212893       28.693340
  AL          36.930874      -81.986789       28.340494
  AL          35.120740      -82.760686       27.987648
  AL          33.310606      -83.534583       27.634802
  AL          31.500473      -84.308479       27.281956
  AL          29.690339      -85.082376       26.929110
  AL          27.880206      -85.856273       26.576264
  AL          26.070072      -86.630170       26.223418
  AL          24.259938      -87.404066       25.870572
  AL          22.449805      -88.177963       25.517726
  AL          20.639671      -88.951860       25.164880
  AL          18.829538      -89.725756       24.812033
  AL          17.019404      -90.499653       24.459187
  AL          15.209271      -91.273550       24.106341
  AL          13.399137      -92.047446       23.753495
  AL          11.589003      -92.821343       23.400649
  AL           9.778870      -93.595240       23.047803
  AL           7.968736      -94.369136       22.694957
  AL           6.158603      -95.143033       22.342111
  AL           4.348469      -95.916930       21.989265
  AL           2.538335      -96.690826       21.636419
  AL           0.728202      -97.464723       21.283573
  AL          -1.081932      -98.238620       20.930727
  AL          -2.892065      -99.012517       20.577881
  A          144.559772      109.658195     -116.505203
  A          143.703834      111.157495     -117.514890
  A          142.847896      112.656796     -118.524577
  A          141.991958      114.156097     -119.534264
  A          141.136021      115.655397     -120.543952
  A          140.280083      117.154698     -121.553639
  A          139.424145      118.653998     -122.563326
  A          138.568207      120.153299     -123.573014
  A          137.712269      121.652599     -124.582701
  A          136.856331      123.151900     -125.592388
  A          136.000394      124.651200     -126.602075
  A          135.144456      126.150501     -127.611763
  A          134.288518      127.649801     -128.621450
  A          133.432580      129.149102     -129.631137
  A          132.576642      130.648402     -130.640824
  A          131.720705      132.147703     -131.650512
  A          130.864767      133.647003     -132.660199
  A          130.008829      135.146304     -133.669886
  A          129.152891      136.645604     -134.679574
  A          128.296953      138.144905     -135.689261
  AL         127.441015      139.644205     -136.698948
  AL         126.585078      141.143506     -137.708635
  AL         125.729140      142.642806     -138.718323
  AL         124.873202      144.142107     -139.728010
  AL         124.017264      145.641407     -140.737697
  AL         123.161326      147.140708     -141.747385
  AL         122.305389      148.640008     -142.757072
  AL         121.449451      150.139309     -143.766759
  AL         120.593513      151.638610     -144.776446
  AL         119.737575      153.137910     -145.786134
  AL         118.881637      154.637211     -146.795821
  AL         118.025700      156.136511     -147.805508
  AL         117.169762      157.635812     -148.815196
  AL         116.313824      159.135112     -149.824883
  AL         115.457886      160.634413     -150.834570
  AL         114.601948      162.133713     -151.844257
  AL         113.746010      163.633014     -152.853945
  AL         112.890073      165.132314     -153.863632
  AL         112.034135      166.631615     -154.873319
  AL         111.178197      168.130915     -155.883007
  AL         110.322259      169.630216     -156.892694
  AL         109.466321      171.129516     -157.902381
  AL         108.610384      172.628817     -158.912068
  AL         107.754446      174.128117     -159.921756
  AL         106.898508      175.627418     -160.931443
  AL         106.042570      177.126718     -161.941130
  AL         105.186632      178.626019     -162.950818
  AL         104.330694      180.125319     -163.960505
  AL         103.474757      181.624620     -164.970192
  AL         102.618819      183.123920     -165.979879
  AL         101.762881      184.623221     -166.989567
  AL         100.906943      186.122521     -167.999254
  AL         100.051005      187.621822     -169.008941
  AL          99.195068      189.121123     -170.018628
  AL          98.339130      190.620423     -171.028316
  AL          97.483192      192.119724     -172.038003
  AL          96.627254      193.619024     -173.047690
  AL          95.771316      195.118325     -174.057378
  AL          94.915379      196.617625     -175.067065
  AL          94.059441      198.116926     -176.076752
  AL          93.203503      199.616226     -177.086439
  AL          92.347565      201.115527     -178.096127
  AL          91.491627      202.614827     -179.105814
  AL          90.635689      204.114128     -180.115501
  AL          89.779752      205.613428     -181.125189
  AL          88.923814      207.112729     -182.134876
  AL          88.067876      208.612029     -183.144563
  AL          87.211938      210.111330     -184.154250
  AL          86.356000      211.610630     -185.163938
  AL          85.500063      213.109931     -186.173625
  A         -260.519891      -33.168619     -165.648031
  A         -260.164324      -34.342334     -164.068168
  A         -259.808757      -35.516048     -162.488305
  A         -259.453189      -36.689763     -160.908443
  A         -259.097622      -37.863478     -159.328580
  A         -258.742055      -39.037192     -157.748717
  A         -258.386488      -40.210907     -156.168855
  A         -258.030921      -41.384621     -154.588992
  A         -257.675353      -42.558336     -153.009129
  A         -257.319786      -43.732050     -151.429266
  A         -256.964219      -44.905765     -149.849404
  A         -256.608652      -46.079479     -148.269541
  A         -256.253084      -47.253194     -146.689678
  A         -255.897517      -48.426908     -145.109816
  A         -255.541950      -49.600623     -143.529953
  A         -255.186383      -50.774337     -141.950090
  A         -254.830816      -51.948052     -140.370228
  A         -254.475248      -53.121766     -138.790365
  A         -254.119681      -54.295481     -137.210502
  A         -253.764114      -55.469196     -135.630639
  AL        -253.408547      -56.642910     -134.050777
  AL        -253.052979      -57.816625     -132.470914
  AL        -252.697412      -58.990339     -130.891051
  AL        -252.341845      -60.164054     -129.311189
  AL        -251.986278      -61.337768     -127.731326
  AL        -251.630711      -62.511483     -126.151463
  AL        -251.275143      -63.685197     -124.571601
  AL        -250.919576      -64.858912     -122.991738
  AL        -250.564009      -66.032626     -121.411875
  AL        -250.208442      -67.206341     -119.832012
  AL        -249.852874      -68.380055     -118.252150
  AL        -249.497307      -69.553770     -116.672287
  AL        -249.141740      -70.727484     -115.092424
  AL        -248.786173      -71.901199     -113.512562
  AL        -248.430606      -73.074913     -111.932699
  AL        -248.075038      -74.248628     -110.352836
  AL        -247.719471      -75.422343     -108.772974
  AL        -247.363904      -76.596057     -107.193111
  AL        -247.008337      -77.769772     -105.613248
  AL        -246.652769      -78.943486     -104.033385
  AL        -246.297202      -80.117201     -102.453523
  AL        -245.941635      -81.290915     -100.873660
  AL        -245.586068      -82.464630      -99.293797
  AL        -245.230501      -83.638344      -97.713935
  AL        -244.874933      -84.812059      -96.134072
  AL        -244.519366      -85.985773      -94.554209
  AL        -244.163799      -87.159488      -92.974347
  AL        -243.808232      -88.333202      -91.394484
  AL        -243.452664      -89.506917      -89.814621
  AL        -243.097097      -90.680631      -88.234758
  AL        -242.741530      -91.854346      -86.654896
  AL        -242.385963      -93.028060      -85.075033
  AL        -242.030396      -94.201775      -83.495170
  AL        -241.674828      -95.375490      -81.915308
  AL        -241.319261      -96.549204      -80.335445
  AL        -240.963694      -97.722919      -78.755582
  AL        -240.608127      -98.896633      -77.175720
  AL        -240.252559     -100.070348      -75.595857
  AL        -239.896992     -101.244062      -74.015994
  AL        -239.541425     -102.417777      -72.436131
  AL        -239.185858     -103.591491      -70.856269
  AL        -238.830291     -104.765206      -69.276406
  AL        -238.474723     -105.938920      -67.696543
  AL        -238.119156     -107.112635      -66.116681
  AL        -237.763589     -108.286349      -64.536818
  AL        -237.408022     -109.460064      -62.956955
  AL        -237.052455     -110.633778      -61.377093
  AL        -236.696887     -111.807493      -59.797230
  AL        -236.341320     -112.981208      -58.217367
  AL        -235.985753     -114.154922      -56.637504
  A          113.571074       35.916821      -21.884578
  A          114.665468       34.371750      -22.528827
  A          115.759862       32.826678      -23.173076
  A          116.854255       31.281607      -23.817325
  A          117.948649       29.736535      -24.461574
  A          119.043042       28.191464      -25.105823
  A          120.137436       26.646392      -25.750072
  A          121.231829       25.101321      -26.394321
  A          122.326223       23.556249      -27.038570
  A          123.420616       22.011178      -27.682820
  A          124.515010       20.466106      -28.327069
  A          125.609403       18.921035      -28.971318
  A          126.703797       17.375963      -29.615567
  A          127.798190       15.830892      -30.259816
  A          128.892584       14.285820      -30.904065
  A          129.986978       12.740749      -31.548314
  A          131.081371       11.195677      -32.192563
  A          132.175765        9.650606      -32.836812
  A          133.270158        8.105534      -33.481061
  A          134.364552        6.560463      -34.125310
  AL         135.458945        5.015391      -34.769559
  AL         136.553339        3.470320      -35.413808
  AL         137.647732        1.925248      -36.058057
  AL         138.742126        0.380177      -36.702306
  AL         139.836519       -1.164895      -37.346555
  AL         140.930913       -2.709966      -37.990804
  AL         142.025306       -4.255038      -38.635053
  AL         143.119700       -5.800109      -39.279303
  AL         144.214094       -7.345181      -39.923552
  AL         145.308487       -8.890252      -40.567801
  AL         146.402881      -10.435324      -41.212050
  AL         147.497274      -11.980395      -41.856299
  AL         148.591668      -13.525467      -42.500548
  AL         149.686061      -15.070538      -43.144797
  AL         150.780455      -16.615610      -43.789046
  AL         151.874848      -18.160681      -44.433295
  AL         152.969242      -19.705753      -45.077544
  AL         154.063635      -21.250824      -45.721793
  AL         155.158029      -22.795896      -46.366042
  AL         156.252423      -24.340967      -47.010291
  AL         157.346816      -25.886039      -47.654540
  AL         158.441210      -27.431110      -48.298789
  AL         159.535603      -28.976182      -48.943038
  AL         160.629997      -30.521253      -49.587287
  AL         161.724390      -32.066325      -50.231536
  AL         162.818784      -33.611396      -50.875785
  AL         163.913177      -35.156467      -51.520035
  AL         165.007571      -36.701539      -52.164284
  AL         166.101964      -38.246610      -52.808533
  AL         167.196358      -39.791682      -53.452782
  AL         168.290751      -41.336753      -54.097031
  AL         169.385145      -42.881825      -54.741280
  AL         170.479539      -44.426896      -55.385529
  AL         171.573932      -45.971968      -56.029778
  AL         172.668326      -47.517039      -56.674027
  AL         173.762719      -49.062111      -57.318276
  AL         174.857113      -50.607182      -57.962525
  AL         175.951506      -52.152254      -58.606774
  AL         177.045900      -53.697325      -59.251023
  AL         178.140293      -55.242397      -59.895272
  AL         179.234687      -56.787468      -60.539521
  AL         180.329080      -58.332540      -61.183770
  AL         181.423474      -59.877611      -61.828019
  AL         182.517868      -61.422683      -62.472268
  AL         183.612261      -62.967754      -63.116518
  AL         184.706655      -64.512826      -63.760767
  AL         185.801048      -66.057897      -64.405016
  AL         186.895442      -67.602969      -65.049265
  AL         187.989835      -69.148040      -65.693514
  AL         189.084229      -70.693112      -66.337763
  A         -180.851717      111.712079     -171.493568
  A         -180.463767      109.832709     -172.057004
  A         -180.075816      107.953338     -172.620439
  A         -179.687866      106.073967     -173.183875
  A         -179.299915      104.194596     -173.747310
  A         -178.911965      102.315225     -174.310746
  A         -178.524014      100.435854     -174.874181
  A         -178.136064       98.556483     -175.437617
  A         -177.748113       96.677112     -176.001052
  A         -177.360163       94.797742     -176.564488
  A         -176.972212       92.918371     -177.127923
  A         -176.584262       91.039000     -177.691359
  A         -176.196312       89.159629     -178.254794
  A         -175.808361       87.280258     -178.818230
  A         -175.420411       85.400887     -179.381665
  A         -175.032460       83.521516     -179.945101
  A         -174.644510       81.642146     -180.508536
  A         -174.256559       79.762775     -181.071972
  A         -173.868609       77.883404     -181.635407
  A         -173.480658       76.004033     -182.198843
  AL        -173.092708       74.124662     -182.762278
  AL        -172.704757       72.245291     -183.325714
  AL        -172.316807       70.365920     -183.889149
  AL        -171.928856       68.486549     -184.452585
  AL        -171.540906       66.607179     -185.016020
  AL        -171.152955       64.727808     -185.579456
  AL        -170.765005       62.848437     -186.142891
  AL        -170.377054       60.969066     -186.706327
  AL        -169.989104       59.089695     -187.269762
  AL        -169.601153       57.210324     -187.833198
  AL        -169.213203       55.330953     -188.396633
  AL        -168.825252       53.451582     -188.960068
  AL        -168.437302       51.572212     -189.523504
  AL        -168.049351       49.692841     -190.086939
  AL        -167.661401       47.813470     -190.650375
  AL        -167.273450       45.934099     -191.213810
  AL        -166.885500       44.054728     -191.777246
  AL        -166.497549       42.175357     -192.340681
  AL        -166.109599       40.295986     -192.904117
  AL        -165.721648       38.416616     -193.467552
  AL        -165.333698       36.537245     -194.030988
  AL        -164.945747       34.657874     -194.594423
  AL        -164.557797       32.778503     -195.157859
  AL        -164.169846       30.899132     -195.721294
  AL        -163.781896       29.019761     -196.284730
  AL        -163.393945       27.140390     -196.848165
  AL        -163.005995       25.261019     -197.411601
  AL        -162.618044       23.381649     -197.975036
  AL        -162.230094       21.502278     -198.538472
  AL        -161.842143       19.622907     -199.101907
  AL        -161.454193       17.743536     -199.665343
  AL        -161.066242       15.864165     -200.228778
  AL        -160.678292       13.984794     -200.792214
  AL        -160.290341       12.105423     -201.355649
  AL        -159.902391       10.226052     -201.919085
  AL        -159.514440        8.346682     -202.482520
  AL        -159.126490        6.467311     -203.045956
  AL        -158.738539        4.587940     -203.609391
  AL        -158.350589        2.708569     -204.172827
  AL        -157.962638        0.829198     -204.736262
  AL        -157.574688       -1.050173     -205.299698
  AL        -157.186737       -2.929544     -205.863133
  AL        -156.798787       -4.808914     -206.426569
  AL        -156.410836       -6.688285     -206.990004
  AL        -156.022886       -8.567656     -207.553440
  AL        -155.634935      -10.447027     -208.116875
  AL        -155.246985      -12.326398     -208.680311
  AL        -154.859034      -14.205769     -209.243746
  AL        -154.471084      -16.085140     -209.807182
  AL        -154.083134      -17.964511     -210.370617
  A          195.797289      157.654958     -211.328259
  A          196.774256      159.304072     -210.757332
  A          197.751222      160.953186     -210.186404
  A          198.728189      162.602300     -209.615477
  A          199.705156      164.251414     -209.044549
  A          200.682123      165.900528     -208.473622
  A          201.659090      167.549643     -207.902694
  A          202.636057      169.198757     -207.331767
  A          203.613024      170.847871     -206.760839
  A          204.589991      172.496985     -206.189912
  A          205.566958      174.146099     -205.618985
  A          206.543925      175.795213     -205.048057
  A          207.520892      177.444327     -204.477130
  A          208.497859      179.093441     -203.906202
  A          209.474826      180.742556     -203.335275
  A          210.451793      182.391670     -202.764347
  A          211.428760      184.040784     -202.193420
  A          212.405727      185.689898     -201.622492
  A          213.382694      187.339012     -201.051565
  A          214.359661      188.988126     -200.480637
  AL         215.336628      190.637240     -199.909710
  AL         216.313595      192.286354     -199.338782
  AL         217.290562      193.935468     -198.767855
  AL         218.267529      195.584583     -198.196928
  AL         219.244496      197.233697     -197.626000
  AL         220.221463      198.882811     -197.055073
  AL         221.198430      200.531925     -196.484145
  AL         222.175397      202.181039     -195.913218
  AL         223.152364      203.830153     -195.342290
  AL         224.129331      205.479267     -194.771363
  AL         225.106297      207.128381     -194.200435
  AL         226.083264      208.777496     -193.629508
  AL         227.060231      210.426610     -193.058580
  AL         228.037198      212.075724     -192.487653
  AL         229.014165      213.724838     -191.916725
  AL         229.991132      215.373952     -191.345798
  AL         230.968099      217.023066     -190.774871
  AL         231.945066      218.672180     -190.203943
  AL         232.922033      220.321294     -189.633016
  AL         233.899000      221.970409     -189.062088
  AL         234.875967      223.619523     -188.491161
  AL         235.852934      225.268637     -187.920233
  AL         236.829901      226.917751     -187.349306
  AL         237.806868      228.566865     -186.778378
  AL         238.783835      230.215979     -186.207451
  AL         239.760802      231.865093     -185.636523
  AL         240.737769      233.514207     -185.065596
  AL         241.714736      235.163322     -184.494668
  AL         242.691703      236.812436     -183.923741
  AL         243.668670      238.461550     -183.352814
  AL         244.645637      240.110664     -182.781886
  AL         245.622604      241.759778     -182.210959
  AL         246.599571      243.408892     -181.640031
  AL         247.576538      245.058006     -181.069104
  AL         248.553505      246.707120     -180.498176
  AL         249.530472      248.356234     -179.927249
  AL         250.507439      250.005349     -179.356321
  AL         251.484406      251.654463     -178.785394
  AL         252.461373      253.303577     -178.214466
  AL         253.438339      254.952691     -177.643539
  AL         254.415306      256.601805     -177.072612
  AL         255.392273      258.250919     -176.501684
  AL         256.369240      259.900033     -175.930757
  AL         257.346207      261.549147     -175.359829
  AL         258.323174      263.198262     -174.788902
  AL         259.300141      264.847376     -174.217974
  AL         260.277108      266.496490     -173.647047
  AL         261.254075      268.145604     -173.076119
  AL         262.231042      269.794718     -172.505192
  AL         263.208009      271.443832     -171.934264
  A         -121.528822      121.222721     -227.431761
  A         -122.970827      122.565262     -227.087948
  A         -124.412831      123.907803     -226.744136
  A         -125.854836      125.250343     -226.400323
  A         -127.296840      126.592884     -226.056510
  A         -128.738845      127.935425     -225.712698
  A         -130.180850      129.277966     -225.368885
  A         -131.622854      130.620506     -225.025073
  A         -133.064859      131.963047     -224.681260
  A         -134.506863      133.305588     -224.337447
  A         -135.948868      134.648129     -223.993635
  A         -137.390872      135.990669     -223.649822
  A         -138.832877      137.333210     -223.306009
  A         -140.274882      138.675751     -222.962197
  A         -141.716886      140.018291     -222.618384
  A         -143.158891      141.360832     -222.274571
  A         -144.600895      142.703373     -221.930759
  A         -146.042900      144.045914     -221.586946
  A         -147.484905      145.388454     -221.243133
  A         -148.926909      146.730995     -220.899321
  AL        -150.368914      148.073536     -220.555508
  AL        -151.810918      149.416077     -220.211696
  AL        -153.252923      150.758617     -219.867883
  AL        -154.694928      152.101158     -219.524070
  AL        -156.136932      153.443699     -219.180258
  AL        -157.578937      154.786240     -218.836445
  AL        -159.020941      156.128780     -218.492632
  AL        -160.462946      157.471321     -218.148820
  AL        -161.904951      158.813862     -217.805007
  AL        -163.346955      160.156402     -217.461194
  AL        -164.788960      161.498943     -217.117382
  AL        -166.230964      162.841484     -216.773569
  AL        -167.672969      164.184025     -216.429756
  AL        -169.114973      165.526565     -216.085944
  AL        -170.556978      166.869106     -215.742131
  AL        -171.998983      168.211647     -215.398319
  AL        -173.440987      169.554188     -215.054506
  AL        -174.882992      170.896728     -214.710693
  AL        -176.324996      172.239269     -214.366881
  AL        -177.767001      173.581810     -214.023068
  AL        -179.209006      174.924351     -213.679255
  AL        -180.651010      176.266891     -213.335443
  AL        -182.093015      177.609432     -212.991630
  AL        -183.535019      178.951973     -212.647817
  AL        -184.977024      180.294514     -212.304005
  AL        -186.419029      181.637054     -211.960192
  AL        -187.861033      182.979595     -211.616379
  AL        -189.303038      184.322136     -211.272567
  AL        -190.745042      185.664676     -210.928754
  AL        -192.187047      187.007217     -210.584942
  AL        -193.629052      188.349758     -210.241129
  AL        -195.071056      189.692299     -209.897316
  AL        -196.513061      191.034839     -209.553504
  AL        -197.955065      192.377380     -209.209691
  AL        -199.397070      193.719921     -208.865878
  AL        -200.839074      195.062462     -208.522066
  AL        -202.281079      196.405002     -208.178253
  AL        -203.723084      197.747543     -207.834440
  AL        -205.165088      199.090084     -207.490628
  AL        -206.607093      200.432625     -207.146815
  AL        -208.049097      201.775165     -206.803002
  AL        -209.491102      203.117706     -206.459190
  AL        -210.933107      204.460247     -206.115377
  AL        -212.375111      205.802787     -205.771565
  AL        -213.817116      207.145328     -205.427752
  AL        -215.259120      208.487869     -205.083939
  AL        -216.701125      209.830410     -204.740127
  AL        -218.143130      211.172950     -204.396314
  AL        -219.585134      212.515491     -204.052501
  AL        -221.027139      213.858032     -203.708689
  A         -212.582817      118.415327      275.174368
  A         -213.655393      117.010571      274.238291
  A         -214.727970      115.605816      273.302213
  A         -215.800546      114.201060      272.366135
  A         -216.873122      112.796304      271.430057
  A         -217.945699      111.391549      270.493980
  A         -219.018275      109.986793      269.557902
  A         -220.090851      108.582037      268.621824
  A         -221.163428      107.177282      267.685746
  A         -222.236004      105.772526      266.749669
  A         -223.308580      104.367771      265.813591
  A         -224.381157      102.963015      264.877513
  A         -225.453733      101.558259      263.941435
  A         -226.526310      100.153504      263.005358
  A         -227.598886       98.748748      262.069280
  A         -228.671462       97.343992      261.133202
  A         -229.744039       95.939237      260.197124
  A         -230.816615       94.534481      259.261047
  A         -231.889191       93.129726      258.324969
  A         -232.961768       91.724970      257.388891
  AL        -234.034344       90.320214      256.452813
  AL        -235.106920       88.915459      255.516736
  AL        -236.179497       87.510703      254.580658
  AL        -237.252073       86.105947      253.644580
  AL        -238.324650       84.701192      252.708502
  AL        -239.397226       83.296436      251.772425
  AL        -240.469802       81.891681      250.836347
  AL        -241.542379       80.486925      249.900269
  AL        -242.614955       79.082169      248.964191
  AL        -243.687531       77.677414      248.028114
  AL        -244.760108       76.272658      247.092036
  AL        -245.832684       74.867902      246.155958
  AL        -246.905260       73.463147      245.219880
  AL        -247.977837       72.058391      244.283803
  AL        -249.050413       70.653635      243.347725
  AL        -250.122990       69.248880      242.411647
  AL        -251.195566       67.844124      241.475569
  AL        -252.268142       66.439369      240.539491
  AL        -253.340719       65.034613      239.603414
  AL        -254.413295       63.629857      238.667336
  AL        -255.485871       62.225102      237.731258
  AL        -256.558448       60.820346      236.795180
  AL        -257.631024       59.415590      235.859103
  AL        -258.703600       58.010835      234.923025
  AL        -259.776177       56.606079      233.986947
  AL        -260.848753       55.201324      233.050869
  AL        -261.921330       53.796568      232.114792
  AL        -262.993906       52.391812      231.178714
  AL        -264.066482       50.987057      230.242636
  AL        -265.139059       49.582301      229.306558
  AL        -266.211635       48.177545      228.370481
  AL        -267.284211       46.772790      227.434403
  AL        -268.356788       45.368034      226.498325
  AL        -269.429364       43.963279      225.562247
  AL        -270.501940       42.558523      224.626170
  AL        -271.574517       41.153767      223.690092
  AL        -272.647093       39.749012      222.754014
  AL        -273.719670       38.344256      221.817936
  AL        -274.792246       36.939500      220.881859
  AL        -275.864822       35.534745      219.945781
  AL        -276.937399       34.129989      219.009703
  AL        -278.009975       32.725234      218.073625
  AL        -279.082551       31.320478      217.137548
  AL        -280.155128       29.915722      216.201470
  AL        -281.227704       28.510967      215.265392
  AL        -282.300280       27.106211      214.329314
  AL        -283.372857       25.701455      213.393237
  AL        -284.445433       24.296700      212.457159
  AL        -285.518010       22.891944      211.521081
  AL        -286.590586       21.487188      210.585003
  A          110.763401      -50.869963      149.296843
  A          109.783712      -49.685065      150.575994
  A          108.804023      -48.500167      151.855145
  A          107.824334      -47.315270      153.134296
  A          106.844645      -46.130372      154.413446
  A          105.864956      -44.945474      155.692597
  A          104.885267      -43.760577      156.971748
  A          103.905578      -42.575679      158.250899
  A          102.925889      -41.390781      159.530050
  A          101.946200      -40.205884      160.809201
  A          100.966512      -39.020986      162.088352
  A           99.986823      -37.836088      163.367503
  A           99.007134      -36.651190      164.646653
  A           98.027445      -35.466293      165.925804
  A           97.047756      -34.281395      167.204955
  A           96.068067      -33.096497      168.484106
  A           95.088378      -31.911600      169.763257
  A           94.108689      -30.726702      171.042408
  A           93.129000      -29.541804      172.321559
  A           92.149311      -28.356907      173.600710
  AL          91.169622      -27.172009      174.879861
  AL          90.189933      -25.987111      176.159011
  AL          89.210244      -24.802213      177.438162
  AL          88.230555      -23.617316      178.717313
  AL          87.250866      -22.432418      179.996464
  AL          86.271177      -21.247520      181.275615
  AL          85.291488      -20.062623      182.554766
  AL          84.311799      -18.877725      183.833917
  AL          83.332110      -17.692827      185.113068
  AL          82.352421      -16.507930      186.392219
  AL          81.372732      -15.323032      187.671369
  AL          80.393043      -14.138134      188.950520
  AL          79.413354      -12.953236      190.229671
  AL          78.433666      -11.768339      191.508822
  AL          77.453977      -10.583441      192.787973
  AL          76.474288       -9.398543      194.067124
  AL          75.494599       -8.213646      195.346275
  AL          74.514910       -7.028748      196.625426
  AL          73.535221       -5.843850      197.904577
  AL          72.555532       -4.658953      199.183727
  AL          71.575843       -3.474055      200.462878
  AL          70.596154       -2.289157      201.742029
  AL          69.616465       -1.104259      203.021180
  AL          68.636776        0.080638      204.300331
  AL          67.657087        1.265536      205.579482
  AL          66.677398        2.450434      206.858633
  AL          65.697709        3.635331      208.137784
  AL          64.718020        4.820229      209.416934
  AL          63.738331        6.005127      210.696085
  AL          62.758642        7.190024      211.975236
  AL          61.778953        8.374922      213.254387
  AL          60.799264        9.559820      214.533538
  AL          59.819575       10.744718      215.812689
  AL          58.839886       11.929615      217.091840
  AL          57.860197       13.114513      218.370991
  AL          56.880508       14.299411      219.650142
  AL          55.900820       15.484308      220.929292
  AL          54.921131       16.669206      222.208443
  AL          53.941442       17.854104      223.487594
  AL          52.961753       19.039001      224.766745
  AL          51.982064       20.223899      226.045896
  AL          51.002375       21.408797      227.325047
  AL          50.022686       22.593695      228.604198
  AL          49.042997       23.778592      229.883349
  AL          48.063308       24.963490      231.162500
  AL          47.083619       26.148388      232.441650
  AL          46.103930       27.333285      233.720801
  AL          45.124241       28.518183      234.999952
  AL          44.144552       29.703081      236.279103
  AL          43.164863       30.887978      237.558254
  A          176.677789      109.845506       15.601991
  A          178.460144      110.483925       16.246688
  A          180.242498      111.122343       16.891385
  A          182.024853      111.760762       17.536082
  A          183.807207      112.399180       18.180779
  A          185.589562      113.037599       18.825477
  A          187.371916      113.676017       19.470174
  A          189.154270      114.314436       20.114871
  A          190.936625      114.952855       20.759568
  A          192.718979      115.591273       21.404265
  A          194.501334      116.229692       22.048962
  A          196.283688      116.868110       22.693659
  A          198.066043      117.506529       23.338356
  A          199.848397      118.144947       23.983054
  A          201.630752      118.783366       24.627751
  A          203.413106      119.421784       25.272448
  A          205.195460      120.060203       25.917145
  A          206.977815      120.698622       26.561842
  A          208.760169      121.337040       27.206539
  A          210.542524      121.975459       27.851236
  AL         212.324878      122.613877       28.495933
  AL         214.107233      123.252296       29.140630
  AL         215.889587      123.890714       29.785328
  AL         217.671942      124.529133       30.430025
  AL         219.454296      125.167551       31.074722
  AL         221.236651      125.805970       31.719419
  AL         223.019005      126.444388       32.364116
  AL         224.801359      127.082807       33.008813
  AL         226.583714      127.721226       33.653510
  AL         228.366068      128.359644       34.298207
  AL         230.148423      128.998063       34.942904
  AL         231.930777      129.636481       35.587602
  AL         233.713132      130.274900       36.232299
  AL         235.495486      130.913318       36.876996
  AL         237.277841      131.551737       37.521693
  AL         239.060195      132.190155       38.166390
  AL         240.842549      132.828574       38.811087
  AL         242.624904      133.466993       39.455784
  AL         244.407258      134.105411       40.100481
  AL         246.189613      134.743830       40.745179
  AL         247.971967      135.382248       41.389876
  AL         249.754322      136.020667       42.034573
  AL         251.536676      136.659085       42.679270
  AL         253.319031      137.297504       43.323967
  AL         255.101385      137.935922       43.968664
  AL         256.883739      138.574341       44.613361
  AL         258.666094      139.212760       45.258058
  AL         260.448448      139.851178       45.902755
  AL         262.230803      140.489597       46.547453
  AL         264.013157      141.128015       47.192150
  AL         265.795512      141.766434       47.836847
  AL         267.577866      142.404852       48.481544
  AL         269.360221      143.043271       49.126241
  AL         271.142575      143.681689       49.770938
  AL         272.924930      144.320108       50.415635
  AL         274.707284      144.958527       51.060332
  AL         276.489638      145.596945       51.705030
  AL         278.271993      146.235364       52.349727
  AL         280.054347      146.873782       52.994424
  AL         281.836702      147.512201       53.639121
  AL         283.619056      148.150619       54.283818
  AL         285.401411      148.789038       54.928515
  AL         287.183765      149.427456       55.573212
  AL         288.966120      150.065875       56.217909
  AL         290.748474      150.704294       56.862606
  AL         292.530828      151.342712       57.507304
  AL         294.313183      151.981131       58.152001
  AL         296.095537      152.619549       58.796698
  AL         297.877892      153.257968       59.441395
  AL         299.660246      153.896386       60.086092
  A          165.856330     -279.759984      202.686330
  A          166.756707     -278.295876      201.663731
  A          167.657084     -276.831767      200.641133
  A          168.557462     -275.367659      199.618535
  A          169.457839     -273.903550      198.595937
  A          170.358216     -272.439441      197.573339
  A          171.258593     -270.975333      196.550741
  A          172.158971     -269.511224      195.528143
  A          173.059348     -268.047115      194.505545
  A          173.959725     -266.583007      193.482947
  A          174.860102     -265.118898      192.460349
  A          175.760480     -263.654789      191.437751
  A          176.660857     -262.190681      190.415153
  A          177.561234     -260.726572      189.392555
  A          178.461611     -259.262463      188.369957
  A          179.361989     -257.798355      187.347359
  A          180.262366     -256.334246      186.324761
  A          181.162743     -254.870137      185.302163
  A          182.063120     -253.406029      184.279565
  A          182.963498     -251.941920      183.256967
  AL         183.863875     -250.477812      182.234369
  AL         184.764252     -249.013703      181.211771
  AL         185.664629     -247.549594      180.189173
  AL         186.565007     -246.085486      179.166575
  AL         187.465384     -244.621377      178.143977
  AL         188.365761     -243.157268      177.121379
  AL         189.266138     -241.693160      176.098781
  AL         190.166516     -240.229051      175.076183
  AL         191.066893     -238.764942      174.053585
  AL         191.967270     -237.300834      173.030987
  AL         192.867647     -235.836725      172.008389
  AL         193.768025     -234.372616      170.985791
  AL         194.668402     -232.908508      169.963193
  AL         195.568779     -231.444399      168.940595
  AL         196.469156     -229.980291      167.917997
  AL         197.369534     -228.516182      166.895399
  AL         198.269911     -227.052073      165.872801
  AL         199.170288     -225.587965      164.850203
  AL         200.070665     -224.123856      163.827605
  AL         200.971043     -222.659747      162.805007
  AL         201.871420     -221.195639      161.782409
  AL         202.771797     -219.731530      160.759811
  AL         203.672174     -218.267421      159.737213
  AL         204.572552     -216.803313      158.714615
  AL         205.472929     -215.339204      157.692017
  AL         206.373306     -213.875095      156.669419
  AL         207.273683     -212.410987      155.646821
  AL         208.174061     -210.946878      154.624223
  AL         209.074438     -209.482769      153.601625
  AL         209.974815     -208.018661      152.579027
  AL         210.875192     -206.554552      151.556429
  AL         211.775570     -205.090444      150.533831
  AL         212.675947     -203.626335      149.511233
  AL         213.576324     -202.162226      148.488635
  AL         214.476701     -200.698118      147.466037
  AL         215.377079     -199.234009      146.443439
  AL         216.277456     -197.769900      145.420841
  AL         217.177833     -196.305792      144.398243
  AL         218.078210     -194.841683      143.375645
  AL         218.978588     -193.377574      142.353047
  AL         219.878965     -191.913466      141.330449
  AL         220.779342     -190.449357      140.307851
  AL         221.679719     -188.985248      139.285253
  AL         222.580097     -187.521140      138.262655
  AL         223.480474     -186.057031      137.240057
  AL         224.380851     -184.592923      136.217459
  AL         225.281228     -183.128814      135.194861
  AL         226.181606     -181.664705      134.172263
  AL         227.081983     -180.200597      133.149665
  AL         227.982360     -178.736488      132.127067
  A          233.525637       50.430033      -22.930597
  A          233.096537       51.607333      -24.489391
  A          232.667437       52.784633      -26.048185
  A          232.238337       53.961933      -27.606979
  A          231.809237       55.139233      -29.165772
  A          231.380137       56.316533      -30.724566
  A          230.951037       57.493833      -32.283360
  A          230.521938       58.671133      -33.842154
  A          230.092838       59.848433      -35.400948
  A          229.663738       61.025733      -36.959741
  A          229.234638       62.203033      -38.518535
  A          228.805538       63.380333      -40.077329
  A          228.376438       64.557633      -41.636123
  A          227.947338       65.734933      -43.194916
  A          227.518239       66.912233      -44.753710
  A          227.089139       68.089533      -46.312504
  A          226.660039       69.266833      -47.871298
  A          226.230939       70.444133      -49.430091
  A          225.801839       71.621433      -50.988885
  A          225.372739       72.798733      -52.547679
  AL         224.943639       73.976033      -54.106473
  AL         224.514540       75.153333      -55.665266
  AL         224.085440       76.330633      -57.224060
  AL         223.656340       77.507933      -58.782854
  AL         223.227240       78.685233      -60.341648
  AL         222.798140       79.862534      -61.900441
  AL         222.369040       81.039834      -63.459235
  AL         221.939940       82.217134      -65.018029
  AL         221.510841       83.394434      -66.576823
  AL         221.081741       84.571734      -68.135616
  AL         220.652641       85.749034      -69.694410
  AL         220.223541       86.926334      -71.253204
  AL         219.794441       88.103634      -72.811998
  AL         219.365341       89.280934      -74.370791
  AL         218.936241       90.458234      -75.929585
  AL         218.507142       91.635534      -77.488379
  AL         218.078042       92.812834      -79.047173
  AL         217.648942       93.990134      -80.605967
  AL         217.219842       95.167434      -82.164760
  AL         216.790742       96.344734      -83.723554
  AL         216.361642       97.522034      -85.282348
  AL         215.932542       98.699334      -86.841142
  AL         215.503443       99.876634      -88.399935
  AL         215.074343      101.053934      -89.958729
  AL         214.645243      102.231234      -91.517523
  AL         214.216143      103.408534      -93.076317
  AL         213.787043      104.585834      -94.635110
  AL         213.357943      105.763134      -96.193904
  AL         212.928843      106.940434      -97.752698
  AL         212.499744      108.117734      -99.311492
  AL         212.070644      109.295034     -100.870285
  AL         211.641544      110.472334     -102.429079
  AL         211.212444      111.649634     -103.987873
  AL         210.783344      112.826934     -105.546667
  AL         210.354244      114.004234     -107.105460
  AL         209.925144      115.181534     -108.664254
  AL         209.496045      116.358834     -110.223048
  AL         209.066945      117.536134     -111.781842
  AL         208.637845      118.713434     -113.340635
  AL         208.208745      119.890734     -114.899429
  AL         207.779645      121.068034     -116.458223
  AL         207.350545      122.245334     -118.017017
  AL         206.921445      123.422634     -119.575810
  AL         206.492346      124.599934     -121.134604
  AL         206.063246      125.777234     -122.693398
  AL         205.634146      126.954534     -124.252192
  AL         205.205046      128.131834     -125.810986
  AL         204.775946      129.309134     -127.369779
  AL         204.346846      130.486434     -128.928573
  AL         203.917746      131.663734     -130.487367
  A          -82.942812       50.245269      -55.066556
  A          -84.691922       50.944922      -55.738197
  A          -86.441032       51.644574      -56.409838
  A          -88.190142       52.344227      -57.081478
  A          -89.939251       53.043880      -57.753119
  A          -91.688361       53.743532      -58.424760
  A          -93.437471       54.443185      -59.096400
  A          -95.186581       55.142837      -59.768041
  A          -96.935690       55.842490      -60.439682
  A          -98.684800       56.542143      -61.111323
  A         -100.433910       57.241795      -61.782963
  A         -102.183020       57.941448      -62.454604
  A         -103.932129       58.641101      -63.126245
  A         -105.681239       59.340753      -63.797885
  A         -107.430349       60.040406      -64.469526
  A         -109.179459       60.740058      -65.141167
  A         -110.928569       61.439711      -65.812808
  A         -112.677678       62.139364      -66.484448
  A         -114.426788       62.839016      -67.156089
  A         -116.175898       63.538669      -67.827730
  AL        -117.925008       64.238321      -68.499370
  AL        -119.674117       64.937974      -69.171011
  AL        -121.423227       65.637627      -69.842652
  AL        -123.172337       66.337279      -70.514292
  AL        -124.921447       67.036932      -71.185933
  AL        -126.670556       67.736585      -71.857574
  AL        -128.419666       68.436237      -72.529215
  AL        -130.168776       69.135890      -73.200855
  AL        -131.917886       69.835542      -73.872496
  AL        -133.666995       70.535195      -74.544137
  AL        -135.416105       71.234848      -75.215777
  AL        -137.165215       71.934500      -75.887418
  AL        -138.914325       72.634153      -76.559059
  AL        -140.663435       73.333806      -77.230700
  AL        -142.412544       74.033458      -77.902340
  AL        -144.161654       74.733111      -78.573981
  AL        -145.910764       75.432763      -79.245622
  AL        -147.659874       76.132416      -79.917262
  AL        -149.408983       76.832069      -80.588903
  AL        -151.158093       77.531721      -81.260544
  AL        -152.907203       78.231374      -81.932185
  AL        -154.656313       78.931027      -82.603825
  AL        -156.405422       79.630679      -83.275466
  AL        -158.154532       80.330332      -83.947107
  AL        -159.903642       81.029984      -84.618747
  AL        -161.652752       81.729637      -85.290388
  AL        -163.401861       82.429290      -85.962029
  AL        -165.150971       83.128942      -86.633669
  AL        -166.900081       83.828595      -87.305310
  AL        -168.649191       84.528247      -87.976951
  AL        -170.398301       85.227900      -88.648592
  AL        -172.147410       85.927553      -89.320232
  AL        -173.896520       86.627205      -89.991873
  AL        -175.645630       87.326858      -90.663514
  AL        -177.394740       88.026511      -91.335154
  AL        -179.143849       88.726163      -92.006795
  AL        -180.892959       89.425816      -92.678436
  AL        -182.642069       90.125468      -93.350077
  AL        -184.391179       90.825121      -94.021717
  AL        -186.140288       91.524774      -94.693358
  AL        -187.889398       92.224426      -95.364999
  AL        -189.638508       92.924079      -96.036639
  AL        -191.387618       93.623732      -96.708280
  AL        -193.136727       94.323384      -97.379921
  AL        -194.885837       95.023037      -98.051561
  AL        -196.634947       95.722689      -98.723202
  AL        -198.384057       96.422342      -99.394843
  AL        -200.133167       97.121995     -100.066484
  AL        -201.882276       97.821647     -100.738124
  AL        -203.631386       98.521300     -101.409765
  A         -296.019972      206.437065      -62.804029
  A         -294.731551      207.778154      -62.068195
  A         -293.443131      209.119244      -61.332361
  A         -292.154711      210.460334      -60.596527
  A         -290.866290      211.801424      -59.860693
  A         -289.577870      213.142514      -59.124860
  A         -288.289450      214.483603      -58.389026
  A         -287.001030      215.824693      -57.653192
  A         -285.712609      217.165783      -56.917358
  A         -284.424189      218.506873      -56.181524
  A         -283.135769      219.847963      -55.445691
  A         -281.847348      221.189052      -54.709857
  A         -280.558928      222.530142      -53.974023
  A         -279.270508      223.871232      -53.238189
  A         -277.982088      225.212322      -52.502356
  A         -276.693667      226.553411      -51.766522
  A         -275.405247      227.894501      -51.030688
  A         -274.116827      229.235591      -50.294854
  A         -272.828406      230.576681      -49.559020
  A         -271.539986      231.917771      -48.823187
  AL        -270.251566      233.258860      -48.087353
  AL        -268.963146      234.599950      -47.351519
  AL        -267.674725      235.941040      -46.615685
  AL        -266.386305      237.282130      -45.879852
  AL        -265.097885      238.623219      -45.144018
  AL        -263.809464      239.964309      -44.408184
  AL        -262.521044      241.305399      -43.672350
  AL        -261.232624      242.646489      -42.936516
  AL        -259.944203      243.987579      -42.200683
  AL        -258.655783      245.328668      -41.464849
  AL        -257.367363      246.669758      -40.729015
  AL        -256.078943      248.010848      -39.993181
  AL        -254.790522      249.351938      -39.257348
  AL        -253.502102      250.693027      -38.521514
  AL        -252.213682      252.034117      -37.785680
  AL        -250.925261      253.375207      -37.049846
  AL        -249.636841      254.716297      -36.314012
  AL        -248.348421      256.057387      -35.578179
  AL        -247.060001      257.398476      -34.842345
  AL        -245.771580      258.739566      -34.106511
  AL        -244.483160      260.080656      -33.370677
  AL        -243.194740      261.421746      -32.634844
  AL        -241.906319      262.762835      -31.899010
  AL        -240.617899      264.103925      -31.163176
  AL        -239.329479      265.445015      -30.427342
  AL        -238.041058      266.786105      -29.691508
  AL        -236.752638      268.127195      -28.955675
  AL        -235.464218      269.468284      -28.219841
  AL        -234.175798      270.809374      -27.484007
  AL        -232.887377      272.150464      -26.748173
  AL        -231.598957      273.491554      -26.012340
  AL        -230.310537      274.832644      -25.276506
  AL        -229.022116      276.173733      -24.540672
  AL        -227.733696      277.514823      -23.804838
  AL        -226.445276      278.855913      -23.069004
  AL        -225.156856      280.197003      -22.333171
  AL        -223.868435      281.538092      -21.597337
  AL        -222.580015      282.879182      -20.861503
  AL        -221.291595      284.220272      -20.125669
  AL        -220.003174      285.561362      -19.389836
  AL        -218.714754      286.902452      -18.654002
  AL        -217.426334      288.243541      -17.918168
  AL        -216.137914      289.584631      -17.182334
  AL        -214.849493      290.925721      -16.446500
  AL        -213.561073      292.266811      -15.710667
  AL        -212.272653      293.607900      -14.974833
  AL        -210.984232      294.948990      -14.238999
  AL        -209.695812      296.290080      -13.503165
  AL        -208.407392      297.631170      -12.767332
  AL        -207.118971      298.972260      -12.031498
  A         -166.297418        2.096268      295.331463
  A         -166.659752        1.557228      293.439863
  A         -167.022087        1.018188      291.548263
  A         -167.384421        0.479148      289.656664
  A         -167.746756       -0.059893      287.765064
  A         -168.109090       -0.598933      285.873464
  A         -168.471424       -1.137973      283.981864
  A         -168.833759       -1.677013      282.090265
  A         -169.196093       -2.216053      280.198665
  A         -169.558427       -2.755093      278.307065
  A         -169.920762       -3.294133      276.415465
  A         -170.283096       -3.833173      274.523865
  A         -170.645430       -4.372213      272.632266
  A         -171.007765       -4.911253      270.740666
  A         -171.370099       -5.450293      268.849066
  A         -171.732433       -5.989333      266.957466
  A         -172.094768       -6.528373      265.065867
  A         -172.457102       -7.067413      263.174267
  A         -172.819437       -7.606453      261.282667
  A         -173.181771       -8.145493      259.391067
  AL        -173.544105       -8.684533      257.499468
  AL        -173.906440       -9.223573      255.607868
  AL        -174.268774       -9.762613      253.716268
  AL        -174.631108      -10.301653      251.824668
  AL        -174.993443      -10.840693      249.933069
  AL        -175.355777      -11.379733      248.041469
  AL        -175.718111      -11.918773      246.149869
  AL        -176.080446      -12.457813      244.258269
  AL        -176.442780      -12.996853      242.366670
  AL        -176.805114      -13.535893      240.475070
  AL        -177.167449      -14.074934      238.583470
  AL        -177.529783      -14.613974      236.691870
  AL        -177.892118      -15.153014      234.800271
  AL        -178.254452      -15.692054      232.908671
  AL        -178.616786      -16.231094      231.017071
  AL        -178.979121      -16.770134      229.125471
  AL        -179.341455      -17.309174      227.233871
  AL        -179.703789      -17.848214      225.342272
  AL        -180.066124      -18.387254      223.450672
  AL        -180.428458      -18.926294      221.559072
  AL        -180.790792      -19.465334      219.667472
  AL        -181.153127      -20.004374      217.775873
  AL        -181.515461      -20.543414      215.884273
  AL        -181.877795      -21.082454      213.992673
  AL        -182.240130      -21.621494      212.101073
  AL        -182.602464      -22.160534      210.209474
  AL        -182.964799      -22.699574      208.317874
  AL        -183.327133      -23.238614      206.426274
  AL        -183.689467      -23.777654      204.534674
  AL        -184.051802      -24.316694      202.643075
  AL        -184.414136      -24.855734      200.751475
  AL        -184.776470      -25.394774      198.859875
  AL        -185.138805      -25.933814      196.968275
  AL        -185.501139      -26.472854      195.076676
  AL        -185.863473      -27.011894      193.185076
  AL        -186.225808      -27.550935      191.293476
  AL        -186.588142      -28.089975      189.401876
  AL        -186.950476      -28.629015      187.510277
  AL        -187.312811      -29.168055      185.618677
  AL        -187.675145      -29.707095      183.727077
  AL        -188.037480      -30.246135      181.835477
  AL        -188.399814      -30.785175      179.943878
  AL        -188.762148      -31.324215      178.052278
  AL        -189.124483      -31.863255      176.160678
  AL        -189.486817      -32.402295      174.269078
  AL        -189.849151      -32.941335      172.377478
  AL        -190.211486      -33.480375      170.485879
  AL        -190.573820      -34.019415      168.594279
  AL        -190.936154      -34.558455      166.702679
  AL        -191.298489      -35.097495      164.811079
  A           31.017519      -47.870010      -80.867041
  A           31.064731      -49.618753      -81.836408
  A           31.111943      -51.367495      -82.805774
  A           31.159155      -53.116237      -83.775141
  A           31.206367      -54.864979      -84.744508
  A           31.253579      -56.613721      -85.713875
  A           31.300790      -58.362463      -86.683242
  A           31.348002      -60.111205      -87.652608
  A           31.395214      -61.859947      -88.621975
  A           31.442426      -63.608690      -89.591342
  A           31.489638      -65.357432      -90.560709
  A           31.536849      -67.106174      -91.530076
  A           31.584061      -68.854916      -92.499443
  A           31.631273      -70.603658      -93.468809
  A           31.678485      -72.352400      -94.438176
  A           31.725697      -74.101142      -95.407543
  A           31.772909      -75.849884      -96.376910
  A           31.820120      -77.598627      -97.346277
  A           31.867332      -79.347369      -98.315644
  A           31.914544      -81.096111      -99.285010
  AL          31.961756      -82.844853     -100.254377
  AL          32.008968      -84.593595     -101.223744
  AL          32.056180      -86.342337     -102.193111
  AL          32.103391      -88.091079     -103.162478
  AL          32.150603      -89.839821     -104.131844
  AL          32.197815      -91.588564     -105.101211
  AL          32.245027      -93.337306     -106.070578
  AL          32.292239      -95.086048     -107.039945
  AL          32.339451      -96.834790     -108.009312
  AL          32.386662      -98.583532     -108.978679
  AL          32.433874     -100.332274     -109.948045
  AL          32.481086     -102.081016     -110.917412
  AL          32.528298     -103.829758     -111.886779
  AL          32.575510     -105.578500     -112.856146
  AL          32.622722     -107.327243     -113.825513
  AL          32.669933     -109.075985     -114.794879
  AL          32.717145     -110.824727     -115.764246
  AL          32.764357     -112.573469     -116.733613
  AL          32.811569     -114.322211     -117.702980
  AL          32.858781     -116.070953     -118.672347
  AL          32.905993     -117.819695     -119.641714
  AL          32.953204     -119.568437     -120.611080
  AL          33.000416     -121.317180     -121.580447
  AL          33.047628     -123.065922     -122.549814
  AL          33.094840     -124.814664     -123.519181
  AL          33.142052     -126.563406     -124.488548
  AL          33.189264     -128.312148     -125.457914
  AL          33.236475     -130.060890     -126.427281
  AL          33.283687     -131.809632     -127.396648
  AL          33.330899     -133.558374     -128.366015
  AL          33.378111     -135.307117     -129.335382
  AL          33.425323     -137.055859     -130.304749
  AL          33.472534     -138.804601     -131.274115
  AL          33.519746     -140.553343     -132.243482
  AL          33.566958     -142.302085     -133.212849
  AL          33.614170     -144.050827     -134.182216
  AL          33.661382     -145.799569     -135.151583
  AL          33.708594     -147.548311     -136.120949
  AL          33.755805     -149.297054     -137.090316
  AL          33.803017     -151.045796     -138.059683
  AL          33.850229     -152.794538     -139.029050
  AL          33.897441     -154.543280     -139.998417
  AL          33.944653     -156.292022     -140.967784
  AL          33.991865     -158.040764     -141.937150
  AL          34.039076     -159.789506     -142.906517
  AL          34.086288     -161.538248     -143.875884
  AL          34.133500     -163.286991     -144.845251
  AL          34.180712     -165.035733     -145.814618
  AL          34.227924     -166.784475     -146.783985
  AL          34.275136     -168.533217     -147.753351
  A         -126.706039       30.840775      276.847703
  A         -127.644677       32.602830      276.966523
  A         -128.583316       34.364886      277.085343
  A         -129.521955       36.126941      277.204163
  A         -130.460593       37.888997      277.322983
  A         -131.399232       39.651052      277.441803
  A         -132.337870       41.413107      277.560623
  A         -133.276509       43.175163      277.679443
  A         -134.215148       44.937218      277.798263
  A         -135.153786       46.699274      277.917083
  A         -136.092425       48.461329      278.035903
  A         -137.031063       50.223385      278.154722
  A         -137.969702       51.985440      278.273542
  A         -138.908341       53.747496      278.392362
  A         -139.846979       55.509551      278.511182
  A         -140.785618       57.271606      278.630002
  A         -141.724257       59.033662      278.748822
  A         -142.662895       60.795717      278.867642
  A         -143.601534       62.557773      278.986462
  A         -144.540172       64.319828      279.105282
  AL        -145.478811       66.081884      279.224102
  AL        -146.417450       67.843939      279.342922
  AL        -147.356088       69.605994      279.461742
  AL        -148.294727       71.368050      279.580561
  AL        -149.233365       73.130105      279.699381
  AL        -150.172004       74.892161      279.818201
  AL        -151.110643       76.654216      279.937021
  AL        -152.049281       78.416272      280.055841
  AL        -152.987920       80.178327      280.174661
  AL        -153.926559       81.940383      280.293481
  AL        -154.865197       83.702438      280.412301
  AL        -155.803836       85.464493      280.531121
  AL        -156.742474       87.226549      280.649941
  AL        -157.681113       88.988604      280.768761
  AL        -158.619752       90.750660      280.887581
  AL        -159.558390       92.512715      281.006400
  AL        -160.497029       94.274771      281.125220
  AL        -161.435667       96.036826      281.244040
  AL        -162.374306       97.798882      281.362860
  AL        -163.312945       99.560937      281.481680
  AL        -164.251583      101.322992      281.600500
  AL        -165.190222      103.085048      281.719320
  AL        -166.128861      104.847103      281.838140
  AL        -167.067499      106.609159      281.956960
  AL        -168.006138      108.371214      282.075780
  AL        -168.944776      110.133270      282.194600
  AL        -169.883415      111.895325      282.313420
  AL        -170.822054      113.657381      282.432239
  AL        -171.760692      115.419436      282.551059
  AL        -172.699331      117.181491      282.669879
  AL        -173.637969      118.943547      282.788699
  AL        -174.576608      120.705602      282.907519
  AL        -175.515247      122.467658      283.026339
  AL        -176.453885      124.229713      283.145159
  AL        -177.392524      125.991769      283.263979
  AL        -178.331163      127.753824      283.382799
  AL        -179.269801      129.515879      283.501619
  AL        -180.208440      131.277935      283.620439
  AL        -181.147078      133.039990      283.739259
  AL        -182.085717      134.802046      283.858078
  AL        -183.024356      136.564101      283.976898
  AL        -183.962994      138.326157      284.095718
  AL        -184.901633      140.088212      284.214538
  AL        -185.840271      141.850268      284.333358
  AL        -186.778910      143.612323      284.452178
  AL        -187.717549      145.374378      284.570998
  AL        -188.656187      147.136434      284.689818
  AL        -189.594826      148.898489      284.808638
  AL        -190.533465      150.660545      284.927458
  AL        -191.472103      152.422600      285.046278
  A           97.608028     -169.133780      183.190696
  A           95.827252     -169.847233      183.756223
  A           94.046476     -170.560686      184.321751
  A           92.265699     -171.274138      184.887278
  A           90.484923     -171.987591      185.452806
  A           88.704147     -172.701044      186.018333
  A           86.923371     -173.414496      186.583861
  A           85.142594     -174.127949      187.149388
  A           83.361818     -174.841402      187.714916
  A           81.581042     -175.554854      188.280443
  A           79.800266     -176.268307      188.845970
  A           78.019489     -176.981760      189.411498
  A           76.238713     -177.695212      189.977025
  A           74.457937     -178.408665      190.542553
  A           72.677161     -179.122118      191.108080
  A           70.896384     -179.835570      191.673608
  A           69.115608     -180.549023      192.239135
  A           67.334832     -181.262475      192.804663
  A           65.554056     -181.975928      193.370190
  A           63.773279     -182.689381      193.935718
  AL          61.992503     -183.402833      194.501245
  AL          60.211727     -184.116286      195.066773
  AL          58.430951     -184.829739      195.632300
  AL          56.650175     -185.543191      196.197828
  AL          54.869398     -186.256644      196.763355
  AL          53.088622     -186.970097      197.328882
  AL          51.307846     -187.683549      197.894410
  AL          49.527070     -188.397002      198.459937
  AL          47.746293     -189.110455      199.025465
  AL          45.965517     -189.823907      199.590992
  AL          44.184741     -190.537360      200.156520
  AL          42.403965     -191.250813      200.722047
  AL          40.623188     -191.964265      201.287575
  AL          38.842412     -192.677718      201.853102
  AL          37.061636     -193.391170      202.418630
  AL          35.280860     -194.104623      202.984157
  AL          33.500083     -194.818076      203.549685
  AL          31.719307     -195.531528      204.115212
  AL          29.938531     -196.244981      204.680740
  AL          28.157755     -196.958434      205.246267
  AL          26.376979     -197.671886      205.811794
  AL          24.596202     -198.385339      206.377322
  AL          22.815426     -199.098792      206.942849
  AL          21.034650     -199.812244      207.508377
  AL          19.253874     -200.525697      208.073904
  AL          17.473097     -201.239150      208.639432
  AL          15.692321     -201.952602      209.204959
  AL          13.911545     -202.666055      209.770487
  AL          12.130769     -203.379508      210.336014
  AL          10.349992     -204.092960      210.901542
  AL           8.569216     -204.806413      211.467069
  AL           6.788440     -205.519866      212.032597
  AL           5.007664     -206.233318      212.598124
  AL           3.226887     -206.946771      213.163652
  AL           1.446111     -207.660223      213.729179
  AL          -0.334665     -208.373676      214.294706
  AL          -2.115441     -209.087129      214.860234
  AL          -3.896217     -209.800581      215.425761
  AL          -5.676994     -210.514034      215.991289
  AL          -7.457770     -211.227487      216.556816
  AL          -9.238546     -211.940939      217.122344
  AL         -11.019322     -212.654392      217.687871
  AL         -12.800099     -213.367845      218.253399
  AL         -14.580875     -214.081297      218.818926
  AL         -16.361651     -214.794750      219.384454
  AL         -18.142427     -215.508203      219.949981
  AL         -19.923204     -216.221655      220.515509
  AL         -21.703980     -216.935108      221.081036
  AL         -23.484756     -217.648561      221.646564
  AL         -25.265532     -218.362013      222.212091
  A          222.959962     -194.094660     -298.792167
  A          222.530781     -193.060563     -297.134926
  A          222.101600     -192.026467     -295.477685
  A          221.672418     -190.992371     -293.820444
  A          221.243237     -189.958274     -292.163203
  A          220.814056     -188.924178     -290.505962
  A          220.384875     -187.890081     -288.848720
  A          219.955694     -186.855985     -287.191479
  A          219.526512     -185.821888     -285.534238
  A          219.097331     -184.787792     -283.876997
  A          218.668150     -183.753696     -282.219756
  A          218.238969     -182.719599     -280.562515
  A          217.809788     -181.685503     -278.905274
  A          217.380606     -180.651406     -277.248033
  A          216.951425     -179.617310     -275.590792
  A          216.522244     -178.583213     -273.933551
  A          216.093063     -177.549117     -272.276309
  A          215.663882     -176.515020     -270.619068
  A          215.234700     -175.480924     -268.961827
  A          214.805519     -174.446828     -267.304586
  AL         214.376338     -173.412731     -265.647345
  AL         213.947157     -172.378635     -263.990104
  AL         213.517976     -171.344538     -262.332863
  AL         213.088794     -170.310442     -260.675622
  AL         212.659613     -169.276345     -259.018381
  AL         212.230432     -168.242249     -257.361139
  AL         211.801251     -167.208153     -255.703898
  AL         211.372070     -166.174056     -254.046657
  AL         210.942888     -165.139960     -252.389416
  AL         210.513707     -164.105863     -250.732175
  AL         210.084526     -163.071767     -249.074934
  AL         209.655345     -162.037670     -247.417693
  AL         209.226163     -161.003574     -245.760452
  AL         208.796982     -159.969478     -244.103211
  AL         208.367801     -158.935381     -242.445970
  AL         207.938620     -157.901285     -240.788728
  AL         207.509439     -156.867188     -239.131487
  AL         207.080257     -155.833092     -237.474246
  AL         206.651076     -154.798995     -235.817005
  AL         206.221895     -153.764899     -234.159764
  AL         205.792714     -152.730803     -232.502523
  AL         205.363533     -151.696706     -230.845282
  AL         204.934351     -150.662610     -229.188041
  AL         204.505170     -149.628513     -227.530800
  AL         204.075989     -148.594417     -225.873559
  AL         203.646808     -147.560320     -224.216317
  AL         203.217627     -146.526224     -222.559076
  AL         202.788445     -145.492128     -220.901835
  AL         202.359264     -144.458031     -219.244594
  AL         201.930083     -143.423935     -217.587353
  AL         201.500902     -142.389838     -215.930112
  AL         201.071721     -141.355742     -214.272871
  AL         200.642539     -140.321645     -212.615630
  AL         200.213358     -139.287549     -210.958389
  AL         199.784177     -138.253453     -209.301148
  AL         199.354996     -137.219356     -207.643906
  AL         198.925815     -136.185260     -205.986665
  AL         198.496633     -135.151163     -204.329424
  AL         198.067452     -134.117067     -202.672183
  AL         197.638271     -133.082970     -201.014942
  AL         197.209090     -132.048874     -199.357701
  AL         196.779909     -131.014778     -197.700460
  AL         196.350727     -129.980681     -196.043219
  AL         195.921546     -128.946585     -194.385978
  AL         195.492365     -127.912488     -192.728737
  AL         195.063184     -126.878392     -191.071495
  AL         194.634003     -125.844295     -189.414254
  AL         194.204821     -124.810199     -187.757013
  AL         193.775640     -123.776103     -186.099772
  AL         193.346459     -122.742006     -184.442531
  A           67.205316       94.981440     -298.636938
  A           65.988343       95.785562     -297.268594
  A           64.771369       96.589684     -295.900251
  A           63.554396       97.393805     -294.531907
  A           62.337423       98.197927     -293.163564
  A           61.120449       99.002049     -291.795220
  A           59.903476       99.806171     -290.426877
  A           58.686503      100.610293     -289.058533
  A           57.469529      101.414414     -287.690190
  A           56.252556      102.218536     -286.321846
  A           55.035583      103.022658     -284.953503
  A           53.818609      103.826780     -283.585159
  A           52.601636      104.630902     -282.216815
  A           51.384662      105.435023     -280.848472
  A           50.167689      106.239145     -279.480128
  A           48.950716      107.043267     -278.111785
  A           47.733742      107.847389     -276.743441
  A           46.516769      108.651511     -275.375098
  A           45.299796      109.455632     -274.006754
  A           44.082822      110.259754     -272.638411
  AL          42.865849      111.063876     -271.270067
  AL          41.648876      111.867998     -269.901724
  AL          40.431902      112.672119     -268.533380
  AL          39.214929      113.476241     -267.165037
  AL          37.997955      114.280363     -265.796693
  AL          36.780982      115.084485     -264.428350
  AL          35.564009      115.888607     -263.060006
  AL          34.347035      116.692728     -261.691663
  AL          33.130062      117.496850     -260.323319
  AL          31.913089      118.300972     -258.954976
  AL          30.696115      119.105094     -257.586632
  AL          29.479142      119.909216     -256.218289
  AL          28.262169      120.713337     -254.849945
  AL          27.045195      121.517459     -253.481602
  AL          25.828222      122.321581     -252.113258
  AL          24.611248      123.125703     -250.744915
  AL          23.394275      123.929825     -249.376571
  AL          22.177302      124.733946     -248.008228
  AL          20.960328      125.538068     -246.639884
  AL          19.743355      126.342190     -245.271541
  AL          18.526382      127.146312     -243.903197
  AL          17.309408      127.950433     -242.534853
  AL          16.092435      128.754555     -241.166510
  AL          14.875462      129.558677     -239.798166
  AL          13.658488      130.362799     -238.429823
  AL          12.441515      131.166921     -237.061479
  AL          11.224541      131.971042     -235.693136
  AL          10.007568      132.775164     -234.324792
  AL           8.790595      133.579286     -232.956449
  AL           7.573621      134.383408     -231.588105
  AL           6.356648      135.187530     -230.219762
  AL           5.139675      135.991651     -228.851418
  AL           3.922701      136.795773     -227.483075
  AL           2.705728      137.599895     -226.114731
  AL           1.488755      138.404017     -224.746388
  AL           0.271781      139.208139     -223.378044
  AL          -0.945192      140.012260     -222.009701
  AL          -2.162165      140.816382     -220.641357
  AL          -3.379139      141.620504     -219.273014
  AL          -4.596112      142.424626     -217.904670
  AL          -5.813086      143.228748     -216.536327
  AL          -7.030059      144.032869     -215.167983
  AL          -8.247032      144.836991     -213.799640
  AL          -9.464006      145.641113     -212.431296
  AL         -10.680979      146.445235     -211.062953
  AL         -11.897952      147.249356     -209.694609
  AL         -13.114926      148.053478     -208.326266
  AL         -14.331899      148.857600     -206.957922
  AL         -15.548872      149.661722     -205.589579
  AL         -16.765846      150.465844     -204.221235
  A          -32.700902      201.072244       20.180536
  A          -33.676155      200.446371       18.550454
  A          -34.651407      199.820499       16.920372
  A          -35.626660      199.194627       15.290291
  A          -36.601913      198.568755       13.660209
  A          -37.577165      197.942882       12.030127
  A          -38.552418      197.317010       10.400046
  A          -39.527671      196.691138        8.769964
  A          -40.502923      196.065266        7.139882
  A          -41.478176      195.439393        5.509801
  A          -42.453429      194.813521        3.879719
  A          -43.428681      194.187649        2.249638
  A          -44.403934      193.561777        0.619556
  A          -45.379187      192.935904       -1.010526
  A          -46.354439      192.310032       -2.640607
  A          -47.329692      191.684160       -4.270689
  A          -48.304945      191.058288       -5.900771
  A          -49.280197      190.432415       -7.530852
  A          -50.255450      189.806543       -9.160934
  A          -51.230703      189.180671      -10.791016
  AL         -52.205956      188.554799      -12.421097
  AL         -53.181208      187.928926      -14.051179
  AL         -54.156461      187.303054      -15.681260
  AL         -55.131714      186.677182      -17.311342
  AL         -56.106966      186.051310      -18.941424
  AL         -57.082219      185.425437      -20.571505
  AL         -58.057472      184.799565      -22.201587
  AL         -59.032724      184.173693      -23.831669
  AL         -60.007977      183.547821      -25.461750
  AL         -60.983230      182.921948      -27.091832
  AL         -61.958482      182.296076      -28.721914
  AL         -62.933735      181.670204      -30.351995
  AL         -63.908988      181.044332      -31.982077
  AL         -64.884240      180.418459      -33.612159
  AL         -65.859493      179.792587      -35.242240
  AL         -66.834746      179.166715      -36.872322
  AL         -67.809998      178.540843      -38.502403
  AL         -68.785251      177.914970      -40.132485
  AL         -69.760504      177.289098      -41.762567
  AL         -70.735756      176.663226      -43.392648
  AL         -71.711009      176.037354      -45.022730
  AL         -72.686262      175.411481      -46.652812
  AL         -73.661514      174.785609      -48.282893
  AL         -74.636767      174.159737      -49.912975
  AL         -75.612020      173.533865      -51.543057
  AL         -76.587272      172.907992      -53.173138
  AL         -77.562525      172.282120      -54.803220
  AL         -78.537778      171.656248      -56.433301
  AL         -79.513030      171.030376      -58.063383
  AL         -80.488283      170.404503      -59.693465
  AL         -81.463536      169.778631      -61.323546
  AL         -82.438788      169.152759      -62.953628
  AL         -83.414041      168.526887      -64.583710
  AL         -84.389294      167.901014      -66.213791
  AL         -85.364546      167.275142      -67.843873
  AL         -86.339799      166.649270      -69.473955
  AL         -87.315052      166.023398      -71.104036
  AL         -88.290304      165.397525      -72.734118
  AL         -89.265557      164.771653      -74.364199
  AL         -90.240810      164.145781      -75.994281
  AL         -91.216062      163.519908      -77.624363
  AL         -92.191315      162.894036      -79.254444
  AL         -93.166568      162.268164      -80.884526
  AL         -94.141820      161.642292      -82.514608
  AL         -95.117073      161.016419      -84.144689
  AL         -96.092326      160.390547      -85.774771
  AL         -97.067578      159.764675      -87.404853
  AL         -98.042831      159.138803      -89.034934
  AL         -99.018084      158.512930      -90.665016
  AL         -99.993336      157.887058      -92.295098
  A         -212.447603      -20.335456      -50.759812
  A         -211.996669      -20.608711      -52.689059
  A         -211.545735      -20.881965      -54.618305
  A         -211.094801      -21.155220      -56.547551
  A         -210.643867      -21.428475      -58.476797
  A         -210.192933      -21.701730      -60.406043
  A         -209.741999      -21.974985      -62.335289
  A         -209.291065      -22.248240      -64.264535
  A         -208.840131      -22.521495      -66.193781
  A         -208.389198      -22.794749      -68.123027
  A         -207.938264      -23.068004      -70.052273
  A         -207.487330      -23.341259      -71.981519
  A         -207.036396      -23.614514      -73.910765
  A         -206.585462      -23.887769      -75.840011
  A         -206.134528      -24.161024      -77.769257
  A         -205.683594      -24.434279      -79.698503
  A         -205.232660      -24.707534      -81.627749
  A         -204.781726      -24.980788      -83.556996
  A         -204.330792      -25.254043      -85.486242
  A         -203.879858      -25.527298      -87.415488
  AL        -203.428924      -25.800553      -89.344734
  AL        -202.977990      -26.073808      -91.273980
  AL        -202.527056      -26.347063      -93.203226
  AL        -202.076123      -26.620318      -95.132472
  AL        -201.625189      -26.893573      -97.061718
  AL        -201.174255      -27.166827      -98.990964
  AL        -200.723321      -27.440082     -100.920210
  AL        -200.272387      -27.713337     -102.849456
  AL        -199.821453      -27.986592     -104.778702
  AL        -199.370519      -28.259847     -106.707948
  AL        -198.919585      -28.533102     -108.637194
  AL        -198.468651      -28.806357     -110.566440
  AL        -198.017717      -29.079611     -112.495686
  AL        -197.566783      -29.352866     -114.424933
  AL        -197.115849      -29.626121     -116.354179
  AL        -196.664915      -29.899376     -118.283425
  AL        -196.213982      -30.172631     -120.212671
  AL        -195.763048      -30.445886     -122.141917
  AL        -195.312114      -30.719141     -124.071163
  AL        -194.861180      -30.992396     -126.000409
  AL        -194.410246      -31.265650     -127.929655
  AL        -193.959312      -31.538905     -129.858901
  AL        -193.508378      -31.812160     -131.788147
  AL        -193.057444      -32.085415     -133.717393
  AL        -192.606510      -32.358670     -135.646639
  AL        -192.155576      -32.631925     -137.575885
  AL        -191.704642      -32.905180     -139.505131
  AL        -191.253708      -33.178435     -141.434377
  AL        -190.802774      -33.451689     -143.363624
  AL        -190.351841      -33.724944     -145.292870
  AL        -189.900907      -33.998199     -147.222116
  AL        -189.449973      -34.271454     -149.151362
  AL        -188.999039      -34.544709     -151.080608
  AL        -188.548105      -34.817964     -153.009854
  AL        -188.097171      -35.091219     -154.939100
  AL        -187.646237      -35.364474     -156.868346
  AL        -187.195303      -35.637728     -158.797592
  AL        -186.744369      -35.910983     -160.726838
  AL        -186.293435      -36.184238     -162.656084
  AL        -185.842501      -36.457493     -164.585330
  AL        -185.391567      -36.730748     -166.514576
  AL        -184.940633      -37.004003     -168.443822
  AL        -184.489700      -37.277258     -170.373068
  AL        -184.038766      -37.550512     -172.302314
  AL        -183.587832      -37.823767     -174.231561
  AL        -183.136898      -38.097022     -176.160807
  AL        -182.685964      -38.370277     -178.090053
  AL        -182.235030      -38.643532     -180.019299
  AL        -181.784096      -38.916787     -181.948545
  AL        -181.333162      -39.190042     -183.877791
  A          -87.542383      131.546688      116.421174
  A          -89.385055      130.846093      116.083942
  A          -91.227728      130.145497      115.746709
  A          -93.070400      129.444902      115.409476
  A          -94.913072      128.744307      115.072244
  A          -96.755744      128.043711      114.735011
  A          -98.598416      127.343116      114.397779
  A         -100.441088      126.642521      114.060546
  A         -102.283760      125.941926      113.723313
  A         -104.126432      125.241330      113.386081
  A         -105.969104      124.540735      113.048848
  A         -107.811776      123.840140      112.711616
  A         -109.654448      123.139544      112.374383
  A         -111.497120      122.438949      112.037150
  A         -113.339793      121.738354      111.699918
  A         -115.182465      121.037758      111.362685
  A         -117.025137      120.337163      111.025453
  A         -118.867809      119.636568      110.688220
  A         -120.710481      118.935973      110.350987
  A         -122.553153      118.235377      110.013755
  AL        -124.395825      117.534782      109.676522
  AL        -126.238497      116.834187      109.339290
  AL        -128.081169      116.133591      109.002057
  AL        -129.923841      115.432996      108.664824
  AL        -131.766513      114.732401      108.327592
  AL        -133.609185      114.031805      107.990359
  AL        -135.451857      113.331210      107.653127
  AL        -137.294530      112.630615      107.315894
  AL        -139.137202      111.930019      106.978661
  AL        -140.979874      111.229424      106.641429
  AL        -142.822546      110.528829      106.304196
  AL        -144.665218      109.828234      105.966964
  AL        -146.507890      109.127638      105.629731
  AL        -148.350562      108.427043      105.292498
  AL        -150.193234      107.726448      104.955266
  AL        -152.035906      107.025852      104.618033
  AL        -153.878578      106.325257      104.280801
  AL        -155.721250      105.624662      103.943568
  AL        -157.563922      104.924066      103.606335
  AL        -159.406595      104.223471      103.269103
  AL        -161.249267      103.522876      102.931870
  AL        -163.091939      102.822281      102.594638
  AL        -164.934611      102.121685      102.257405
  AL        -166.777283      101.421090      101.920172
  AL        -168.619955      100.720495      101.582940
  AL        -170.462627      100.019899      101.245707
  AL        -172.305299       99.319304      100.908475
  AL        -174.147971       98.618709      100.571242
  AL        -175.990643       97.918113      100.234009
  AL        -177.833315       97.217518       99.896777
  AL        -179.675987       96.516923       99.559544
  AL        -181.518659       95.816328       99.222312
  AL        -183.361332       95.115732       98.885079
  AL        -185.204004       94.415137       98.547846
  AL        -187.046676       93.714542       98.210614
  AL        -188.889348       93.013946       97.873381
  AL        -190.732020       92.313351       97.536149
  AL        -192.574692       91.612756       97.198916
  AL        -194.417364       90.912160       96.861683
  AL        -196.260036       90.211565       96.524451
  AL        -198.102708       89.510970       96.187218
  AL        -199.945380       88.810374       95.849986
  AL        -201.788052       88.109779       95.512753
  AL        -203.630724       87.409184       95.175520
  AL        -205.473397       86.708589       94.838288
  AL        -207.316069       86.007993       94.501055
  AL        -209.158741       85.307398       94.163823
  AL        -211.001413       84.606803       93.826590
  AL        -212.844085       83.906207       93.489357
  AL        -214.686757       83.205612       93.152125
  A         -153.209468      260.489468     -100.906881
  A         -151.926423      259.766772     -102.260212
  A         -150.643378      259.044075     -103.613543
  A         -149.360333      258.321378     -104.966874
  A         -148.077288      257.598682     -106.320205
  A         -146.794243      256.875985     -107.673536
  A         -145.511198      256.153288     -109.026867
  A         -144.228153      255.430592     -110.380198
  A         -142.945108      254.707895     -111.733529
  A         -141.662062      253.985198     -113.086860
  A         -140.379017      253.262502     -114.440191
  A         -139.095972      252.539805     -115.793522
  A         -137.812927      251.817108     -117.146853
  A         -136.529882      251.094412     -118.500184
  A         -135.246837      250.371715     -119.853515
  A         -133.963792      249.649018     -121.206846
  A         -132.680747      248.926322     -122.560177
  A         -131.397702      248.203625     -123.913508
  A         -130.114657      247.480928     -125.266839
  A         -128.831611      246.758232     -126.620170
  AL        -127.548566      246.035535     -127.973501
  AL        -126.265521      245.312838     -129.326832
  AL        -124.982476      244.590142     -130.680163
  AL        -123.699431      243.867445     -132.033494
  AL        -122.416386      243.144748     -133.386825
  AL        -121.133341      242.422052     -134.740156
  AL        -119.850296      241.699355     -136.093487
  AL        -118.567251      240.976658     -137.446818
  AL        -117.284206      240.253962     -138.800149
  AL        -116.001160      239.531265     -140.153480
  AL        -114.718115      238.808568     -141.506811
  AL        -113.435070      238.085872     -142.860142
  AL        -112.152025      237.363175     -144.213473
  AL        -110.868980      236.640478     -145.566804
  AL        -109.585935      235.917782     -146.920135
  AL        -108.302890      235.195085     -148.273466
  AL        -107.019845      234.472388     -149.626797
  AL        -105.736800      233.749692     -150.980128
  AL        -104.453754      233.026995     -152.333459
  AL        -103.170709      232.304298     -153.686790
  AL        -101.887664      231.581602     -155.040121
  AL        -100.604619      230.858905     -156.393452
  AL         -99.321574      230.136208     -157.746783
  AL         -98.038529      229.413512     -159.100114
  AL         -96.755484      228.690815     -160.453445
  AL         -95.472439      227.968118     -161.806776
  AL         -94.189394      227.245422     -163.160107
  AL         -92.906349      226.522725     -164.513438
  AL         -91.623303      225.800028     -165.866769
  AL         -90.340258      225.077332     -167.220100
  AL         -89.057213      224.354635     -168.573431
  AL         -87.774168      223.631938     -169.926762
  AL         -86.491123      222.909242     -171.280093
  AL         -85.208078      222.186545     -172.633424
  AL         -83.925033      221.463848     -173.986755
  AL         -82.641988      220.741152     -175.340086
  AL         -81.358943      220.018455     -176.693417
  AL         -80.075897      219.295758     -178.046748
  AL         -78.792852      218.573062     -179.400079
  AL         -77.509807      217.850365     -180.753410
  AL         -76.226762      217.127668     -182.106741
  AL         -74.943717      216.404972     -183.460072
  AL         -73.660672      215.682275     -184.813403
  AL         -72.377627      214.959578     -186.166734
  AL         -71.094582      214.236882     -187.520065
  AL         -69.811537      213.514185     -188.873396
  AL         -68.528492      212.791488     -190.226727
  AL         -67.245446      212.068792     -191.580058
  AL         -65.962401      211.346095     -192.933389
  AL         -64.679356      210.623398     -194.286720
  A          242.228757      278.787831     -225.588126
  A          241.740760      276.860853     -225.808608
  A          241.252763      274.933874     -226.029089
  A          240.764765      273.006896     -226.249571
  A          240.276768      271.079917     -226.470052
  A          239.788771      269.152938     -226.690533
  A          239.300774      267.225960     -226.911015
  A          238.812776      265.298981     -227.131496
  A          238.324779      263.372002     -227.351978
  A          237.836782      261.445024     -227.572459
  A          237.348785      259.518045     -227.792941
  A          236.860787      257.591066     -228.013422
  A          236.372790      255.664088     -228.233904
  A          235.884793      253.737109     -228.454385
  A          235.396796      251.810131     -228.674866
  A          234.908799      249.883152     -228.895348
  A          234.420801      247.956173     -229.115829
  A          233.932804      246.029195     -229.336311
  A          233.444807      244.102216     -229.556792
  A          232.956810      242.175237     -229.777274
  AL         232.468812      240.248259     -229.997755
  AL         231.980815      238.321280     -230.218236
  AL         231.492818      236.394302     -230.438718
  AL         231.004821      234.467323     -230.659199
  AL         230.516824      232.540344     -230.879681
  AL         230.028826      230.613366     -231.100162
  AL         229.540829      228.686387     -231.320644
  AL         229.052832      226.759408     -231.541125
  AL         228.564835      224.832430     -231.761607
  AL         228.076837      222.905451     -231.982088
  AL         227.588840      220.978473     -232.202569
  AL         227.100843      219.051494     -232.423051
  AL         226.612846      217.124515     -232.643532
  AL         226.124848      215.197537     -232.864014
  AL         225.636851      213.270558     -233.084495
  AL         225.148854      211.343579     -233.304977
  AL         224.660857      209.416601     -233.525458
  AL         224.172860      207.489622     -233.745940
  AL         223.684862      205.562643     -233.966421
  AL         223.196865      203.635665     -234.186902
  AL         222.708868      201.708686     -234.407384
  AL         222.220871      199.781708     -234.627865
  AL         221.732873      197.854729     -234.848347
  AL         221.244876      195.927750     -235.068828
  AL         220.756879      194.000772     -235.289310
  AL         220.268882      192.073793     -235.509791
  AL         219.780884      190.146814     -235.730272
  AL         219.292887      188.219836     -235.950754
  AL         218.804890      186.292857     -236.171235
  AL         218.316893      184.365879     -236.391717
  AL         217.828896      182.438900     -236.612198
  AL         217.340898      180.511921     -236.832680
  AL         216.852901      178.584943     -237.053161
  AL         216.364904      176.657964     -237.273643
  AL         215.876907      174.730985     -237.494124
  AL         215.388909      172.804007     -237.714605
  AL         214.900912      170.877028     -237.935087
  AL         214.412915      168.950050     -238.155568
  AL         213.924918      167.023071     -238.376050
  AL         213.436921      165.096092     -238.596531
  AL         212.948923      163.169114     -238.817013
  AL         212.460926      161.242135     -239.037494
  AL         211.972929      159.315156     -239.257976
  AL         211.484932      157.388178     -239.478457
  AL         210.996934      155.461199     -239.698938
  AL         210.508937      153.534220     -239.919420
  AL         210.020940      151.607242     -240.139901
  AL         209.532943      149.680263     -240.360383
  AL         209.044945      147.753285     -240.580864
  AL         208.556948      145.826306     -240.801346
  A         -234.136616      298.437781       55.231029
  A         -235.089742      296.782025       54.639400
  A         -236.042868      295.126270       54.047771
  A         -236.995994      293.470514       53.456142
  A         -237.949120      291.814759       52.864513
  A         -238.902246      290.159004       52.272884
  A         -239.855372      288.503248       51.681256
  A         -240.808498      286.847493       51.089627
  A         -241.761625      285.191737       50.497998
  A         -242.714751      283.535982       49.906369
  A         -243.667877      281.880226       49.314740
  A         -244.621003      280.224471       48.723111
  A         -245.574129      278.568716       48.131482
  A         -246.527255      276.912960       47.539853
  A         -247.480381      275.257205       46.948224
  A         -248.433507      273.601449       46.356595
  A         -249.386633      271.945694       45.764966
  A         -250.339759      270.289938       45.173337
  A         -251.292885      268.634183       44.581709
  A         -252.246011      266.978428       43.990080
  AL        -253.199137      265.322672       43.398451
  AL        -254.152263      263.666917       42.806822
  AL        -255.105389      262.011161       42.215193
  AL        -256.058515      260.355406       41.623564
  AL        -257.011641      258.699650       41.031935
  AL        -257.964767      257.043895       40.440306
  AL        -258.917893      255.388140       39.848677
  AL        -259.871019      253.732384       39.257048
  AL        -260.824145      252.076629       38.665419
  AL        -261.777271      250.420873       38.073790
  AL        -262.730397      248.765118       37.482162
  AL        -263.683523      247.109362       36.890533
  AL        -264.636649      245.453607       36.298904
  AL        -265.589775      243.797852       35.707275
  AL        -266.542901      242.142096       35.115646
  AL        -267.496027      240.486341       34.524017
  AL        -268.449153      238.830585       33.932388
  AL        -269.402279      237.174830       33.340759
  AL        -270.355405      235.519075       32.749130
  AL        -271.308531      233.863319       32.157501
  AL        -272.261657      232.207564       31.565872
  AL        -273.214783      230.551808       30.974243
  AL        -274.167909      228.896053       30.382615
  AL        -275.121035      227.240297       29.790986
  AL        -276.074161      225.584542       29.199357
  AL        -277.027287      223.928787       28.607728
  AL        -277.980413      222.273031       28.016099
  AL        -278.933539      220.617276       27.424470
  AL        -279.886665      218.961520       26.832841
  AL        -280.839791      217.305765       26.241212
  AL        -281.792917      215.650009       25.649583
  AL        -282.746043      213.994254       25.057954
  AL        -283.699169      212.338499       24.466325
  AL        -284.652295      210.682743       23.874696
  AL        -285.605421      209.026988       23.283068
  AL        -286.558547      207.371232       22.691439
  AL        -287.511673      205.715477       22.099810
  AL        -288.464799      204.059721       21.508181
  AL        -289.417925      202.403966       20.916552
  AL        -290.371051      200.748211       20.324923
  AL        -291.324177      199.092455       19.733294
  AL        -292.277303      197.436700       19.141665
  AL        -293.230429      195.780944       18.550036
  AL        -294.183555      194.125189       17.958407
  AL        -295.136681      192.469433       17.366778
  AL        -296.089807      190.813678       16.775149
  AL        -297.042933      189.157923       16.183521
  AL        -297.996059      187.502167       15.591892
  AL        -298.949185      185.846412       15.000263
  AL        -299.902311      184.190656       14.408634
  A          247.426396     -175.227132      101.213236
  A          245.821065     -174.038144      101.117225
  A          244.215733     -172.849155      101.021213
  A          242.610402     -171.660167      100.925202
  A          241.005071     -170.471179      100.829190
  A          239.399739     -169.282191      100.733179
  A          237.794408     -168.093202      100.637168
  A          236.189077     -166.904214      100.541156
  A          234.583745     -165.715226      100.445145
  A          232.978414     -164.526237      100.349133
  A          231.373083     -163.337249      100.253122
  A          229.767751     -162.148261      100.157110
  A          228.162420     -160.959273      100.061099
  A          226.557089     -159.770284       99.965088
  A          224.951757     -158.581296       99.869076
  A          223.346426     -157.392308       99.773065
  A          221.741095     -156.203320       99.677053
  A          220.135763     -155.014331       99.581042
  A          218.530432     -153.825343       99.485030
  A          216.925101     -152.636355       99.389019
  AL         215.319769     -151.447366       99.293008
  AL         213.714438     -150.258378       99.196996
  AL         212.109107     -149.069390       99.100985
  AL         210.503775     -147.880402       99.004973
  AL         208.898444     -146.691413       98.908962
  AL         207.293113     -145.502425       98.812950
  AL         205.687781     -144.313437       98.716939
  AL         204.082450     -143.124449       98.620928
  AL         202.477119     -141.935460       98.524916
  AL         200.871787     -140.746472       98.428905
  AL         199.266456     -139.557484       98.332893
  AL         197.661125     -138.368496       98.236882
  AL         196.055793     -137.179507       98.140870
  AL         194.450462     -135.990519       98.044859
  AL         192.845131     -134.801531       97.948848
  AL         191.239799     -133.612542       97.852836
  AL         189.634468     -132.423554       97.756825
  AL         188.029137     -131.234566       97.660813
  AL         186.423805     -130.045578       97.564802
  AL         184.818474     -128.856589       97.468790
  AL         183.213143     -127.667601       97.372779
  AL         181.607811     -126.478613       97.276768
  AL         180.002480     -125.289625       97.180756
  AL         178.397149     -124.100636       97.084745
  AL         176.791817     -122.911648       96.988733
  AL         175.186486     -121.722660       96.892722
  AL         173.581155     -120.533671       96.796710
  AL         171.975823     -119.344683       96.700699
  AL         170.370492     -118.155695       96.604688
  AL         168.765161     -116.966707       96.508676
  AL         167.159829     -115.777718       96.412665
  AL         165.554498     -114.588730       96.316653
  AL         163.949167     -113.399742       96.220642
  AL         162.343835     -112.210754       96.124630
  AL         160.738504     -111.021765       96.028619
  AL         159.133173     -109.832777       95.932608
  AL         157.527841     -108.643789       95.836596
  AL         155.922510     -107.454801       95.740585
  AL         154.317179     -106.265812       95.644573
  AL         152.711847     -105.076824       95.548562
  AL         151.106516     -103.887836       95.452550
  AL         149.501185     -102.698847       95.356539
  AL         147.895853     -101.509859       95.260528
  AL         146.290522     -100.320871       95.164516
  AL         144.685191      -99.131883       95.068505
  AL         143.079859      -97.942894       94.972493
  AL         141.474528      -96.753906       94.876482
  AL         139.869197      -95.564918       94.780470
  AL         138.263865      -94.375930       94.684459
  AL         136.658534      -93.186941       94.588448
  A          135.268881      147.146083      -74.225391
  A          136.716762      146.920905      -72.864166
  A          138.164643      146.695726      -71.502941
  A          139.612524      146.470548      -70.141715
  A          141.060406      146.245370      -68.780490
  A          142.508287      146.020192      -67.419265
  A          143.956168      145.795013      -66.058039
  A          145.404050      145.569835      -64.696814
  A          146.851931      145.344657      -63.335589
  A          148.299812      145.119478      -61.974363
  A          149.747694      144.894300      -60.613138
  A          151.195575      144.669122      -59.251913
  A          152.643456      144.443943      -57.890687
  A          154.091337      144.218765      -56.529462
  A          155.539219      143.993587      -55.168236
  A          156.987100      143.768408      -53.807011
  A          158.434981      143.543230      -52.445786
  A          159.882863      143.318052      -51.084560
  A          161.330744      143.092873      -49.723335
  A          162.778625      142.867695      -48.362110
  AL         164.226507      142.642517      -47.000884
  AL         165.674388      142.417338      -45.639659
  AL         167.122269      142.192160      -44.278434
  AL         168.570150      141.966982      -42.917208
  AL         170.018032      141.741804      -41.555983
  AL         171.465913      141.516625      -40.194758
  AL         172.913794      141.291447      -38.833532
  AL         174.361676      141.066269      -37.472307
  AL         175.809557      140.841090      -36.111082
  AL         177.257438      140.615912      -34.749856
  AL         178.705320      140.390734      -33.388631
  AL         180.153201      140.165555      -32.027405
  AL         181.601082      139.940377      -30.666180
  AL         183.048964      139.715199      -29.304955
  AL         184.496845      139.490020      -27.943729
  AL         185.944726      139.264842      -26.582504
  AL         187.392607      139.039664      -25.221279
  AL         188.840489      138.814485      -23.860053
  AL         190.288370      138.589307      -22.498828
  AL         191.736251      138.364129      -21.137603
  AL         193.184133      138.138950      -19.776377
  AL         194.632014      137.913772      -18.415152
  AL         196.079895      137.688594      -17.053927
  AL         197.527777      137.463416      -15.692701
  AL         198.975658      137.238237      -14.331476
  AL         200.423539      137.013059      -12.970250
  AL         201.871420      136.787881      -11.609025
  AL         203.319302      136.562702      -10.247800
  AL         204.767183      136.337524       -8.886574
  AL         206.215064      136.112346       -7.525349
  AL         207.662946      135.887167       -6.164124
  AL         209.110827      135.661989       -4.802898
  AL         210.558708      135.436811       -3.441673
  AL         212.006590      135.211632       -2.080448
  AL         213.454471      134.986454       -0.719222
  AL         214.902352      134.761276        0.642003
  AL         216.350233      134.536097        2.003228
  AL         217.798115      134.310919        3.364454
  AL         219.245996      134.085741        4.725679
  AL         220.693877      133.860562        6.086904
  AL         222.141759      133.635384        7.448130
  AL         223.589640      133.410206        8.809355
  AL         225.037521      133.185028       10.170581
  AL         226.485403      132.959849       11.531806
  AL         227.933284      132.734671       12.893031
  AL         229.381165      132.509493       14.254257
  AL         230.829046      132.284314       15.615482
  AL         232.276928      132.059136       16.976707
  AL         233.724809      131.833958       18.337933
  AL         235.172690      131.608779       19.699158
  A          -36.462705     -215.696913     -137.164054
  A          -36.787559     -215.293782     -139.095881
  A          -37.112414     -214.890651     -141.027708
  A          -37.437268     -214.487520     -142.959534
  A          -37.762123     -214.084389     -144.891361
  A          -38.086977     -213.681259     -146.823188
  A          -38.411831     -213.278128     -148.755015
  A          -38.736686     -212.874997     -150.686842
  A          -39.061540     -212.471866     -152.618669
  A          -39.386395     -212.068735     -154.550496
  A          -39.711249     -211.665604     -156.482323
  A          -40.036104     -211.262474     -158.414150
  A          -40.360958     -210.859343     -160.345976
  A          -40.685812     -210.456212     -162.277803
  A          -41.010667     -210.053081     -164.209630
  A          -41.335521     -209.649950     -166.141457
  A          -41.660376     -209.246819     -168.073284
  A          -41.985230     -208.843689     -170.005111
  A          -42.310084     -208.440558     -171.936938
  A          -42.634939     -208.037427     -173.868765
  AL         -42.959793     -207.634296     -175.800592
  AL         -43.284648     -207.231165     -177.732419
  AL         -43.609502     -206.828034     -179.664245
  AL         -43.934356     -206.424904     -181.596072
  AL         -44.259211     -206.021773     -183.527899
  AL         -44.584065     -205.618642     -185.459726
  AL         -44.908920     -205.215511     -187.391553
  AL         -45.233774     -204.812380     -189.323380
  AL         -45.558628     -204.409249     -191.255207
  AL         -45.883483     -204.006119     -193.187034
  AL         -46.208337     -203.602988     -195.118861
  AL         -46.533192     -203.199857     -197.050687
  AL         -46.858046     -202.796726     -198.982514
  AL         -47.182900     -202.393595     -200.914341
  AL         -47.507755     -201.990465     -202.846168
  AL         -47.832609     -201.587334     -204.777995
  AL         -48.157464     -201.184203     -206.709822
  AL         -48.482318     -200.781072     -208.641649
  AL         -48.807173     -200.377941     -210.573476
  AL         -49.132027     -199.974810     -212.505303
  AL         -49.456881     -199.571680     -214.437130
  AL         -49.781736     -199.168549     -216.368956
  AL         -50.106590     -198.765418     -218.300783
  AL         -50.431445     -198.362287     -220.232610
  AL         -50.756299     -197.959156     -222.164437
  AL         -51.081153     -197.556025     -224.096264
  AL         -51.406008     -197.152895     -226.028091
  AL         -51.730862     -196.749764     -227.959918
  AL         -52.055717     -196.346633     -229.891745
  AL         -52.380571     -195.943502     -231.823572
  AL         -52.705425     -195.540371     -233.755398
  AL         -53.030280     -195.137240     -235.687225
  AL         -53.355134     -194.734110     -237.619052
  AL         -53.679989     -194.330979     -239.550879
  AL         -54.004843     -193.927848     -241.482706
  AL         -54.329697     -193.524717     -243.414533
  AL         -54.654552     -193.121586     -245.346360
  AL         -54.979406     -192.718455     -247.278187
  AL         -55.304261     -192.315325     -249.210014
  AL         -55.629115     -191.912194     -251.141840
  AL         -55.953970     -191.509063     -253.073667
  AL         -56.278824     -191.105932     -255.005494
  AL         -56.603678     -190.702801     -256.937321
  AL         -56.928533     -190.299671     -258.869148
  AL         -57.253387     -189.896540     -260.800975
  AL         -57.578242     -189.493409     -262.732802
  AL         -57.903096     -189.090278     -264.664629
  AL         -58.227950     -188.687147     -266.596456
  AL         -58.552805     -188.284016     -268.528283
  AL         -58.877659     -187.880886     -270.460109
  A         -270.294141     -271.186035      -18.897604
  A         -268.406077     -270.549160      -18.725542
  A         -266.518013     -269.912285      -18.553481
  A         -264.629949     -269.275410      -18.381419
  A         -262.741885     -268.638536      -18.209358
  A         -260.853822     -268.001661      -18.037296
  A         -258.965758     -267.364786      -17.865234
  A         -257.077694     -266.727911      -17.693173
  A         -255.189630     -266.091036      -17.521111
  A         -253.301566     -265.454161      -17.349049
  A         -251.413502     -264.817286      -17.176988
  A         -249.525438     -264.180411      -17.004926
  A         -247.637375     -263.543536      -16.832865
  A         -245.749311     -262.906661      -16.660803
  A         -243.861247     -262.269786      -16.488741
  A         -241.973183     -261.632911      -16.316680
  A         -240.085119     -260.996036      -16.144618
  A         -238.197055     -260.359161      -15.972557
  A         -236.308991     -259.722286      -15.800495
  A         -234.420928     -259.085412      -15.628433
  AL        -232.532864     -258.448537      -15.456372
  AL        -230.644800     -257.811662      -15.284310
  AL        -228.756736     -257.174787      -15.112249
  AL        -226.868672     -256.537912      -14.940187
  AL        -224.980608     -255.901037      -14.768125
  AL        -223.092544     -255.264162      -14.596064
  AL        -221.204481     -254.627287      -14.424002
  AL        -219.316417     -253.990412      -14.251940
  AL        -217.428353     -253.353537      -14.079879
  AL        -215.540289     -252.716662      -13.907817
  AL        -213.652225     -252.079787      -13.735756
  AL        -211.764161     -251.442912      -13.563694
  AL        -209.876097     -250.806037      -13.391632
  AL        -207.988034     -250.169162      -13.219571
  AL        -206.099970     -249.532287      -13.047509
  AL        -204.211906     -248.895413      -12.875448
  AL        -202.323842     -248.258538      -12.703386
  AL        -200.435778     -247.621663      -12.531324
  AL        -198.547714     -246.984788      -12.359263
  AL        -196.659650     -246.347913      -12.187201
  AL        -194.771587     -245.711038      -12.015140
  AL        -192.883523     -245.074163      -11.843078
  AL        -190.995459     -244.437288      -11.671016
  AL        -189.107395     -243.800413      -11.498955
  AL        -187.219331     -243.163538      -11.326893
  AL        -185.331267     -242.526663      -11.154831
  AL        -183.443203     -241.889788      -10.982770
  AL        -181.555140     -241.252913      -10.810708
  AL        -179.667076     -240.616038      -10.638647
  AL        -177.779012     -239.979163      -10.466585
  AL        -175.890948     -239.342289      -10.294523
  AL        -174.002884     -238.705414      -10.122462
  AL        -172.114820     -238.068539       -9.950400
  AL        -170.226757     -237.431664       -9.778339
  AL        -168.338693     -236.794789       -9.606277
  AL        -166.450629     -236.157914       -9.434215
  AL        -164.562565     -235.521039       -9.262154
  AL        -162.674501     -234.884164       -9.090092
  AL        -160.786437     -234.247289       -8.918031
  AL        -158.898373     -233.610414       -8.745969
  AL        -157.010310     -232.973539       -8.573907
  AL        -155.122246     -232.336664       -8.401846
  AL        -153.234182     -231.699789       -8.229784
  AL        -151.346118     -231.062914       -8.057723
  AL        -149.458054     -230.426039       -7.885661
  AL        -147.569990     -229.789164       -7.713599
  AL        -145.681926     -229.152290       -7.541538
  AL        -143.793863     -228.515415       -7.369476
  AL        -141.905799     -227.878540       -7.197414
  AL        -140.017735     -227.241665       -7.025353
  A          130.466709     -250.146935     -299.446480
  A          129.234342     -249.624217     -297.960533
  A          128.001975     -249.101498     -296.474586
  A          126.769609     -248.578780     -294.988639
  A          125.537242     -248.056061     -293.502693
  A          124.304875     -247.533343     -292.016746
  A          123.072508     -247.010625     -290.530799
  A          121.840142     -246.487906     -289.044852
  A          120.607775     -245.965188     -287.558906
  A          119.375408     -245.442469     -286.072959
  A          118.143041     -244.919751     -284.587012
  A          116.910675     -244.397033     -283.101065
  A          115.678308     -243.874314     -281.615119
  A          114.445941     -243.351596     -280.129172
  A          113.213575     -242.828877     -278.643225
  A          111.981208     -242.306159     -277.157279
  A          110.748841     -241.783440     -275.671332
  A          109.516474     -241.260722     -274.185385
  A          108.284108     -240.738004     -272.699438
  A          107.051741     -240.215285     -271.213492
  AL         105.819374     -239.692567     -269.727545
  AL         104.587007     -239.169848     -268.241598
  AL         103.354641     -238.647130     -266.755651
  AL         102.122274     -238.124411     -265.269705
  AL         100.889907     -237.601693     -263.783758
  AL          99.657541     -237.078975     -262.297811
  AL          98.425174     -236.556256     -260.811864
  AL          97.192807     -236.033538     -259.325918
  AL          95.960440     -235.510819     -257.839971
  AL          94.728074     -234.988101     -256.354024
  AL          93.495707     -234.465383     -254.868077
  AL          92.263340     -233.942664     -253.382131
  AL          91.030973     -233.419946     -251.896184
  AL          89.798607     -232.897227     -250.410237
  AL          88.566240     -232.374509     -248.924291
  AL          87.333873     -231.851790     -247.438344
  AL          86.101506     -231.329072     -245.952397
  AL          84.869140     -230.806354     -244.466450
  AL          83.636773     -230.283635     -242.980504
  AL          82.404406     -229.760917     -241.494557
  AL          81.172040     -229.238198     -240.008610
  AL          79.939673     -228.715480     -238.522663
  AL          78.707306     -228.192761     -237.036717
  AL          77.474939     -227.670043     -235.550770
  AL          76.242573     -227.147325     -234.064823
  AL          75.010206     -226.624606     -232.578876
  AL          73.777839     -226.101888     -231.092930
  AL          72.545472     -225.579169     -229.606983
  AL          71.313106     -225.056451     -228.121036
  AL          70.080739     -224.533733     -226.635089
  AL          68.848372     -224.011014     -225.149143
  AL          67.616006     -223.488296     -223.663196
  AL          66.383639     -222.965577     -222.177249
  AL          65.151272     -222.442859     -220.691303
  AL          63.918905     -221.920140     -219.205356
  AL          62.686539     -221.397422     -217.719409
  AL          61.454172     -220.874704     -216.233462
  AL          60.221805     -220.351985     -214.747516
  AL          58.989438     -219.829267     -213.261569
  AL          57.757072     -219.306548     -211.775622
  AL          56.524705     -218.783830     -210.289675
  AL          55.292338     -218.261111     -208.803729
  AL          54.059972     -217.738393     -207.317782
  AL          52.827605     -217.215675     -205.831835
  AL          51.595238     -216.692956     -204.345888
  AL          50.362871     -216.170238     -202.859942
  AL          49.130505     -215.647519     -201.373995
  AL          47.898138     -215.124801     -199.888048
  AL          46.665771     -214.602083     -198.402102
  AL          45.433404     -214.079364     -196.916155
  A          230.109421     -156.998528     -138.505246
  A          229.451388     -155.112847     -138.611084
  A          228.793355     -153.227167     -138.716922
  A          228.135321     -151.341487     -138.822760
  A          227.477288     -149.455806     -138.928597
  A          226.819255     -147.570126     -139.034435
  A          226.161221     -145.684445     -139.140273
  A          225.503188     -143.798765     -139.246111
  A          224.845155     -141.913085     -139.351949
  A          224.187121     -140.027404     -139.457787
  A          223.529088     -138.141724     -139.563625
  A          222.871054     -136.256044     -139.669463
  A          222.213021     -134.370363     -139.775301
  A          221.554988     -132.484683     -139.881139
  A          220.896954     -130.599003     -139.986977
  A          220.238921     -128.713322     -140.092815
  A          219.580888     -126.827642     -140.198652
  A          218.922854     -124.941961     -140.304490
  A          218.264821     -123.056281     -140.410328
  A          217.606788     -121.170601     -140.516166
  AL         216.948754     -119.284920     -140.622004
  AL         216.290721     -117.399240     -140.727842
  AL         215.632687     -115.513560     -140.833680
  AL         214.974654     -113.627879     -140.939518
  AL         214.316621     -111.742199     -141.045356
  AL         213.658587     -109.856519     -141.151194
  AL         213.000554     -107.970838     -141.257032
  AL         212.342521     -106.085158     -141.362869
  AL         211.684487     -104.199477     -141.468707
  AL         211.026454     -102.313797     -141.574545
  AL         210.368420     -100.428117     -141.680383
  AL         209.710387      -98.542436     -141.786221
  AL         209.052354      -96.656756     -141.892059
  AL         208.394320      -94.771076     -141.997897
  AL         207.736287      -92.885395     -142.103735
  AL         207.078254      -90.999715     -142.209573
  AL         206.420220      -89.114035     -142.315411
  AL         205.762187      -87.228354     -142.421249
  AL         205.104154      -85.342674     -142.527087
  AL         204.446120      -83.456994     -142.632924
  AL         203.788087      -81.571313     -142.738762
  AL         203.130053      -79.685633     -142.844600
  AL         202.472020      -77.799952     -142.950438
  AL         201.813987      -75.914272     -143.056276
  AL         201.155953      -74.028592     -143.162114
  AL         200.497920      -72.142911     -143.267952
  AL         199.839887      -70.257231     -143.373790
  AL         199.181853      -68.371551     -143.479628
  AL         198.523820      -66.485870     -143.585466
  AL         197.865786      -64.600190     -143.691304
  AL         197.207753      -62.714510     -143.797141
  AL         196.549720      -60.828829     -143.902979
  AL         195.891686      -58.943149     -144.008817
  AL         195.233653      -57.057468     -144.114655
  AL         194.575620      -55.171788     -144.220493
  AL         193.917586      -53.286108     -144.326331
  AL         193.259553      -51.400427     -144.432169
  AL         192.601520      -49.514747     -144.538007
  AL         191.943486      -47.629067     -144.643845
  AL         191.285453      -45.743386     -144.749683
  AL         190.627419      -43.857706     -144.855521
  AL         189.969386      -41.972026     -144.961359
  AL         189.311353      -40.086345     -145.067196
  AL         188.653319      -38.200665     -145.173034
  AL         187.995286      -36.314985     -145.278872
  AL         187.337253      -34.429304     -145.384710
  AL         186.679219      -32.543624     -145.490548
  AL         186.021186      -30.657943     -145.596386
  AL         185.363153      -28.772263     -145.702224
  AL         184.705119      -26.886583     -145.808062
  A           84.184710     -160.580763      246.331288
  A           82.837965     -161.889354      245.642907
  A           81.491221     -163.197945      244.954526
  A           80.144476     -164.506536      244.266145
  A           78.797731     -165.815127      243.577764
  A           77.450987     -167.123718      242.889383
  A           76.104242     -168.432309      242.201002
  A           74.757497     -169.740900      241.512621
  A           73.410753     -171.049491      240.824240
  A           72.064008     -172.358082      240.135859
  A           70.717264     -173.666673      239.447478
  A           69.370519     -174.975264      238.759097
  A           68.023774     -176.283855      238.070716
  A           66.677030     -177.592446      237.382335
  A           65.330285     -178.901037      236.693954
  A           63.983540     -180.209628      236.005573
  A           62.636796     -181.518219      235.317192
  A           61.290051     -182.826810      234.628811
  A           59.943306     -184.135401      233.940430
  A           58.596562     -185.443992      233.252049
  AL          57.249817     -186.752583      232.563667
  AL          55.903073     -188.061174      231.875286
  AL          54.556328     -189.369765      231.186905
  AL          53.209583     -190.678356      230.498524
  AL          51.862839     -191.986947      229.810143
  AL          50.516094     -193.295538      229.121762
  AL          49.169349     -194.604129      228.433381
  AL          47.822605     -195.912720      227.745000
  AL          46.475860     -197.221312      227.056619
  AL          45.129115     -198.529903      226.368238
  AL          43.782371     -199.838494      225.679857
  AL          42.435626     -201.147085      224.991476
  AL          41.088882     -202.455676      224.303095
  AL          39.742137     -203.764267      223.614714
  AL          38.395392     -205.072858      222.926333
  AL          37.048648     -206.381449      222.237952
  AL          35.701903     -207.690040      221.549571
  AL          34.355158     -208.998631      220.861190
  AL          33.008414     -210.307222      220.172809
  AL          31.661669     -211.615813      219.484428
  AL          30.314925     -212.924404      218.796047
  AL          28.968180     -214.232995      218.107666
  AL          27.621435     -215.541586      217.419285
  AL          26.274691     -216.850177      216.730904
  AL          24.927946     -218.158768      216.042523
  AL          23.581201     -219.467359      215.354142
  AL          22.234457     -220.775950      214.665761
  AL          20.887712     -222.084541      213.977380
  AL          19.540967     -223.393132      213.288999
  AL          18.194223     -224.701723      212.600618
  AL          16.847478     -226.010314      211.912237
  AL          15.500734     -227.318905      211.223856
  AL          14.153989     -228.627496      210.535475
  AL          12.807244     -229.936087      209.847094
  AL          11.460500     -231.244678      209.158713
  AL          10.113755     -232.553269      208.470332
  AL           8.767010     -233.861860      207.781951
  AL           7.420266     -235.170451      207.093570
  AL           6.073521     -236.479042      206.405189
  AL           4.726777     -237.787634      205.716808
  AL           3.380032     -239.096225      205.028427
  AL           2.033287     -240.404816      204.340046
  AL           0.686543     -241.713407      203.651665
  AL          -0.660202     -243.021998      202.963284
  AL          -2.006947     -244.330589      202.274903
  AL          -3.353691     -245.639180      201.586522
  AL          -4.700436     -246.947771      200.898141
  AL          -6.047181     -248.256362      200.209760
  AL          -7.393925     -249.564953      199.521379
  AL          -8.740670     -250.873544      198.832998
  A          120.849437       78.687820     -143.590129
  A          119.498594       77.948306     -142.314063
  A          118.147752       77.208792     -141.037997
  A          116.796910       76.469277     -139.761931
  A          115.446068       75.729763     -138.485865
  A          114.095226       74.990249     -137.209799
  A          112.744384       74.250735     -135.933733
  A          111.393541       73.511220     -134.657668
  A          110.042699       72.771706     -133.381602
  A          108.691857       72.032192     -132.105536
  A          107.341015       71.292677     -130.829470
  A          105.990173       70.553163     -129.553404
  A          104.639331       69.813649     -128.277338
  A          103.288488       69.074135     -127.001272
  A          101.937646       68.334620     -125.725207
  A          100.586804       67.595106     -124.449141
  A           99.235962       66.855592     -123.173075
  A           97.885120       66.116078     -121.897009
  A           96.534278       65.376563     -120.620943
  A           95.183435       64.637049     -119.344877
  AL          93.832593       63.897535     -118.068811
  AL          92.481751       63.158020     -116.792746
  AL          91.130909       62.418506     -115.516680
  AL          89.780067       61.678992     -114.240614
  AL          88.429225       60.939478     -112.964548
  AL          87.078382       60.199963     -111.688482
  AL          85.727540       59.460449     -110.412416
  AL          84.376698       58.720935     -109.136350
  AL          83.025856       57.981421     -107.860285
  AL          81.675014       57.241906     -106.584219
  AL          80.324172       56.502392     -105.308153
  AL          78.973329       55.762878     -104.032087
  AL          77.622487       55.023364     -102.756021
  AL          76.271645       54.283849     -101.479955
  AL          74.920803       53.544335     -100.203889
  AL          73.569961       52.804821      -98.927824
  AL          72.219119       52.065306      -97.651758
  AL          70.868276       51.325792      -96.375692
  AL          69.517434       50.586278      -95.099626
  AL          68.166592       49.846764      -93.823560
  AL          66.815750       49.107249      -92.547494
  AL          65.464908       48.367735      -91.271428
  AL          64.114066       47.628221      -89.995363
  AL          62.763223       46.888707      -88.719297
  AL          61.412381       46.149192      -87.443231
  AL          60.061539       45.409678      -86.167165
  AL          58.710697       44.670164      -84.891099
  AL          57.359855       43.930649      -83.615033
  AL          56.009013       43.191135      -82.338967
  AL          54.658170       42.451621      -81.062902
  AL          53.307328       41.712107      -79.786836
  AL          51.956486       40.972592      -78.510770
  AL          50.605644       40.233078      -77.234704
  AL          49.254802       39.493564      -75.958638
  AL          47.903960       38.754050      -74.682572
  AL          46.553117       38.014535      -73.406506
  AL          45.202275       37.275021      -72.130440
  AL          43.851433       36.535507      -70.854375
  AL          42.500591       35.795992      -69.578309
  AL          41.149749       35.056478      -68.302243
  AL          39.798906       34.316964      -67.026177
  AL          38.448064       33.577450      -65.750111
  AL          37.097222       32.837935      -64.474045
  AL          35.746380       32.098421      -63.197979
  AL          34.395538       31.358907      -61.921914
  AL          33.044696       30.619393      -60.645848
  AL          31.693853       29.879878      -59.369782
  AL          30.343011       29.140364      -58.093716
  AL          28.992169       28.400850      -56.817650
  AL          27.641327       27.661335      -55.541584
  A          -44.979141      188.993214      -94.360074
  A          -45.778901      187.169771      -94.171819
  A          -46.578661      185.346328      -93.983565
  A          -47.378422      183.522886      -93.795310
  A          -48.178182      181.699443      -93.607055
  A          -48.977942      179.876000      -93.418800
  A          -49.777703      178.052557      -93.230546
  A          -50.577463      176.229114      -93.042291
  A          -51.377223      174.405672      -92.854036
  A          -52.176983      172.582229      -92.665781
  A          -52.976744      170.758786      -92.477527
  A          -53.776504      168.935343      -92.289272
  A          -54.576264      167.111900      -92.101017
  A          -55.376024      165.288458      -91.912762
  A          -56.175785      163.465015      -91.724508
  A          -56.975545      161.641572      -91.536253
  A          -57.775305      159.818129      -91.347998
  A          -58.575065      157.994686      -91.159743
  A          -59.374826      156.171244      -90.971489
  A          -60.174586      154.347801      -90.783234
  AL         -60.974346      152.524358      -90.594979
  AL         -61.774107      150.700915      -90.406724
  AL         -62.573867      148.877472      -90.218470
  AL         -63.373627      147.054029      -90.030215
  AL         -64.173387      145.230587      -89.841960
  AL         -64.973148      143.407144      -89.653705
  AL         -65.772908      141.583701      -89.465451
  AL         -66.572668      139.760258      -89.277196
  AL         -67.372428      137.936815      -89.088941
  AL         -68.172189      136.113373      -88.900686
  AL         -68.971949      134.289930      -88.712432
  AL         -69.771709      132.466487      -88.524177
  AL         -70.571469      130.643044      -88.335922
  AL         -71.371230      128.819601      -88.147667
  AL         -72.170990      126.996159      -87.959413
  AL         -72.970750      125.172716      -87.771158
  AL         -73.770511      123.349273      -87.582903
  AL         -74.570271      121.525830      -87.394648
  AL         -75.370031      119.702387      -87.206393
  AL         -76.169791      117.878945      -87.018139
  AL         -76.969552      116.055502      -86.829884
  AL         -77.769312      114.232059      -86.641629
  AL         -78.569072      112.408616      -86.453374
  AL         -79.368832      110.585173      -86.265120
  AL         -80.168593      108.761731      -86.076865
  AL         -80.968353      106.938288      -85.888610
  AL         -81.768113      105.114845      -85.700355
  AL         -82.567874      103.291402      -85.512101
  AL         -83.367634      101.467959      -85.323846
  AL         -84.167394       99.644517      -85.135591
  AL         -84.967154       97.821074      -84.947336
  AL         -85.766915       95.997631      -84.759082
  AL         -86.566675       94.174188      -84.570827
  AL         -87.366435       92.350745      -84.382572
  AL         -88.166195       90.527303      -84.194317
  AL         -88.965956       88.703860      -84.006063
  AL         -89.765716       86.880417      -83.817808
  AL         -90.565476       85.056974      -83.629553
  AL         -91.365236       83.233531      -83.441298
  AL         -92.164997       81.410089      -83.253044
  AL         -92.964757       79.586646      -83.064789
  AL         -93.764517       77.763203      -82.876534
  AL         -94.564278       75.939760      -82.688279
  AL         -95.364038       74.116317      -82.500025
  AL         -96.163798       72.292874      -82.311770
  AL         -96.963558       70.469432      -82.123515
  AL         -97.763319       68.645989      -81.935260
  AL         -98.563079       66.822546      -81.747006
  AL         -99.362839       64.999103      -81.558751
  AL        -100.162599       63.175660      -81.370496
  A           26.899437        1.181287      226.031374
  A           25.737213        2.297306      224.846579
  A           24.574990        3.413325      223.661784
  A           23.412767        4.529344      222.476989
  A           22.250544        5.645363      221.292194
  A           21.088321        6.761382      220.107399
  A           19.926097        7.877401      218.922605
  A           18.763874        8.993420      217.737810
  A           17.601651       10.109439      216.553015
  A           16.439428       11.225458      215.368220
  A           15.277205       12.341477      214.183425
  A           14.114981       13.457496      212.998630
  A           12.952758       14.573515      211.813835
  A           11.790535       15.689534      210.629040
  A           10.628312       16.805552      209.444245
  A            9.466089       17.921571      208.259450
  A            8.303865       19.037590      207.074656
  A            7.141642       20.153609      205.889861
  A            5.979419       21.269628      204.705066
  A            4.817196       22.385647      203.520271
  AL           3.654972       23.501666      202.335476
  AL           2.492749       24.617685      201.150681
  AL           1.330526       25.733704      199.965886
  AL           0.168303       26.849723      198.781091
  AL          -0.993920       27.965742      197.596296
  AL          -2.156144       29.081761      196.411501
  AL          -3.318367       30.197780      195.226707
  AL          -4.480590       31.313799      194.041912
  AL          -5.642813       32.429818      192.857117
  AL          -6.805036       33.545836      191.672322
  AL          -7.967260       34.661855      190.487527
  AL          -9.129483       35.777874      189.302732
  AL         -10.291706       36.893893      188.117937
  AL         -11.453929       38.009912      186.933142
  AL         -12.616152       39.125931      185.748347
  AL         -13.778376       40.241950      184.563552
  AL         -14.940599       41.357969      183.378758
  AL         -16.102822       42.473988      182.193963
  AL         -17.265045       43.590007      181.009168
  AL         -18.427269       44.706026      179.824373
  AL         -19.589492       45.822045      178.639578
  AL         -20.751715       46.938064      177.454783
  AL         -21.913938       48.054083      176.269988
  AL         -23.076161       49.170102      175.085193
  AL         -24.238385       50.286120      173.900398
  AL         -25.400608       51.402139      172.715603
  AL         -26.562831       52.518158      171.530809
  AL         -27.725054       53.634177      170.346014
  AL         -28.887277       54.750196      169.161219
  AL         -30.049501       55.866215      167.976424
  AL         -31.211724       56.982234      166.791629
  AL         -32.373947       58.098253      165.606834
  AL         -33.536170       59.214272      164.422039
  AL         -34.698393       60.330291      163.237244
  AL         -35.860617       61.446310      162.052449
  AL         -37.022840       62.562329      160.867654
  AL         -38.185063       63.678348      159.682860
  AL         -39.347286       64.794367      158.498065
  AL         -40.509509       65.910386      157.313270
  AL         -41.671733       67.026404      156.128475
  AL         -42.833956       68.142423      154.943680
  AL         -43.996179       69.258442      153.758885
  AL         -45.158402       70.374461      152.574090
  AL         -46.320626       71.490480      151.389295
  AL         -47.482849       72.606499      150.204500
  AL         -48.645072       73.722518      149.019705
  AL         -49.807295       74.838537      147.834911
  AL         -50.969518       75.954556      146.650116
  AL         -52.131742       77.070575      145.465321
  AL         -53.293965       78.186594      144.280526
  A          -19.070600       89.123889     -225.017453
  A          -20.260072       87.795284     -224.111932
  A          -21.449544       86.466680     -223.206412
  A          -22.639015       85.138076     -222.300892
  A          -23.828487       83.809472     -221.395371
  A          -25.017959       82.480867     -220.489851
  A          -26.207431       81.152263     -219.584330
  A          -27.396903       79.823659     -218.678810
  A          -28.586375       78.495054     -217.773289
  A          -29.775847       77.166450     -216.867769
  A          -30.965319       75.837846     -215.962248
  A          -32.154790       74.509242     -215.056728
  A          -33.344262       73.180637     -214.151207
  A          -34.533734       71.852033     -213.245687
  A          -35.723206       70.523429     -212.340167
  A          -36.912678       69.194824     -211.434646
  A          -38.102150       67.866220     -210.529126
  A          -39.291622       66.537616     -209.623605
  A          -40.481094       65.209011     -208.718085
  A          -41.670565       63.880407     -207.812564
  AL         -42.860037       62.551803     -206.907044
  AL         -44.049509       61.223199     -206.001523
  AL         -45.238981       59.894594     -205.096003
  AL         -46.428453       58.565990     -204.190483
  AL         -47.617925       57.237386     -203.284962
  AL         -48.807397       55.908781     -202.379442
  AL         -49.996869       54.580177     -201.473921
  AL         -51.186340       53.251573     -200.568401
  AL         -52.375812       51.922969     -199.662880
  AL         -53.565284       50.594364     -198.757360
  AL         -54.754756       49.265760     -197.851839
  AL         -55.944228       47.937156     -196.946319
  AL         -57.133700       46.608551     -196.040799
  AL         -58.323172       45.279947     -195.135278
  AL         -59.512644       43.951343     -194.229758
  AL         -60.702115       42.622738     -193.324237
  AL         -61.891587       41.294134     -192.418717
  AL         -63.081059       39.965530     -191.513196
  AL         -64.270531       38.636926     -190.607676
  AL         -65.460003       37.308321     -189.702155
  AL         -66.649475       35.979717     -188.796635
  AL         -67.838947       34.651113     -187.891114
  AL         -69.028419       33.322508     -186.985594
  AL         -70.217890       31.993904     -186.080074
  AL         -71.407362       30.665300     -185.174553
  AL         -72.596834       29.336696     -184.269033
  AL         -73.786306       28.008091     -183.363512
  AL         -74.975778       26.679487     -182.457992
  AL         -76.165250       25.350883     -181.552471
  AL         -77.354722       24.022278     -180.646951
  AL         -78.544194       22.693674     -179.741430
  AL         -79.733666       21.365070     -178.835910
  AL         -80.923137       20.036465     -177.930390
  AL         -82.112609       18.707861     -177.024869
  AL         -83.302081       17.379257     -176.119349
  AL         -84.491553       16.050653     -175.213828
  AL         -85.681025       14.722048     -174.308308
  AL         -86.870497       13.393444     -173.402787
  AL         -88.059969       12.064840     -172.497267
  AL         -89.249441       10.736235     -171.591746
  AL         -90.438912        9.407631     -170.686226
  AL         -91.628384        8.079027     -169.780705
  AL         -92.817856        6.750423     -168.875185
  AL         -94.007328        5.421818     -167.969665
  AL         -95.196800        4.093214     -167.064144
  AL         -96.386272        2.764610     -166.158624
  AL         -97.575744        1.436005     -165.253103
  AL         -98.765216        0.107401     -164.347583
  AL         -99.954687       -1.221203     -163.442062
  AL        -101.144159       -2.549808     -162.536542
  A           55.151787      -12.023922      173.727045
  A           56.362941      -13.127800      174.873588
  A           57.574094      -14.231678      176.020131
  A           58.785247      -15.335556      177.166674
  A           59.996401      -16.439434      178.313216
  A           61.207554      -17.543312      179.459759
  A           62.418708      -18.647191      180.606302
  A           63.629861      -19.751069      181.752845
  A           64.841014      -20.854947      182.899388
  A           66.052168      -21.958825      184.045931
  A           67.263321      -23.062703      185.192474
  A           68.474474      -24.166581      186.339016
  A           69.685628      -25.270460      187.485559
  A           70.896781      -26.374338      188.632102
  A           72.107934      -27.478216      189.778645
  A           73.319088      -28.582094      190.925188
  A           74.530241      -29.685972      192.071731
  A           75.741394      -30.789850      193.218274
  A           76.952548      -31.893729      194.364816
  A           78.163701      -32.997607      195.511359
  AL          79.374854      -34.101485      196.657902
  AL          80.586008      -35.205363      197.804445
  AL          81.797161      -36.309241      198.950988
  AL          83.008314      -37.413120      200.097531
  AL          84.219468      -38.516998      201.244074
  AL          85.430621      -39.620876      202.390617
  AL          86.641775      -40.724754      203.537159
  AL          87.852928      -41.828632      204.683702
  AL          89.064081      -42.932510      205.830245
  AL          90.275235      -44.036389      206.976788
  AL          91.486388      -45.140267      208.123331
  AL          92.697541      -46.244145      209.269874
  AL          93.908695      -47.348023      210.416417
  AL          95.119848      -48.451901      211.562959
  AL          96.331001      -49.555779      212.709502
  AL          97.542155      -50.659658      213.856045
  AL          98.753308      -51.763536      215.002588
  AL          99.964461      -52.867414      216.149131
  AL         101.175615      -53.971292      217.295674
  AL         102.386768      -55.075170      218.442217
  AL         103.597921      -56.179048      219.588760
  AL         104.809075      -57.282927      220.735302
  AL         106.020228      -58.386805      221.881845
  AL         107.231381      -59.490683      223.028388
  AL         108.442535      -60.594561      224.174931
  AL         109.653688      -61.698439      225.321474
  AL         110.864841      -62.802318      226.468017
  AL         112.075995      -63.906196      227.614560
  AL         113.287148      -65.010074      228.761102
  AL         114.498302      -66.113952      229.907645
  AL         115.709455      -67.217830      231.054188
  AL         116.920608      -68.321708      232.200731
  AL         118.131762      -69.425587      233.347274
  AL         119.342915      -70.529465      234.493817
  AL         120.554068      -71.633343      235.640360
  AL         121.765222      -72.737221      236.786903
  AL         122.976375      -73.841099      237.933445
  AL         124.187528      -74.944977      239.079988
  AL         125.398682      -76.048856      240.226531
  AL         126.609835      -77.152734      241.373074
  AL         127.820988      -78.256612      242.519617
  AL         129.032142      -79.360490      243.666160
  AL         130.243295      -80.464368      244.812703
  AL         131.454448      -81.568246      245.959245
  AL         132.665602      -82.672125      247.105788
  AL         133.876755      -83.776003      248.252331
  AL         135.087908      -84.879881      249.398874
  AL         136.299062      -85.983759      250.545417
  AL         137.510215      -87.087637      251.691960
  AL         138.721369      -88.191515      252.838503
  A         -161.451740     -102.929259      142.319480
  A         -161.562676     -101.108622      141.499129
  A         -161.673612      -99.287985      140.678779
  A         -161.784548      -97.467348      139.858428
  A         -161.895484      -95.646711      139.038078
  A         -162.006420      -93.826075      138.217728
  A         -162.117356      -92.005438      137.397377
  A         -162.228292      -90.184801      136.577027
  A         -162.339228      -88.364164      135.756676
  A         -162.450164      -86.543527      134.936326
  A         -162.561101      -84.722890      134.115976
  A         -162.672037      -82.902254      133.295625
  A         -162.782973      -81.081617      132.475275
  A         -162.893909      -79.260980      131.654924
  A         -163.004845      -77.440343      130.834574
  A         -163.115781      -75.619706      130.014224
  A         -163.226717      -73.799070      129.193873
  A         -163.337653      -71.978433      128.373523
  A         -163.448589      -70.157796      127.553172
  A         -163.559525      -68.337159      126.732822
  AL        -163.670462      -66.516522      125.912472
  AL        -163.781398      -64.695886      125.092121
  AL        -163.892334      -62.875249      124.271771
  AL        -164.003270      -61.054612      123.451420
  AL        -164.114206      -59.233975      122.631070
  AL        -164.225142      -57.413338      121.810720
  AL        -164.336078      -55.592702      120.990369
  AL        -164.447014      -53.772065      120.170019
  AL        -164.557950      -51.951428      119.349668
  AL        -164.668886      -50.130791      118.529318
  AL        -164.779823      -48.310154      117.708967
  AL        -164.890759      -46.489517      116.888617
  AL        -165.001695      -44.668881      116.068267
  AL        -165.112631      -42.848244      115.247916
  AL        -165.223567      -41.027607      114.427566
  AL        -165.334503      -39.206970      113.607215
  AL        -165.445439      -37.386333      112.786865
  AL        -165.556375      -35.565697      111.966515
  AL        -165.667311      -33.745060      111.146164
  AL        -165.778247      -31.924423      110.325814
  AL        -165.889184      -30.103786      109.505463
  AL        -166.000120      -28.283149      108.685113
  AL        -166.111056      -26.462513      107.864763
  AL        -166.221992      -24.641876      107.044412
  AL        -166.332928      -22.821239      106.224062
  AL        -166.443864      -21.000602      105.403711
  AL        -166.554800      -19.179965      104.583361
  AL        -166.665736      -17.359329      103.763011
  AL        -166.776672      -15.538692      102.942660
  AL        -166.887608      -13.718055      102.122310
  AL        -166.998545      -11.897418      101.301959
  AL        -167.109481      -10.076781      100.481609
  AL        -167.220417       -8.256144       99.661259
  AL        -167.331353       -6.435508       98.840908
  AL        -167.442289       -4.614871       98.020558
  AL        -167.553225       -2.794234       97.200207
  AL        -167.664161       -0.973597       96.379857
  AL        -167.775097        0.847040       95.559507
  AL        -167.886033        2.667676       94.739156
  AL        -167.996969        4.488313       93.918806
  AL        -168.107906        6.308950       93.098455
  AL        -168.218842        8.129587       92.278105
  AL        -168.329778        9.950224       91.457754
  AL        -168.440714       11.770860       90.637404
  AL        -168.551650       13.591497       89.817054
  AL        -168.662586       15.412134       88.996703
  AL        -168.773522       17.232771       88.176353
  AL        -168.884458       19.053408       87.356002
  AL        -168.995394       20.874044       86.535652
  AL        -169.106330       22.694681       85.715302
  A         -151.761241     -194.859817       54.059945
  A         -153.607491     -195.612719       54.216474
  A         -155.453741     -196.365620       54.373002
  A         -157.299991     -197.118521       54.529530
  A         -159.146241     -197.871423       54.686058
  A         -160.992490     -198.624324       54.842587
  A         -162.838740     -199.377225       54.999115
  A         -164.684990     -200.130127       55.155643
  A         -166.531240     -200.883028       55.312172
  A         -168.377490     -201.635929       55.468700
  A         -170.223739     -202.388831       55.625228
  A         -172.069989     -203.141732       55.781756
  A         -173.916239     -203.894634       55.938285
  A         -175.762489     -204.647535       56.094813
  A         -177.608739     -205.400436       56.251341
  A         -179.454989     -206.153338       56.407870
  A         -181.301238     -206.906239       56.564398
  A         -183.147488     -207.659140       56.720926
  A         -184.993738     -208.412042       56.877454
  A         -186.839988     -209.164943       57.033983
  AL        -188.686238     -209.917845       57.190511
  AL        -190.532488     -210.670746       57.347039
  AL        -192.378737     -211.423647       57.503568
  AL        -194.224987     -212.176549       57.660096
  AL        -196.071237     -212.929450       57.816624
  AL        -197.917487     -213.682351       57.973153
  AL        -199.763737     -214.435253       58.129681
  AL        -201.609987     -215.188154       58.286209
  AL        -203.456236     -215.941055       58.442737
  AL        -205.302486     -216.693957       58.599266
  AL        -207.148736     -217.446858       58.755794
  AL        -208.994986     -218.199760       58.912322
  AL        -210.841236     -218.952661       59.068851
  AL        -212.687485     -219.705562       59.225379
  AL        -214.533735     -220.458464       59.381907
  AL        -216.379985     -221.211365       59.538435
  AL        -218.226235     -221.964266       59.694964
  AL        -220.072485     -222.717168       59.851492
  AL        -221.918735     -223.470069       60.008020
  AL        -223.764984     -224.222971       60.164549
  AL        -225.611234     -224.975872       60.321077
  AL        -227.457484     -225.728773       60.477605
  AL        -229.303734     -226.481675       60.634133
  AL        -231.149984     -227.234576       60.790662
  AL        -232.996234     -227.987477       60.947190
  AL        -234.842483     -228.740379       61.103718
  AL        -236.688733     -229.493280       61.260247
  AL        -238.534983     -230.246181       61.416775
  AL        -240.381233     -230.999083       61.573303
  AL        -242.227483     -231.751984       61.729832
  AL        -244.073733     -232.504886       61.886360
  AL        -245.919982     -233.257787       62.042888
  AL        -247.766232     -234.010688       62.199416
  AL        -249.612482     -234.763590       62.355945
  AL        -251.458732     -235.516491       62.512473
  AL        -253.304982     -236.269392       62.669001
  AL        -255.151232     -237.022294       62.825530
  AL        -256.997481     -237.775195       62.982058
  AL        -258.843731     -238.528097       63.138586
  AL        -260.689981     -239.280998       63.295114
  AL        -262.536231     -240.033899       63.451643
  AL        -264.382481     -240.786801       63.608171
  AL        -266.228730     -241.539702       63.764699
  AL        -268.074980     -242.292603       63.921228
  AL        -269.921230     -243.045505       64.077756
  AL        -271.767480     -243.798406       64.234284
  AL        -273.613730     -244.551307       64.390812
  AL        -275.459980     -245.304209       64.547341
  AL        -277.306229     -246.057110       64.703869
  AL        -279.152479     -246.810012       64.860397
  A           43.380868      293.321505      -43.238896
  A           43.550674      291.782179      -41.973336
  A           43.720479      290.242853      -40.707776
  A           43.890285      288.703527      -39.442216
  A           44.060091      287.164201      -38.176656
  A           44.229896      285.624875      -36.911096
  A           44.399702      284.085549      -35.645536
  A           44.569507      282.546224      -34.379976
  A           44.739313      281.006898      -33.114416
  A           44.909118      279.467572      -31.848856
  A           45.078924      277.928246      -30.583296
  A           45.248729      276.388920      -29.317736
  A           45.418535      274.849594      -28.052177
  A           45.588340      273.310268      -26.786617
  A           45.758146      271.770942      -25.521057
  A           45.927951      270.231617      -24.255497
  A           46.097757      268.692291      -22.989937
  A           46.267562      267.152965      -21.724377
  A           46.437368      265.613639      -20.458817
  A           46.607173      264.074313      -19.193257
  AL          46.776979      262.534987      -17.927697
  AL          46.946784      260.995661      -16.662137
  AL          47.116590      259.456335      -15.396577
  AL          47.286395      257.917010      -14.131017
  AL          47.456201      256.377684      -12.865457
  AL          47.626006      254.838358      -11.599897
  AL          47.795812      253.299032      -10.334337
  AL          47.965618      251.759706       -9.068777
  AL          48.135423      250.220380       -7.803217
  AL          48.305229      248.681054       -6.537658
  AL          48.475034      247.141729       -5.272098
  AL          48.644840      245.602403       -4.006538
  AL          48.814645      244.063077       -2.740978
  AL          48.984451      242.523751       -1.475418
  AL          49.154256      240.984425       -0.209858
  AL          49.324062      239.445099        1.055702
  AL          49.493867      237.905773        2.321262
  AL          49.663673      236.366447        3.586822
  AL          49.833478      234.827122        4.852382
  AL          50.003284      233.287796        6.117942
  AL          50.173089      231.748470        7.383502
  AL          50.342895      230.209144        8.649062
  AL          50.512700      228.669818        9.914622
  AL          50.682506      227.130492       11.180182
  AL          50.852311      225.591166       12.445742
  AL          51.022117      224.051841       13.711301
  AL          51.191922      222.512515       14.976861
  AL          51.361728      220.973189       16.242421
  AL          51.531534      219.433863       17.507981
  AL          51.701339      217.894537       18.773541
  AL          51.871145      216.355211       20.039101
  AL          52.040950      214.815885       21.304661
  AL          52.210756      213.276559       22.570221
  AL          52.380561      211.737234       23.835781
  AL          52.550367      210.197908       25.101341
  AL          52.720172      208.658582       26.366901
  AL          52.889978      207.119256       27.632461
  AL          53.059783      205.579930       28.898021
  AL          53.229589      204.040604       30.163581
  AL          53.399394      202.501278       31.429141
  AL          53.569200      200.961952       32.694701
  AL          53.739005      199.422627       33.960260
  AL          53.908811      197.883301       35.225820
  AL          54.078616      196.343975       36.491380
  AL          54.248422      194.804649       37.756940
  AL          54.418227      193.265323       39.022500
  AL          54.588033      191.725997       40.288060
  AL          54.757838      190.186671       41.553620
  AL          54.927644      188.647346       42.819180
  AL          55.097449      187.108020       44.084740
  A          135.159113      255.085087        9.626680
  A          136.592211      253.740512        9.998630
  A          138.025309      252.395936       10.370580
  A          139.458407      251.051361       10.742531
  A          140.891505      249.706785       11.114481
  A          142.324603      248.362210       11.486431
  A          143.757701      247.017634       11.858381
  A          145.190799      245.673059       12.230331
  A          146.623897      244.328483       12.602281
  A          148.056995      242.983908       12.974232
  A          149.490093      241.639332       13.346182
  A          150.923191      240.294757       13.718132
  A          152.356288      238.950181       14.090082
  A          153.789386      237.605606       14.462032
  A          155.222484      236.261030       14.833983
  A          156.655582      234.916455       15.205933
  A          158.088680      233.571879       15.577883
  A          159.521778      232.227304       15.949833
  A          160.954876      230.882728       16.321783
  A          162.387974      229.538153       16.693733
  AL         163.821072      228.193577       17.065684
  AL         165.254170      226.849002       17.437634
  AL         166.687268      225.504426       17.809584
  AL         168.120366      224.159851       18.181534
  AL         169.553464      222.815275       18.553484
  AL         170.986562      221.470700       18.925434
  AL         172.419660      220.126124       19.297385
  AL         173.852758      218.781549       19.669335
  AL         175.285856      217.436973       20.041285
  AL         176.718954      216.092398       20.413235
  AL         178.152052      214.747822       20.785185
  AL         179.585150      213.403247       21.157136
  AL         181.018248      212.058671       21.529086
  AL         182.451346      210.714096       21.901036
  AL         183.884444      209.369520       22.272986
  AL         185.317542      208.024945       22.644936
  AL         186.750640      206.680369       23.016886
  AL         188.183738      205.335794       23.388837
  AL         189.616836      203.991218       23.760787
  AL         191.049934      202.646643       24.132737
  AL         192.483032      201.302067       24.504687
  AL         193.916130      199.957492       24.876637
  AL         195.349228      198.612916       25.248587
  AL         196.782326      197.268341       25.620538
  AL         198.215424      195.923765       25.992488
  AL         199.648522      194.579190       26.364438
  AL         201.081620      193.234614       26.736388
  AL         202.514718      191.890039       27.108338
  AL         203.947816      190.545463       27.480289
  AL         205.380913      189.200888       27.852239
  AL         206.814011      187.856312       28.224189
  AL         208.247109      186.511737       28.596139
  AL         209.680207      185.167161       28.968089
  AL         211.113305      183.822586       29.340039
  AL         212.546403      182.478010       29.711990
  AL         213.979501      181.133435       30.083940
  AL         215.412599      179.788859       30.455890
  AL         216.845697      178.444284       30.827840
  AL         218.278795      177.099708       31.199790
  AL         219.711893      175.755133       31.571741
  AL         221.144991      174.410557       31.943691
  AL         222.578089      173.065982       32.315641
  AL         224.011187      171.721406       32.687591
  AL         225.444285      170.376831       33.059541
  AL         226.877383      169.032255       33.431491
  AL         228.310481      167.687680       33.803442
  AL         229.743579      166.343104       34.175392
  AL         231.176677      164.998529       34.547342
  AL         232.609775      163.653953       34.919292
  AL         234.042873      162.309378       35.291242
  A         -174.085958       50.375691      266.292806
  A         -175.652069       49.407519      265.511819
  A         -177.218179       48.439346      264.730832
  A         -178.784289       47.471174      263.949846
  A         -180.350400       46.503001      263.168859
  A         -181.916510       45.534829      262.387872
  A         -183.482621       44.566656      261.606885
  A         -185.048731       43.598484      260.825899
  A         -186.614841       42.630311      260.044912
  A         -188.180952       41.662139      259.263925
  A         -189.747062       40.693966      258.482938
  A         -191.313173       39.725794      257.701951
  A         -192.879283       38.757622      256.920965
  A         -194.445393       37.789449      256.139978
  A         -196.011504       36.821277      255.358991
  A         -197.577614       35.853104      254.578004
  A         -199.143725       34.884932      253.797018
  A         -200.709835       33.916759      253.016031
  A         -202.275945       32.948587      252.235044
  A         -203.842056       31.980414      251.454057
  AL        -205.408166       31.012242      250.673071
  AL        -206.974276       30.044069      249.892084
  AL        -208.540387       29.075897      249.111097
  AL        -210.106497       28.107724      248.330110
  AL        -211.672608       27.139552      247.549123
  AL        -213.238718       26.171380      246.768137
  AL        -214.804828       25.203207      245.987150
  AL        -216.370939       24.235035      245.206163
  AL        -217.937049       23.266862      244.425176
  AL        -219.503160       22.298690      243.644190
  AL        -221.069270       21.330517      242.863203
  AL        -222.635380       20.362345      242.082216
  AL        -224.201491       19.394172      241.301229
  AL        -225.767601       18.426000      240.520243
  AL        -227.333712       17.457827      239.739256
  AL        -228.899822       16.489655      238.958269
  AL        -230.465932       15.521483      238.177282
  AL        -232.032043       14.553310      237.396295
  AL        -233.598153       13.585138      236.615309
  AL        -235.164264       12.616965      235.834322
  AL        -236.730374       11.648793      235.053335
  AL        -238.296484       10.680620      234.272348
  AL        -239.862595        9.712448      233.491362
  AL        -241.428705        8.744275      232.710375
  AL        -242.994815        7.776103      231.929388
  AL        -244.560926        6.807930      231.148401
  AL        -246.127036        5.839758      230.367415
  AL        -247.693147        4.871586      229.586428
  AL        -249.259257        3.903413      228.805441
  AL        -250.825367        2.935241      228.024454
  AL        -252.391478        1.967068      227.243467
  AL        -253.957588        0.998896      226.462481
  AL        -255.523699        0.030723      225.681494
  AL        -257.089809       -0.937449      224.900507
  AL        -258.655919       -1.905622      224.119520
  AL        -260.222030       -2.873794      223.338534
  AL        -261.788140       -3.841967      222.557547
  AL        -263.354251       -4.810139      221.776560
  AL        -264.920361       -5.778311      220.995573
  AL        -266.486471       -6.746484      220.214587
  AL        -268.052582       -7.714656      219.433600
  AL        -269.618692       -8.682829      218.652613
  AL        -271.184803       -9.651001      217.871626
  AL        -272.750913      -10.619174      217.090639
  AL        -274.317023      -11.587346      216.309653
  AL        -275.883134      -12.555519      215.528666
  AL        -277.449244      -13.523691      214.747679
  AL        -279.015355      -14.491864      213.966692
  AL        -280.581465      -15.460036      213.185706
  AL        -282.147575      -16.428209      212.404719
  A          -73.196501      127.023113      -36.387228
  A          -72.200286      126.667738      -34.689799
  A          -71.204071      126.312363      -32.992370
  A          -70.207857      125.956988      -31.294941
  A          -69.211642      125.601612      -29.597513
  A          -68.215427      125.246237      -27.900084
  A          -67.219212      124.890862      -26.202655
  A          -66.222997      124.535487      -24.505226
  A          -65.226782      124.180111      -22.807798
  A          -64.230568      123.824736      -21.110369
  A          -63.234353      123.469361      -19.412940
  A          -62.238138      123.113986      -17.715511
  A          -61.241923      122.758610      -16.018083
  A          -60.245708      122.403235      -14.320654
  A          -59.249493      122.047860      -12.623225
  A          -58.253279      121.692485      -10.925796
  A          -57.257064      121.337109       -9.228367
  A          -56.260849      120.981734       -7.530939
  A          -55.264634      120.626359       -5.833510
  A          -54.268419      120.270984       -4.136081
  AL         -53.272204      119.915608       -2.438652
  AL         -52.275990      119.560233       -0.741224
  AL         -51.279775      119.204858        0.956205
  AL         -50.283560      118.849483        2.653634
  AL         -49.287345      118.494107        4.351063
  AL         -48.291130      118.138732        6.048492
  AL         -47.294915      117.783357        7.745920
  AL         -46.298701      117.427982        9.443349
  AL         -45.302486      117.072606       11.140778
  AL         -44.306271      116.717231       12.838207
  AL         -43.310056      116.361856       14.535635
  AL         -42.313841      116.006481       16.233064
  AL         -41.317626      115.651105       17.930493
  AL         -40.321412      115.295730       19.627922
  AL         -39.325197      114.940355       21.325350
  AL         -38.328982      114.584980       23.022779
  AL         -37.332767      114.229604       24.720208
  AL         -36.336552      113.874229       26.417637
  AL         -35.340337      113.518854       28.115066
  AL         -34.344123      113.163479       29.812494
  AL         -33.347908      112.808103       31.509923
  AL         -32.351693      112.452728       33.207352
  AL         -31.355478      112.097353       34.904781
  AL         -30.359263      111.741978       36.602209
  AL         -29.363048      111.386602       38.299638
  AL         -28.366834      111.031227       39.997067
  AL         -27.370619      110.675852       41.694496
  AL         -26.374404      110.320477       43.391925
  AL         -25.378189      109.965101       45.089353
  AL         -24.381974      109.609726       46.786782
  AL         -23.385759      109.254351       48.484211
  AL         -22.389545      108.898976       50.181640
  AL         -21.393330      108.543600       51.879068
  AL         -20.397115      108.188225       53.576497
  AL         -19.400900      107.832850       55.273926
  AL         -18.404685      107.477475       56.971355
  AL         -17.408470      107.122099       58.668783
  AL         -16.412256      106.766724       60.366212
  AL         -15.416041      106.411349       62.063641
  AL         -14.419826      106.055974       63.761070
  AL         -13.423611      105.700599       65.458499
  AL         -12.427396      105.345223       67.155927
  AL         -11.431181      104.989848       68.853356
  AL         -10.434967      104.634473       70.550785
  AL          -9.438752      104.279098       72.248214
  AL          -8.442537      103.923722       73.945642
  AL          -7.446322      103.568347       75.643071
  AL          -6.450107      103.212972       77.340500
  AL          -5.453892      102.857597       79.037929
  AL          -4.457678      102.502221       80.735358
  A          251.676978     -155.756378      -26.929000
  A          250.812469     -155.330518      -28.681503
  A          249.947960     -154.904658      -30.434006
  A          249.083451     -154.478798      -32.186510
  A          248.218942     -154.052938      -33.939013
  A          247.354433     -153.627077      -35.691516
  A          246.489924     -153.201217      -37.444019
  A          245.625415     -152.775357      -39.196522
  A          244.760906     -152.349497      -40.949025
  A          243.896397     -151.923637      -42.701529
  A          243.031888     -151.497777      -44.454032
  A          242.167379     -151.071917      -46.206535
  A          241.302870     -150.646056      -47.959038
  A          240.438361     -150.220196      -49.711541
  A          239.573852     -149.794336      -51.464044
  A          238.709343     -149.368476      -53.216547
  A          237.844834     -148.942616      -54.969051
  A          236.980325     -148.516756      -56.721554
  A          236.115816     -148.090895      -58.474057
  A          235.251307     -147.665035      -60.226560
  AL         234.386798     -147.239175      -61.979063
  AL         233.522289     -146.813315      -63.731566
  AL         232.657780     -146.387455      -65.484070
  AL         231.793271     -145.961595      -67.236573
  AL         230.928762     -145.535735      -68.989076
  AL         230.064253     -145.109874      -70.741579
  AL         229.199744     -144.684014      -72.494082
  AL         228.335235     -144.258154      -74.246585
  AL         227.470726     -143.832294      -75.999089
  AL         226.606217     -143.406434      -77.751592
  AL         225.741708     -142.980574      -79.504095
  AL         224.877199     -142.554713      -81.256598
  AL         224.012690     -142.128853      -83.009101
  AL         223.148181     -141.702993      -84.761604
  AL         222.283672     -141.277133      -86.514107
  AL         221.419163     -140.851273      -88.266611
  AL         220.554654     -140.425413      -90.019114
  AL         219.690145     -139.999553      -91.771617
  AL         218.825636     -139.573692      -93.524120
  AL         217.961127     -139.147832      -95.276623
  AL         217.096618     -138.721972      -97.029126
  AL         216.232109     -138.296112      -98.781630
  AL         215.367600     -137.870252     -100.534133
  AL         214.503091     -137.444392     -102.286636
  AL         213.638582     -137.018531     -104.039139
  AL         212.774073     -136.592671     -105.791642
  AL         211.909564     -136.166811     -107.544145
  AL         211.045055     -135.740951     -109.296649
  AL         210.180546     -135.315091     -111.049152
  AL         209.316037     -134.889231     -112.801655
  AL         208.451528     -134.463371     -114.554158
  AL         207.587019     -134.037510     -116.306661
  AL         206.722510     -133.611650     -118.059164
  AL         205.858001     -133.185790     -119.811667
  AL         204.993492     -132.759930     -121.564171
  AL         204.128983     -132.334070     -123.316674
  AL         203.264474     -131.908210     -125.069177
  AL         202.399965     -131.482350     -126.821680
  AL         201.535456     -131.056489     -128.574183
  AL         200.670947     -130.630629     -130.326686
  AL         199.806438     -130.204769     -132.079190
  AL         198.941929     -129.778909     -133.831693
  AL         198.077420     -129.353049     -135.584196
  AL         197.212911     -128.927189     -137.336699
  AL         196.348402     -128.501328     -139.089202
  AL         195.483893     -128.075468     -140.841705
  AL         194.619384     -127.649608     -142.594209
  AL         193.754875     -127.223748     -144.346712
  AL         192.890366     -126.797888     -146.099215
  AL         192.025857     -126.372028     -147.851718
  A          152.109315     -120.041933      -89.089417
  A          153.454435     -118.562755      -89.141242
  A          154.799555     -117.083578      -89.193067
  A          156.144675     -115.604400      -89.244892
  A          157.489795     -114.125223      -89.296717
  A          158.834915     -112.646045      -89.348542
  A          160.180035     -111.166867      -89.400367
  A          161.525155     -109.687690      -89.452191
  A          162.870275     -108.208512      -89.504016
  A          164.215395     -106.729335      -89.555841
  A          165.560515     -105.250157      -89.607666
  A          166.905635     -103.770980      -89.659491
  A          168.250756     -102.291802      -89.711316
  A          169.595876     -100.812624      -89.763141
  A          170.940996      -99.333447      -89.814966
  A          172.286116      -97.854269      -89.866791
  A          173.631236      -96.375092      -89.918616
  A          174.976356      -94.895914      -89.970441
  A          176.321476      -93.416736      -90.022266
  A          177.666596      -91.937559      -90.074091
  AL         179.011716      -90.458381      -90.125916
  AL         180.356836      -88.979204      -90.177741
  AL         181.701956      -87.500026      -90.229566
  AL         183.047076      -86.020849      -90.281391
  AL         184.392196      -84.541671      -90.333216
  AL         185.737316      -83.062493      -90.385041
  AL         187.082436      -81.583316      -90.436866
  AL         188.427556      -80.104138      -90.488691
  AL         189.772676      -78.624961      -90.540516
  AL         191.117796      -77.145783      -90.592341
  AL         192.462916      -75.666606      -90.644166
  AL         193.808036      -74.187428      -90.695991
  AL         195.153156      -72.708250      -90.747816
  AL         196.498276      -71.229073      -90.799641
  AL         197.843396      -69.749895      -90.851466
  AL         199.188516      -68.270718      -90.903291
  AL         200.533636      -66.791540      -90.955115
  AL         201.878756      -65.312362      -91.006940
  AL         203.223876      -63.833185      -91.058765
  AL         204.568996      -62.354007      -91.110590
  AL         205.914116      -60.874830      -91.162415
  AL         207.259236      -59.395652      -91.214240
  AL         208.604356      -57.916475      -91.266065
  AL         209.949476      -56.437297      -91.317890
  AL         211.294596      -54.958119      -91.369715
  AL         212.639716      -53.478942      -91.421540
  AL         213.984836      -51.999764      -91.473365
  AL         215.329956      -50.520587      -91.525190
  AL         216.675076      -49.041409      -91.577015
  AL         218.020196      -47.562232      -91.628840
  AL         219.365316      -46.083054      -91.680665
  AL         220.710436      -44.603876      -91.732490
  AL         222.055556      -43.124699      -91.784315
  AL         223.400676      -41.645521      -91.836140
  AL         224.745796      -40.166344      -91.887965
  AL         226.090916      -38.687166      -91.939790
  AL         227.436036      -37.207989      -91.991615
  AL         228.781156      -35.728811      -92.043440
  AL         230.126276      -34.249633      -92.095265
  AL         231.471396      -32.770456      -92.147090
  AL         232.816516      -31.291278      -92.198915
  AL         234.161636      -29.812101      -92.250740
  AL         235.506756      -28.332923      -92.302565
  AL         236.851876      -26.853745      -92.354390
  AL         238.196997      -25.374568      -92.406214
  AL         239.542117      -23.895390      -92.458039
  AL         240.887237      -22.416213      -92.509864
  AL         242.232357      -20.937035      -92.561689
  AL         243.577477      -19.457858      -92.613514
  AL         244.922597      -17.978680      -92.665339
  A           85.940886        0.643864       70.494175
  A           87.381528        1.817963       69.755228
  A           88.822170        2.992061       69.016281
  A           90.262812        4.166160       68.277333
  A           91.703454        5.340259       67.538386
  A           93.144095        6.514357       66.799438
  A           94.584737        7.688456       66.060491
  A           96.025379        8.862555       65.321543
  A           97.466021       10.036653       64.582596
  A           98.906663       11.210752       63.843649
  A          100.347305       12.384850       63.104701
  A          101.787947       13.558949       62.365754
  A          103.228589       14.733048       61.626806
  A          104.669231       15.907146       60.887859
  A          106.109873       17.081245       60.148911
  A          107.550515       18.255344       59.409964
  A          108.991156       19.429442       58.671016
  A          110.431798       20.603541       57.932069
  A          111.872440       21.777640       57.193122
  A          113.313082       22.951738       56.454174
  AL         114.753724       24.125837       55.715227
  AL         116.194366       25.299935       54.976279
  AL         117.635008       26.474034       54.237332
  AL         119.075650       27.648133       53.498384
  AL         120.516292       28.822231       52.759437
  AL         121.956934       29.996330       52.020490
  AL         123.397575       31.170429       51.281542
  AL         124.838217       32.344527       50.542595
  AL         126.278859       33.518626       49.803647
  AL         127.719501       34.692724       49.064700
  AL         129.160143       35.866823       48.325752
  AL         130.600785       37.040922       47.586805
  AL         132.041427       38.215020       46.847858
  AL         133.482069       39.389119       46.108910
  AL         134.922711       40.563218       45.369963
  AL         136.363353       41.737316       44.631015
  AL         137.803994       42.911415       43.892068
  AL         139.244636       44.085514       43.153120
  AL         140.685278       45.259612       42.414173
  AL         142.125920       46.433711       41.675225
  AL         143.566562       47.607809       40.936278
  AL         145.007204       48.781908       40.197331
  AL         146.447846       49.956007       39.458383
  AL         147.888488       51.130105       38.719436
  AL         149.329130       52.304204       37.980488
  AL         150.769772       53.478303       37.241541
  AL         152.210413       54.652401       36.502593
  AL         153.651055       55.826500       35.763646
  AL         155.091697       57.000598       35.024699
  AL         156.532339       58.174697       34.285751
  AL         157.972981       59.348796       33.546804
  AL         159.413623       60.522894       32.807856
  AL         160.854265       61.696993       32.068909
  AL         162.294907       62.871092       31.329961
  AL         163.735549       64.045190       30.591014
  AL         165.176191       65.219289       29.852066
  AL         166.616832       66.393388       29.113119
  AL         168.057474       67.567486       28.374172
  AL         169.498116       68.741585       27.635224
  AL         170.938758       69.915683       26.896277
  AL         172.379400       71.089782       26.157329
  AL         173.820042       72.263881       25.418382
  AL         175.260684       73.437979       24.679434
  AL         176.701326       74.612078       23.940487
  AL         178.141968       75.786177       23.201540
  AL         179.582610       76.960275       22.462592
  AL         181.023252       78.134374       21.723645
  AL         182.463893       79.308472       20.984697
  AL         183.904535       80.482571       20.245750
  AL         185.345177       81.656670       19.506802
  A           14.641283      185.991326      199.700621
  A           16.465100      186.067537      198.883380
  A           18.288918      186.143749      198.066140
  A           20.112735      186.219961      197.248900
  A           21.936553      186.296173      196.431660
  A           23.760370      186.372384      195.614420
  A           25.584188      186.448596      194.797180
  A           27.408005      186.524808      193.979940
  A           29.231823      186.601020      193.162700
  A           31.055640      186.677231      192.345459
  A           32.879458      186.753443      191.528219
  A           34.703275      186.829655      190.710979
  A           36.527093      186.905866      189.893739
  A           38.350910      186.982078      189.076499
  A           40.174728      187.058290      188.259259
  A           41.998545      187.134502      187.442019
  A           43.822363      187.210713      186.624779
  A           45.646180      187.286925      185.807538
  A           47.469998      187.363137      184.990298
  A           49.293815      187.439349      184.173058
  AL          51.117633      187.515560      183.355818
  AL          52.941451      187.591772      182.538578
  AL          54.765268      187.667984      181.721338
  AL          56.589086      187.744195      180.904098
  AL          58.412903      187.820407      180.086857
  AL          60.236721      187.896619      179.269617
  AL          62.060538      187.972831      178.452377
  AL          63.884356      188.049042      177.635137
  AL          65.708173      188.125254      176.817897
  AL          67.531991      188.201466      176.000657
  AL          69.355808      188.277677      175.183417
  AL          71.179626      188.353889      174.366177
  AL          73.003443      188.430101      173.548936
  AL          74.827261      188.506313      172.731696
  AL          76.651078      188.582524      171.914456
  AL          78.474896      188.658736      171.097216
  AL          80.298713      188.734948      170.279976
  AL          82.122531      188.811160      169.462736
  AL          83.946348      188.887371      168.645496
  AL          85.770166      188.963583      167.828256
  AL          87.593983      189.039795      167.011015
  AL          89.417801      189.116006      166.193775
  AL          91.241618      189.192218      165.376535
  AL          93.065436      189.268430      164.559295
  AL          94.889253      189.344642      163.742055
  AL          96.713071      189.420853      162.924815
  AL          98.536889      189.497065      162.107575
  AL         100.360706      189.573277      161.290335
  AL         102.184524      189.649488      160.473094
  AL         104.008341      189.725700      159.655854
  AL         105.832159      189.801912      158.838614
  AL         107.655976      189.878124      158.021374
  AL         109.479794      189.954335      157.204134
  AL         111.303611      190.030547      156.386894
  AL         113.127429      190.106759      155.569654
  AL         114.951246      190.182971      154.752414
  AL         116.775064      190.259182      153.935173
  AL         118.598881      190.335394      153.117933
  AL         120.422699      190.411606      152.300693
  AL         122.246516      190.487817      151.483453
  AL         124.070334      190.564029      150.666213
  AL         125.894151      190.640241      149.848973
  AL         127.717969      190.716453      149.031733
  AL         129.541786      190.792664      148.214493
  AL         131.365604      190.868876      147.397252
  AL         133.189421      190.945088      146.580012
  AL         135.013239      191.021300      145.762772
  AL         136.837056      191.097511      144.945532
  AL         138.660874      191.173723      144.128292
  AL         140.484692      191.249935      143.311052
  A         -230.928640     -205.989557       -1.280762
  A         -231.823790     -206.558514       -2.976343
  A         -232.718941     -207.127470       -4.671924
  A         -233.614091     -207.696426       -6.367504
  A         -234.509242     -208.265382       -8.063085
  A         -235.404393     -208.834338       -9.758666
  A         -236.299543     -209.403295      -11.454247
  A         -237.194694     -209.972251      -13.149828
  A         -238.089845     -210.541207      -14.845408
  A         -238.984995     -211.110163      -16.540989
  A         -239.880146     -211.679120      -18.236570
  A         -240.775297     -212.248076      -19.932151
  A         -241.670447     -212.817032      -21.627731
  A         -242.565598     -213.385988      -23.323312
  A         -243.460749     -213.954945      -25.018893
  A         -244.355899     -214.523901      -26.714474
  A         -245.251050     -215.092857      -28.410054
  A         -246.146201     -215.661813      -30.105635
  A         -247.041351     -216.230770      -31.801216
  A         -247.936502     -216.799726      -33.496797
  AL        -248.831653     -217.368682      -35.192377
  AL        -249.726803     -217.937638      -36.887958
  AL        -250.621954     -218.506595      -38.583539
  AL        -251.517105     -219.075551      -40.279120
  AL        -252.412255     -219.644507      -41.974700
  AL        -253.307406     -220.213463      -43.670281
  AL        -254.202556     -220.782420      -45.365862
  AL        -255.097707     -221.351376      -47.061443
  AL        -255.992858     -221.920332      -48.757023
  AL        -256.888008     -222.489288      -50.452604
  AL        -257.783159     -223.058245      -52.148185
  AL        -258.678310     -223.627201      -53.843766
  AL        -259.573460     -224.196157      -55.539346
  AL        -260.468611     -224.765113      -57.234927
  AL        -261.363762     -225.334070      -58.930508
  AL        -262.258912     -225.903026      -60.626089
  AL        -263.154063     -226.471982      -62.321669
  AL        -264.049214     -227.040938      -64.017250
  AL        -264.944364     -227.609894      -65.712831
  AL        -265.839515     -228.178851      -67.408412
  AL        -266.734666     -228.747807      -69.103993
  AL        -267.629816     -229.316763      -70.799573
  AL        -268.524967     -229.885719      -72.495154
  AL        -269.420118     -230.454676      -74.190735
  AL        -270.315268     -231.023632      -75.886316
  AL        -271.210419     -231.592588      -77.581896
  AL        -272.105570     -232.161544      -79.277477
  AL        -273.000720     -232.730501      -80.973058
  AL        -273.895871     -233.299457      -82.668639
  AL        -274.791021     -233.868413      -84.364219
  AL        -275.686172     -234.437369      -86.059800
  AL        -276.581323     -235.006326      -87.755381
  AL        -277.476473     -235.575282      -89.450962
  AL        -278.371624     -236.144238      -91.146542
  AL        -279.266775     -236.713194      -92.842123
  AL        -280.161925     -237.282151      -94.537704
  AL        -281.057076     -237.851107      -96.233285
  AL        -281.952227     -238.420063      -97.928865
  AL        -282.847377     -238.989019      -99.624446
  AL        -283.742528     -239.557976     -101.320027
  AL        -284.637679     -240.126932     -103.015608
  AL        -285.532829     -240.695888     -104.711188
  AL        -286.427980     -241.264844     -106.406769
  AL        -287.323131     -241.833801     -108.102350
  AL        -288.218281     -242.402757     -109.797931
  AL        -289.113432     -242.971713     -111.493511
  AL        -290.008583     -243.540669     -113.189092
  AL        -290.903733     -244.109626     -114.884673
  AL        -291.798884     -244.678582     -116.580254
  AL        -292.694035     -245.247538     -118.275834
  A          263.893874       79.092125      -84.490572
  A          262.134447       79.600638      -85.294208
  A          260.375020       80.109152      -86.097843
  A          258.615592       80.617666      -86.901479
  A          256.856165       81.126180      -87.705114
  A          255.096738       81.634693      -88.508750
  A          253.337311       82.143207      -89.312385
  A          251.577884       82.651721      -90.116021
  A          249.818457       83.160234      -90.919656
  A          248.059030       83.668748      -91.723292
  A          246.299603       84.177262      -92.526928
  A          244.540176       84.685775      -93.330563
  A          242.780749       85.194289      -94.134199
  A          241.021322       85.702803      -94.937834
  A          239.261894       86.211317      -95.741470
  A          237.502467       86.719830      -96.545105
  A          235.743040       87.228344      -97.348741
  A          233.983613       87.736858      -98.152377
  A          232.224186       88.245371      -98.956012
  A          230.464759       88.753885      -99.759648
  AL         228.705332       89.262399     -100.563283
  AL         226.945905       89.770912     -101.366919
  AL         225.186478       90.279426     -102.170554
  AL         223.427051       90.787940     -102.974190
  AL         221.667624       91.296453     -103.777826
  AL         219.908196       91.804967     -104.581461
  AL         218.148769       92.313481     -105.385097
  AL         216.389342       92.821995     -106.188732
  AL         214.629915       93.330508     -106.992368
  AL         212.870488       93.839022     -107.796003
  AL         211.111061       94.347536     -108.599639
  AL         209.351634       94.856049     -109.403275
  AL         207.592207       95.364563     -110.206910
  AL         205.832780       95.873077     -111.010546
  AL         204.073353       96.381590     -111.814181
  AL         202.313925       96.890104     -112.617817
  AL         200.554498       97.398618     -113.421452
  AL         198.795071       97.907132     -114.225088
  AL         197.035644       98.415645     -115.028724
  AL         195.276217       98.924159     -115.832359
  AL         193.516790       99.432673     -116.635995
  AL         191.757363       99.941186     -117.439630
  AL         189.997936      100.449700     -118.243266
  AL         188.238509      100.958214     -119.046901
  AL         186.479082      101.466727     -119.850537
  AL         184.719655      101.975241     -120.654173
  AL         182.960227      102.483755     -121.457808
  AL         181.200800      102.992268     -122.261444
  AL         179.441373      103.500782     -123.065079
  AL         177.681946      104.009296     -123.868715
  AL         175.922519      104.517810     -124.672350
  AL         174.163092      105.026323     -125.475986
  AL         172.403665      105.534837     -126.279622
  AL         170.644238      106.043351     -127.083257
  AL         168.884811      106.551864     -127.886893
  AL         167.125384      107.060378     -128.690528
  AL         165.365957      107.568892     -129.494164
  AL         163.606529      108.077405     -130.297799
  AL         161.847102      108.585919     -131.101435
  AL         160.087675      109.094433     -131.905071
  AL         158.328248      109.602947     -132.708706
  AL         156.568821      110.111460     -133.512342
  AL         154.809394      110.619974     -134.315977
  AL         153.049967      111.128488     -135.119613
  AL         151.290540      111.637001     -135.923248
  AL         149.531113      112.145515     -136.726884
  AL         147.771686      112.654029     -137.530520
  AL         146.012259      113.162542     -138.334155
  AL         144.252831      113.671056     -139.137791
  AL         142.493404      114.179570     -139.941426
  A         -115.866781       74.019387      -10.470792
  A         -117.649867       74.361485      -11.309584
  A         -119.432954       74.703583      -12.148377
  A         -121.216040       75.045682      -12.987169
  A         -122.999126       75.387780      -13.825961
  A         -124.782212       75.729879      -14.664753
  A         -126.565299       76.071977      -15.503545
  A         -128.348385       76.414075      -16.342337
  A         -130.131471       76.756174      -17.181129
  A         -131.914557       77.098272      -18.019921
  A         -133.697643       77.440371      -18.858713
  A         -135.480730       77.782469      -19.697506
  A         -137.263816       78.124567      -20.536298
  A         -139.046902       78.466666      -21.375090
  A         -140.829988       78.808764      -22.213882
  A         -142.613075       79.150863      -23.052674
  A         -144.396161       79.492961      -23.891466
  A         -146.179247       79.835059      -24.730258
  A         -147.962333       80.177158      -25.569050
  A         -149.745419       80.519256      -26.407843
  AL        -151.528506       80.861355      -27.246635
  AL        -153.311592       81.203453      -28.085427
  AL        -155.094678       81.545551      -28.924219
  AL        -156.877764       81.887650      -29.763011
  AL        -158.660851       82.229748      -30.601803
  AL        -160.443937       82.571846      -31.440595
  AL        -162.227023       82.913945      -32.279387
  AL        -164.010109       83.256043      -33.118180
  AL        -165.793195       83.598142      -33.956972
  AL        -167.576282       83.940240      -34.795764
  AL        -169.359368       84.282338      -35.634556
  AL        -171.142454       84.624437      -36.473348
  AL        -172.925540       84.966535      -37.312140
  AL        -174.708627       85.308634      -38.150932
  AL        -176.491713       85.650732      -38.989724
  AL        -178.274799       85.992830      -39.828516
  AL        -180.057885       86.334929      -40.667309
  AL        -181.840971       86.677027      -41.506101
  AL        -183.624058       87.019126      -42.344893
  AL        -185.407144       87.361224      -43.183685
  AL        -187.190230       87.703322      -44.022477
  AL        -188.973316       88.045421      -44.861269
  AL        -190.756403       88.387519      -45.700061
  AL        -192.539489       88.729617      -46.538853
  AL        -194.322575       89.071716      -47.377646
  AL        -196.105661       89.413814      -48.216438
  AL        -197.888747       89.755913      -49.055230
  AL        -199.671834       90.098011      -49.894022
  AL        -201.454920       90.440109      -50.732814
  AL        -203.238006       90.782208      -51.571606
  AL        -205.021092       91.124306      -52.410398
  AL        -206.804179       91.466405      -53.249190
  AL        -208.587265       91.808503      -54.087982
  AL        -210.370351       92.150601      -54.926775
  AL        -212.153437       92.492700      -55.765567
  AL        -213.936523       92.834798      -56.604359
  AL        -215.719610       93.176897      -57.443151
  AL        -217.502696       93.518995      -58.281943
  AL        -219.285782       93.861093      -59.120735
  AL        -221.068868       94.203192      -59.959527
  AL        -222.851955       94.545290      -60.798319
  AL        -224.635041       94.887388      -61.637112
  AL        -226.418127       95.229487      -62.475904
  AL        -228.201213       95.571585      -63.314696
  AL        -229.984299       95.913684      -64.153488
  AL        -231.767386       96.255782      -64.992280
  AL        -233.550472       96.597880      -65.831072
  AL        -235.333558       96.939979      -66.669864
  AL        -237.116644       97.282077      -67.508656
  AL        -238.899731       97.624176      -68.347448
  A          253.525969     -164.689122      -83.576220
  A          254.178825     -162.811350      -83.794746
  A          254.831682     -160.933579      -84.013271
  A          255.484538     -159.055807      -84.231797
  A          256.137394     -157.178036      -84.450323
  A          256.790250     -155.300265      -84.668848
  A          257.443106     -153.422493      -84.887374
  A          258.095963     -151.544722      -85.105899
  A          258.748819     -149.666951      -85.324425
  A          259.401675     -147.789179      -85.542951
  A          260.054531     -145.911408      -85.761476
  A          260.707387     -144.033636      -85.980002
  A          261.360243     -142.155865      -86.198527
  A          262.013100     -140.278094      -86.417053
  A          262.665956     -138.400322      -86.635579
  A          263.318812     -136.522551      -86.854104
  A          263.971668     -134.644780      -87.072630
  A          264.624524     -132.767008      -87.291156
  A          265.277381     -130.889237      -87.509681
  A          265.930237     -129.011465      -87.728207
  AL         266.583093     -127.133694      -87.946732
  AL         267.235949     -125.255923      -88.165258
  AL         267.888805     -123.378151      -88.383784
  AL         268.541662     -121.500380      -88.602309
  AL         269.194518     -119.622608      -88.820835
  AL         269.847374     -117.744837      -89.039360
  AL         270.500230     -115.867066      -89.257886
  AL         271.153086     -113.989294      -89.476412
  AL         271.805943     -112.111523      -89.694937
  AL         272.458799     -110.233752      -89.913463
  AL         273.111655     -108.355980      -90.131989
  AL         273.764511     -106.478209      -90.350514
  AL         274.417367     -104.600437      -90.569040
  AL         275.070224     -102.722666      -90.787565
  AL         275.723080     -100.844895      -91.006091
  AL         276.375936      -98.967123      -91.224617
  AL         277.028792      -97.089352      -91.443142
  AL         277.681648      -95.211581      -91.661668
  AL         278.334505      -93.333809      -91.880194
  AL         278.987361      -91.456038      -92.098719
  AL         279.640217      -89.578266      -92.317245
  AL         280.293073      -87.700495      -92.535770
  AL         280.945929      -85.822724      -92.754296
  AL         281.598786      -83.944952      -92.972822
  AL         282.251642      -82.067181      -93.191347
  AL         282.904498      -80.189410      -93.409873
  AL         283.557354      -78.311638      -93.628398
  AL         284.210210      -76.433867      -93.846924
  AL         284.863067      -74.556095      -94.065450
  AL         285.515923      -72.678324      -94.283975
  AL         286.168779      -70.800553      -94.502501
  AL         286.821635      -68.922781      -94.721027
  AL         287.474491      -67.045010      -94.939552
  AL         288.127348      -65.167239      -95.158078
  AL         288.780204      -63.289467      -95.376603
  AL         289.433060      -61.411696      -95.595129
  AL         290.085916      -59.533924      -95.813655
  AL         290.738772      -57.656153      -96.032180
  AL         291.391628      -55.778382      -96.250706
  AL         292.044485      -53.900610      -96.469232
  AL         292.697341      -52.022839      -96.687757
  AL         293.350197      -50.145068      -96.906283
  AL         294.003053      -48.267296      -97.124808
  AL         294.655909      -46.389525      -97.343334
  AL         295.308766      -44.511753      -97.561860
  AL         295.961622      -42.633982      -97.780385
  AL         296.614478      -40.756211      -97.998911
  AL         297.267334      -38.878439      -98.217436
  AL         297.920190      -37.000668      -98.435962
  AL         298.573047      -35.122897      -98.654488
  A          118.746226       88.553745     -105.472820
  A          117.038136       89.380148     -104.840772
  A          115.330045       90.206551     -104.208725
  A          113.621955       91.032954     -103.576677
  A          111.913864       91.859358     -102.944629
  A          110.205774       92.685761     -102.312581
  A          108.497683       93.512164     -101.680533
  A          106.789593       94.338567     -101.048485
  A          105.081502       95.164970     -100.416437
  A          103.373412       95.991374      -99.784389
  A          101.665321       96.817777      -99.152341
  A           99.957231       97.644180      -98.520293
  A           98.249140       98.470583      -97.888245
  A           96.541049       99.296986      -97.256197
  A           94.832959      100.123389      -96.624149
  A           93.124868      100.949793      -95.992101
  A           91.416778      101.776196      -95.360053
  A           89.708687      102.602599      -94.728005
  A           88.000597      103.429002      -94.095957
  A           86.292506      104.255405      -93.463909
  AL          84.584416      105.081809      -92.831862
  AL          82.876325      105.908212      -92.199814
  AL          81.168235      106.734615      -91.567766
  AL          79.460144      107.561018      -90.935718
  AL          77.752054      108.387421      -90.303670
  AL          76.043963      109.213824      -89.671622
  AL          74.335873      110.040228      -89.039574
  AL          72.627782      110.866631      -88.407526
  AL          70.919692      111.693034      -87.775478
  AL          69.211601      112.519437      -87.143430
  AL          67.503511      113.345840      -86.511382
  AL          65.795420      114.172243      -85.879334
  AL          64.087330      114.998647      -85.247286
  AL          62.379239      115.825050      -84.615238
  AL          60.671149      116.651453      -83.983190
  AL          58.963058      117.477856      -83.351142
  AL          57.254968      118.304259      -82.719094
  AL          55.546877      119.130663      -82.087046
  AL          53.838787      119.957066      -81.454999
  AL          52.130696      120.783469      -80.822951
  AL          50.422606      121.609872      -80.190903
  AL          48.714515      122.436275      -79.558855
  AL          47.006425      123.262678      -78.926807
  AL          45.298334      124.089082      -78.294759
  AL          43.590244      124.915485      -77.662711
  AL          41.882153      125.741888      -77.030663
  AL          40.174063      126.568291      -76.398615
  AL          38.465972      127.394694      -75.766567
  AL          36.757882      128.221098      -75.134519
  AL          35.049791      129.047501      -74.502471
  AL          33.341701      129.873904      -73.870423
  AL          31.633610      130.700307      -73.238375
  AL          29.925520      131.526710      -72.606327
  AL          28.217429      132.353113      -71.974279
  AL          26.509339      133.179517      -71.342231
  AL          24.801248      134.005920      -70.710183
  AL          23.093158      134.832323      -70.078135
  AL          21.385067      135.658726      -69.446088
  AL          19.676977      136.485129      -68.814040
  AL          17.968886      137.311532      -68.181992
  AL          16.260796      138.137936      -67.549944
  AL          14.552705      138.964339      -66.917896
  AL          12.844615      139.790742      -66.285848
  AL          11.136524      140.617145      -65.653800
  AL           9.428434      141.443548      -65.021752
  AL           7.720343      142.269952      -64.389704
  AL           6.012253      143.096355      -63.757656
  AL           4.304162      143.922758      -63.125608
  AL           2.596072      144.749161      -62.493560
  AL           0.887981      145.575564      -61.861512
  A         -207.043993      -19.988628      282.527530
  A         -208.362838      -18.579105      282.004182
  A         -209.681684      -17.169583      281.480834
  A         -211.000529      -15.760060      280.957487
  A         -212.319375      -14.350538      280.434139
  A         -213.638220      -12.941015      279.910791
  A         -214.957066      -11.531492      279.387444
  A         -216.275911      -10.121970      278.864096
  A         -217.594756       -8.712447      278.340748
  A         -218.913602       -7.302925      277.817401
  A         -220.232447       -5.893402      277.294053
  A         -221.551293       -4.483879      276.770705
  A         -222.870138       -3.074357      276.247358
  A         -224.188984       -1.664834      275.724010
  A         -225.507829       -0.255312      275.200662
  A         -226.826674        1.154211      274.677315
  A         -228.145520        2.563733      274.153967
  A         -229.464365        3.973256      273.630619
  A         -230.783211        5.382779      273.107272
  A         -232.102056        6.792301      272.583924
  AL        -233.420902        8.201824      272.060576
  AL        -234.739747        9.611346      271.537229
  AL        -236.058593       11.020869      271.013881
  AL        -237.377438       12.430392      270.490533
  AL        -238.696283       13.839914      269.967186
  AL        -240.015129       15.249437      269.443838
  AL        -241.333974       16.658959      268.920490
  AL        -242.652820       18.068482      268.397143
  AL        -243.971665       19.478005      267.873795
  AL        -245.290511       20.887527      267.350447
  AL        -246.609356       22.297050      266.827100
  AL        -247.928202       23.706572      266.303752
  AL        -249.247047       25.116095      265.780404
  AL        -250.565892       26.525617      265.257056
  AL        -251.884738       27.935140      264.733709
  AL        -253.203583       29.344663      264.210361
  AL        -254.522429       30.754185      263.687013
  AL        -255.841274       32.163708      263.163666
  AL        -257.160120       33.573230      262.640318
  AL        -258.478965       34.982753      262.116970
  AL        -259.797810       36.392276      261.593623
  AL        -261.116656       37.801798      261.070275
  AL        -262.435501       39.211321      260.546927
  AL        -263.754347       40.620843      260.023580
  AL        -265.073192       42.030366      259.500232
  AL        -266.392038       43.439888      258.976884
  AL        -267.710883       44.849411      258.453537
  AL        -269.029729       46.258934      257.930189
  AL        -270.348574       47.668456      257.406841
  AL        -271.667419       49.077979      256.883494
  AL        -272.986265       50.487501      256.360146
  AL        -274.305110       51.897024      255.836798
  AL        -275.623956       53.306547      255.313451
  AL        -276.942801       54.716069      254.790103
  AL        -278.261647       56.125592      254.266755
  AL        -279.580492       57.535114      253.743408
  AL        -280.899338       58.944637      253.220060
  AL        -282.218183       60.354159      252.696712
  AL        -283.537028       61.763682      252.173365
  AL        -284.855874       63.173205      251.650017
  AL        -286.174719       64.582727      251.126669
  AL        -287.493565       65.992250      250.603322
  AL        -288.812410       67.401772      250.079974
  AL        -290.131256       68.811295      249.556626
  AL        -291.450101       70.220818      249.033279
  AL        -292.768946       71.630340      248.509931
  AL        -294.087792       73.039863      247.986583
  AL        -295.406637       74.449385      247.463236
  AL        -296.725483       75.858908      246.939888
  AL        -298.044328       77.268431      246.416540
  A          152.720518     -299.974871      159.596054
  A          151.459266     -299.242417      158.227568
  A          150.198014     -298.509964      156.859082
  A          148.936762     -297.777510      155.490596
  A          147.675510     -297.045056      154.122109
  A          146.414258     -296.312602      152.753623
  A          145.153006     -295.580149      151.385137
  A          143.891753     -294.847695      150.016651
  A          142.630501     -294.115241      148.648164
  A          141.369249     -293.382787      147.279678
  A          140.107997     -292.650334      145.911192
  A          138.846745     -291.917880      144.542706
  A          137.585493     -291.185426      143.174220
  A          136.324241     -290.452972      141.805733
  A          135.062989     -289.720519      140.437247
  A          133.801736     -288.988065      139.068761
  A          132.540484     -288.255611      137.700275
  A          131.279232     -287.523157      136.331788
  A          130.017980     -286.790704      134.963302
  A          128.756728     -286.058250      133.594816
  AL         127.495476     -285.325796      132.226330
  AL         126.234224     -284.593342      130.857843
  AL         124.972972     -283.860889      129.489357
  AL         123.711719     -283.128435      128.120871
  AL         122.450467     -282.395981      126.752385
  AL         121.189215     -281.663527      125.383898
  AL         119.927963     -280.931073      124.015412
  AL         118.666711     -280.198620      122.646926
  AL         117.405459     -279.466166      121.278440
  AL         116.144207     -278.733712      119.909954
  AL         114.882955     -278.001258      118.541467
  AL         113.621702     -277.268805      117.172981
  AL         112.360450     -276.536351      115.804495
  AL         111.099198     -275.803897      114.436009
  AL         109.837946     -275.071443      113.067522
  AL         108.576694     -274.338990      111.699036
  AL         107.315442     -273.606536      110.330550
  AL         106.054190     -272.874082      108.962064
  AL         104.792938     -272.141628      107.593577
  AL         103.531685     -271.409175      106.225091
  AL         102.270433     -270.676721      104.856605
  AL         101.009181     -269.944267      103.488119
  AL          99.747929     -269.211813      102.119632
  AL          98.486677     -268.479360      100.751146
  AL          97.225425     -267.746906       99.382660
  AL          95.964173     -267.014452       98.014174
  AL          94.702921     -266.281998       96.645687
  AL          93.441668     -265.549545       95.277201
  AL          92.180416     -264.817091       93.908715
  AL          90.919164     -264.084637       92.540229
  AL          89.657912     -263.352183       91.171743
  AL          88.396660     -262.619730       89.803256
  AL          87.135408     -261.887276       88.434770
  AL          85.874156     -261.154822       87.066284
  AL          84.612904     -260.422368       85.697798
  AL          83.351651     -259.689915       84.329311
  AL          82.090399     -258.957461       82.960825
  AL          80.829147     -258.225007       81.592339
  AL          79.567895     -257.492553       80.223853
  AL          78.306643     -256.760100       78.855366
  AL          77.045391     -256.027646       77.486880
  AL          75.784139     -255.295192       76.118394
  AL          74.522887     -254.562738       74.749908
  AL          73.261634     -253.830285       73.381421
  AL          72.000382     -253.097831       72.012935
  AL          70.739130     -252.365377       70.644449
  AL          69.477878     -251.632923       69.275963
  AL          68.216626     -250.900470       67.907477
  AL          66.955374     -250.168016       66.538990
  AL          65.694122     -249.435562       65.170504
  A          128.145997     -209.389489      266.204354
  A          128.308365     -207.919683      264.857763
  A          128.470732     -206.449876      263.511173
  A          128.633100     -204.980070      262.164582
  A          128.795468     -203.510264      260.817992
  A          128.957836     -202.040458      259.471401
  A          129.120203     -200.570651      258.124810
  A          129.282571     -199.100845      256.778220
  A          129.444939     -197.631039      255.431629
  A          129.607307     -196.161232      254.085039
  A          129.769674     -194.691426      252.738448
  A          129.932042     -193.221620      251.391857
  A          130.094410     -191.751814      250.045267
  A          130.256778     -190.282007      248.698676
  A          130.419145     -188.812201      247.352086
  A          130.581513     -187.342395      246.005495
  A          130.743881     -185.872589      244.658904
  A          130.906249     -184.402782      243.312314
  A          131.068616     -182.932976      241.965723
  A          131.230984     -181.463170      240.619132
  AL         131.393352     -179.993364      239.272542
  AL         131.555720     -178.523557      237.925951
  AL         131.718088     -177.053751      236.579361
  AL         131.880455     -175.583945      235.232770
  AL         132.042823     -174.114139      233.886179
  AL         132.205191     -172.644332      232.539589
  AL         132.367559     -171.174526      231.192998
  AL         132.529926     -169.704720      229.846408
  AL         132.692294     -168.234913      228.499817
  AL         132.854662     -166.765107      227.153226
  AL         133.017030     -165.295301      225.806636
  AL         133.179397     -163.825495      224.460045
  AL         133.341765     -162.355688      223.113455
  AL         133.504133     -160.885882      221.766864
  AL         133.666501     -159.416076      220.420273
  AL         133.828868     -157.946270      219.073683
  AL         133.991236     -156.476463      217.727092
  AL         134.153604     -155.006657      216.380502
  AL         134.315972     -153.536851      215.033911
  AL         134.478339     -152.067045      213.687320
  AL         134.640707     -150.597238      212.340730
  AL         134.803075     -149.127432      210.994139
  AL         134.965443     -147.657626      209.647548
  AL         135.127810     -146.187820      208.300958
  AL         135.290178     -144.718013      206.954367
  AL         135.452546     -143.248207      205.607777
  AL         135.614914     -141.778401      204.261186
  AL         135.777281     -140.308594      202.914595
  AL         135.939649     -138.838788      201.568005
  AL         136.102017     -137.368982      200.221414
  AL         136.264385     -135.899176      198.874824
  AL         136.426752     -134.429369      197.528233
  AL         136.589120     -132.959563      196.181642
  AL         136.751488     -131.489757      194.835052
  AL         136.913856     -130.019951      193.488461
  AL         137.076223     -128.550144      192.141871
  AL         137.238591     -127.080338      190.795280
  AL         137.400959     -125.610532      189.448689
  AL         137.563327     -124.140726      188.102099
  AL         137.725694     -122.670919      186.755508
  AL         137.888062     -121.201113      185.408918
  AL         138.050430     -119.731307      184.062327
  AL         138.212798     -118.261501      182.715736
  AL         138.375165     -116.791694      181.369146
  AL         138.537533     -115.321888      180.022555
  AL         138.699901     -113.852082      178.675965
  AL         138.862269     -112.382276      177.329374
  AL         139.024636     -110.912469      175.982783
  AL         139.187004     -109.442663      174.636193
  AL         139.349372     -107.972857      173.289602
  A           43.333217     -159.960051     -252.986977
  A           44.158966     -161.781340     -252.954666
  A           44.984714     -163.602630     -252.922356
  A           45.810463     -165.423919     -252.890046
  A           46.636211     -167.245209     -252.857735
  A           47.461959     -169.066498     -252.825425
  A           48.287708     -170.887788     -252.793115
  A           49.113456     -172.709077     -252.760804
  A           49.939205     -174.530367     -252.728494
  A           50.764953     -176.351657     -252.696184
  A           51.590701     -178.172946     -252.663873
  A           52.416450     -179.994236     -252.631563
  A           53.242198     -181.815525     -252.599253
  A           54.067947     -183.636815     -252.566942
  A           54.893695     -185.458104     -252.534632
  A           55.719443     -187.279394     -252.502322
  A           56.545192     -189.100683     -252.470011
  A           57.370940     -190.921973     -252.437701
  A           58.196689     -192.743262     -252.405391
  A           59.022437     -194.564552     -252.373080
  AL          59.848185     -196.385842     -252.340770
  AL          60.673934     -198.207131     -252.308460
  AL          61.499682     -200.028421     -252.276149
  AL          62.325431     -201.849710     -252.243839
  AL          63.151179     -203.671000     -252.211529
  AL          63.976927     -205.492289     -252.179218
  AL          64.802676     -207.313579     -252.146908
  AL          65.628424     -209.134868     -252.114598
  AL          66.454173     -210.956158     -252.082287
  AL          67.279921     -212.777448     -252.049977
  AL          68.105669     -214.598737     -252.017667
  AL          68.931418     -216.420027     -251.985356
  AL          69.757166     -218.241316     -251.953046
  AL          70.582914     -220.062606     -251.920736
  AL          71.408663     -221.883895     -251.888425
  AL          72.234411     -223.705185     -251.856115
  AL          73.060160     -225.526474     -251.823805
  AL          73.885908     -227.347764     -251.791494
  AL          74.711656     -229.169053     -251.759184
  AL          75.537405     -230.990343     -251.726874
  AL          76.363153     -232.811633     -251.694563
  AL          77.188902     -234.632922     -251.662253
  AL          78.014650     -236.454212     -251.629943
  AL          78.840398     -238.275501     -251.597632
  AL          79.666147     -240.096791     -251.565322
  AL          80.491895     -241.918080     -251.533012
  AL          81.317644     -243.739370     -251.500701
  AL          82.143392     -245.560659     -251.468391
  AL          82.969140     -247.381949     -251.436081
  AL          83.794889     -249.203239     -251.403770
  AL          84.620637     -251.024528     -251.371460
  AL          85.446386     -252.845818     -251.339150
  AL          86.272134     -254.667107     -251.306839
  AL          87.097882     -256.488397     -251.274529
  AL          87.923631     -258.309686     -251.242219
  AL          88.749379     -260.130976     -251.209908
  AL          89.575128     -261.952265     -251.177598
  AL          90.400876     -263.773555     -251.145288
  AL          91.226624     -265.594844     -251.112977
  AL          92.052373     -267.416134     -251.080667
  AL          92.878121     -269.237424     -251.048357
  AL          93.703870     -271.058713     -251.016046
  AL          94.529618     -272.880003     -250.983736
  AL          95.355366     -274.701292     -250.951426
  AL          96.181115     -276.522582     -250.919115
  AL          97.006863     -278.343871     -250.886805
  AL          97.832612     -280.165161     -250.854495
  AL          98.658360     -281.986450     -250.822184
  AL          99.484108     -283.807740     -250.789874
  AL         100.309857     -285.629030     -250.757564
  A         -202.187699     -144.705366      222.787011
  A         -201.096332     -145.325154      221.229840
  A         -200.004965     -145.944941      219.672668
  A         -198.913599     -146.564728      218.115497
  A         -197.822232     -147.184515      216.558326
  A         -196.730865     -147.804302      215.001154
  A         -195.639499     -148.424090      213.443983
  A         -194.548132     -149.043877      211.886811
  A         -193.456765     -149.663664      210.329640
  A         -192.365399     -150.283451      208.772469
  A         -191.274032     -150.903238      207.215297
  A         -190.182665     -151.523026      205.658126
  A         -189.091299     -152.142813      204.100955
  A         -187.999932     -152.762600      202.543783
  A         -186.908565     -153.382387      200.986612
  A         -185.817199     -154.002175      199.429441
  A         -184.725832     -154.621962      197.872269
  A         -183.634465     -155.241749      196.315098
  A         -182.543099     -155.861536      194.757927
  A         -181.451732     -156.481323      193.200755
  AL        -180.360365     -157.101111      191.643584
  AL        -179.268999     -157.720898      190.086413
  AL        -178.177632     -158.340685      188.529241
  AL        -177.086265     -158.960472      186.972070
  AL        -175.994899     -159.580259      185.414899
  AL        -174.903532     -160.200047      183.857727
  AL        -173.812165     -160.819834      182.300556
  AL        -172.720799     -161.439621      180.743384
  AL        -171.629432     -162.059408      179.186213
  AL        -170.538065     -162.679195      177.629042
  AL        -169.446699     -163.298983      176.071870
  AL        -168.355332     -163.918770      174.514699
  AL        -167.263965     -164.538557      172.957528
  AL        -166.172599     -165.158344      171.400356
  AL        -165.081232     -165.778131      169.843185
  AL        -163.989865     -166.397919      168.286014
  AL        -162.898499     -167.017706      166.728842
  AL        -161.807132     -167.637493      165.171671
  AL        -160.715765     -168.257280      163.614500
  AL        -159.624399     -168.877067      162.057328
  AL        -158.533032     -169.496855      160.500157
  AL        -157.441665     -170.116642      158.942986
  AL        -156.350299     -170.736429      157.385814
  AL        -155.258932     -171.356216      155.828643
  AL        -154.167565     -171.976004      154.271472
  AL        -153.076199     -172.595791      152.714300
  AL        -151.984832     -173.215578      151.157129
  AL        -150.893465     -173.835365      149.599957
  AL        -149.802099     -174.455152      148.042786
  AL        -148.710732     -175.074940      146.485615
  AL        -147.619365     -175.694727      144.928443
  AL        -146.527999     -176.314514      143.371272
  AL        -145.436632     -176.934301      141.814101
  AL        -144.345265     -177.554088      140.256929
  AL        -143.253899     -178.173876      138.699758
  AL        -142.162532     -178.793663      137.142587
  AL        -141.071165     -179.413450      135.585415
  AL        -139.979799     -180.033237      134.028244
  AL        -138.888432     -180.653024      132.471073
  AL        -137.797065     -181.272812      130.913901
  AL        -136.705699     -181.892599      129.356730
  AL        -135.614332     -182.512386      127.799559
  AL        -134.522965     -183.132173      126.242387
  AL        -133.431599     -183.751960      124.685216
  AL        -132.340232     -184.371748      123.128044
  AL        -131.248865     -184.991535      121.570873
  AL        -130.157499     -185.611322      120.013702
  AL        -129.066132     -186.231109      118.456530
  AL        -127.974765     -186.850897      116.899359
  AL        -126.883399     -187.470684      115.342188
  A          -11.466717     -208.161492     -104.123814
  A          -10.431058     -208.009628     -102.419599
  A           -9.395398     -207.857765     -100.715384
  A           -8.359739     -207.705901      -99.011170
  A           -7.324080     -207.554037      -97.306955
  A           -6.288421     -207.402174      -95.602740
  A           -5.252762     -207.250310      -93.898526
  A           -4.217102     -207.098446      -92.194311
  A           -3.181443     -206.946583      -90.490097
  A           -2.145784     -206.794719      -88.785882
  A           -1.110125     -206.642855      -87.081667
  A           -0.074465     -206.490992      -85.377453
  A            0.961194     -206.339128      -83.673238
  A            1.996853     -206.187264      -81.969024
  A            3.032512     -206.035401      -80.264809
  A            4.068171     -205.883537      -78.560594
  A            5.103831     -205.731673      -76.856380
  A            6.139490     -205.579810      -75.152165
  A            7.175149     -205.427946      -73.447951
  A            8.210808     -205.276082      -71.743736
  AL           9.246467     -205.124219      -70.039521
  AL          10.282127     -204.972355      -68.335307
  AL          11.317786     -204.820491      -66.631092
  AL          12.353445     -204.668628      -64.926877
  AL          13.389104     -204.516764      -63.222663
  AL          14.424763     -204.364900      -61.518448
  AL          15.460423     -204.213037      -59.814234
  AL          16.496082     -204.061173      -58.110019
  AL          17.531741     -203.909309      -56.405804
  AL          18.567400     -203.757446      -54.701590
  AL          19.603059     -203.605582      -52.997375
  AL          20.638719     -203.453718      -51.293161
  AL          21.674378     -203.301855      -49.588946
  AL          22.710037     -203.149991      -47.884731
  AL          23.745696     -202.998127      -46.180517
  AL          24.781355     -202.846264      -44.476302
  AL          25.817015     -202.694400      -42.772088
  AL          26.852674     -202.542536      -41.067873
  AL          27.888333     -202.390673      -39.363658
  AL          28.923992     -202.238809      -37.659444
  AL          29.959651     -202.086945      -35.955229
  AL          30.995311     -201.935082      -34.251014
  AL          32.030970     -201.783218      -32.546800
  AL          33.066629     -201.631354      -30.842585
  AL          34.102288     -201.479491      -29.138371
  AL          35.137947     -201.327627      -27.434156
  AL          36.173607     -201.175763      -25.729941
  AL          37.209266     -201.023900      -24.025727
  AL          38.244925     -200.872036      -22.321512
  AL          39.280584     -200.720172      -20.617298
  AL          40.316243     -200.568309      -18.913083
  AL          41.351903     -200.416445      -17.208868
  AL          42.387562     -200.264581      -15.504654
  AL          43.423221     -200.112718      -13.800439
  AL          44.458880     -199.960854      -12.096225
  AL          45.494539     -199.808991      -10.392010
  AL          46.530199     -199.657127       -8.687795
  AL          47.565858     -199.505263       -6.983581
  AL          48.601517     -199.353400       -5.279366
  AL          49.637176     -199.201536       -3.575151
  AL          50.672835     -199.049672       -1.870937
  AL          51.708495     -198.897809       -0.166722
  AL          52.744154     -198.745945        1.537492
  AL          53.779813     -198.594081        3.241707
  AL          54.815472     -198.442218        4.945922
  AL          55.851132     -198.290354        6.650136
  AL          56.886791     -198.138490        8.354351
  AL          57.922450     -197.986627       10.058565
  AL          58.958109     -197.834763       11.762780
  AL          59.993768     -197.682899       13.466995
  A          179.994075      -76.198894       40.914071
  A          179.410785      -74.351751       40.416240
  A          178.827496      -72.504608       39.918408
  A          178.244207      -70.657465       39.420577
  A          177.660917      -68.810322       38.922746
  A          177.077628      -66.963179       38.424914
  A          176.494339      -65.116036       37.927083
  A          175.911049      -63.268893       37.429251
  A          175.327760      -61.421750       36.931420
  A          174.744471      -59.574606       36.433589
  A          174.161181      -57.727463       35.935757
  A          173.577892      -55.880320       35.437926
  A          172.994603      -54.033177       34.940094
  A          172.411313      -52.186034       34.442263
  A          171.828024      -50.338891       33.944432
  A          171.244734      -48.491748       33.446600
  A          170.661445      -46.644605       32.948769
  A          170.078156      -44.797462       32.450937
  A          169.494866      -42.950319       31.953106
  A          168.911577      -41.103176       31.455275
  AL         168.328288      -39.256033       30.957443
  AL         167.744998      -37.408890       30.459612
  AL         167.161709      -35.561747       29.961780
  AL         166.578420      -33.714604       29.463949
  AL         165.995130      -31.867461       28.966118
  AL         165.411841      -30.020318       28.468286
  AL         164.828552      -28.173175       27.970455
  AL         164.245262      -26.326032       27.472623
  AL         163.661973      -24.478889       26.974792
  AL         163.078683      -22.631746       26.476961
  AL         162.495394      -20.784603       25.979129
  AL         161.912105      -18.937459       25.481298
  AL         161.328815      -17.090316       24.983467
  AL         160.745526      -15.243173       24.485635
  AL         160.162237      -13.396030       23.987804
  AL         159.578947      -11.548887       23.489972
  AL         158.995658       -9.701744       22.992141
  AL         158.412369       -7.854601       22.494310
  AL         157.829079       -6.007458       21.996478
  AL         157.245790       -4.160315       21.498647
  AL         156.662501       -2.313172       21.000815
  AL         156.079211       -0.466029       20.502984
  AL         155.495922        1.381114       20.005153
  AL         154.912632        3.228257       19.507321
  AL         154.329343        5.075400       19.009490
  AL         153.746054        6.922543       18.511658
  AL         153.162764        8.769686       18.013827
  AL         152.579475       10.616829       17.515996
  AL         151.996186       12.463972       17.018164
  AL         151.412896       14.311115       16.520333
  AL         150.829607       16.158258       16.022501
  AL         150.246318       18.005401       15.524670
  AL         149.663028       19.852544       15.026839
  AL         149.079739       21.699688       14.529007
  AL         148.496450       23.546831       14.031176
  AL         147.913160       25.393974       13.533344
  AL         147.329871       27.241117       13.035513
  AL         146.746581       29.088260       12.537682
  AL         146.163292       30.935403       12.039850
  AL         145.580003       32.782546       11.542019
  AL         144.996713       34.629689       11.044188
  AL         144.413424       36.476832       10.546356
  AL         143.830135       38.323975       10.048525
  AL         143.246845       40.171118        9.550693
  AL         142.663556       42.018261        9.052862
  AL         142.080267       43.865404        8.555031
  AL         141.496977       45.712547        8.057199
  AL         140.913688       47.559690        7.559368
  AL         140.330399       49.406833        7.061536
  AL         139.747109       51.253976        6.563705
  A         -117.772782      227.007200      -16.342308
  A         -118.018276      226.783951      -14.370027
  A         -118.263770      226.560703      -12.397746
  A         -118.509263      226.337454      -10.425465
  A         -118.754757      226.114205       -8.453184
  A         -119.000250      225.890957       -6.480903
  A         -119.245744      225.667708       -4.508621
  A         -119.491237      225.444459       -2.536340
  A         -119.736731      225.221211       -0.564059
  A         -119.982224      224.997962        1.408222
  A         -120.227718      224.774713        3.380503
  A         -120.473211      224.551465        5.352784
  A         -120.718705      224.328216        7.325066
  A         -120.964198      224.104968        9.297347
  A         -121.209692      223.881719       11.269628
  A         -121.455186      223.658470       13.241909
  A         -121.700679      223.435222       15.214190
  A         -121.946173      223.211973       17.186471
  A         -122.191666      222.988724       19.158752
  A         -122.437160      222.765476       21.131034
  AL        -122.682653      222.542227       23.103315
  AL        -122.928147      222.318978       25.075596
  AL        -123.173640      222.095730       27.047877
  AL        -123.419134      221.872481       29.020158
  AL        -123.664627      221.649232       30.992439
  AL        -123.910121      221.425984       32.964721
  AL        -124.155614      221.202735       34.937002
  AL        -124.401108      220.979486       36.909283
  AL        -124.646601      220.756238       38.881564
  AL        -124.892095      220.532989       40.853845
  AL        -125.137589      220.309740       42.826126
  AL        -125.383082      220.086492       44.798408
  AL        -125.628576      219.863243       46.770689
  AL        -125.874069      219.639994       48.742970
  AL        -126.119563      219.416746       50.715251
  AL        -126.365056      219.193497       52.687532
  AL        -126.610550      218.970248       54.659813
  AL        -126.856043      218.747000       56.632094
  AL        -127.101537      218.523751       58.604376
  AL        -127.347030      218.300502       60.576657
  AL        -127.592524      218.077254       62.548938
  AL        -127.838017      217.854005       64.521219
  AL        -128.083511      217.630756       66.493500
  AL        -128.329004      217.407508       68.465781
  AL        -128.574498      217.184259       70.438063
  AL        -128.819992      216.961010       72.410344
  AL        -129.065485      216.737762       74.382625
  AL        -129.310979      216.514513       76.354906
  AL        -129.556472      216.291264       78.327187
  AL        -129.801966      216.068016       80.299468
  AL        -130.047459      215.844767       82.271749
  AL        -130.292953      215.621518       84.244031
  AL        -130.538446      215.398270       86.216312
  AL        -130.783940      215.175021       88.188593
  AL        -131.029433      214.951772       90.160874
  AL        -131.274927      214.728524       92.133155
  AL        -131.520420      214.505275       94.105436
  AL        -131.765914      214.282026       96.077718
  AL        -132.011408      214.058778       98.049999
  AL        -132.256901      213.835529      100.022280
  AL        -132.502395      213.612280      101.994561
  AL        -132.747888      213.389032      103.966842
  AL        -132.993382      213.165783      105.939123
  AL        -133.238875      212.942535      107.911405
  AL        -133.484369      212.719286      109.883686
  AL        -133.729862      212.496037      111.855967
  AL        -133.975356      212.272789      113.828248
  AL        -134.220849      212.049540      115.800529
  AL        -134.466343      211.826291      117.772810
  AL        -134.711836      211.603043      119.745091
  A          187.712163      245.769974     -223.576694
  A          189.150953      246.538923     -222.419715
  A          190.589743      247.307872     -221.262736
  A          192.028532      248.076821     -220.105756
  A          193.467322      248.845770     -218.948777
  A          194.906112      249.614720     -217.791798
  A          196.344902      250.383669     -216.634818
  A          197.783691      251.152618     -215.477839
  A          199.222481      251.921567     -214.320859
  A          200.661271      252.690516     -213.163880
  A          202.100061      253.459465     -212.006901
  A          203.538851      254.228414     -210.849921
  A          204.977640      254.997363     -209.692942
  A          206.416430      255.766313     -208.535963
  A          207.855220      256.535262     -207.378983
  A          209.294010      257.304211     -206.222004
  A          210.732799      258.073160     -205.065025
  A          212.171589      258.842109     -203.908045
  A          213.610379      259.611058     -202.751066
  A          215.049169      260.380007     -201.594086
  AL         216.487958      261.148957     -200.437107
  AL         217.926748      261.917906     -199.280128
  AL         219.365538      262.686855     -198.123148
  AL         220.804328      263.455804     -196.966169
  AL         222.243117      264.224753     -195.809190
  AL         223.681907      264.993702     -194.652210
  AL         225.120697      265.762651     -193.495231
  AL         226.559487      266.531600     -192.338252
  AL         227.998277      267.300550     -191.181272
  AL         229.437066      268.069499     -190.024293
  AL         230.875856      268.838448     -188.867313
  AL         232.314646      269.607397     -187.710334
  AL         233.753436      270.376346     -186.553355
  AL         235.192225      271.145295     -185.396375
  AL         236.631015      271.914244     -184.239396
  AL         238.069805      272.683193     -183.082417
  AL         239.508595      273.452143     -181.925437
  AL         240.947384      274.221092     -180.768458
  AL         242.386174      274.990041     -179.611479
  AL         243.824964      275.758990     -178.454499
  AL         245.263754      276.527939     -177.297520
  AL         246.702544      277.296888     -176.140540
  AL         248.141333      278.065837     -174.983561
  AL         249.580123      278.834787     -173.826582
  AL         251.018913      279.603736     -172.669602
  AL         252.457703      280.372685     -171.512623
  AL         253.896492      281.141634     -170.355644
  AL         255.335282      281.910583     -169.198664
  AL         256.774072      282.679532     -168.041685
  AL         258.212862      283.448481     -166.884706
  AL         259.651651      284.217430     -165.727726
  AL         261.090441      284.986380     -164.570747
  AL         262.529231      285.755329     -163.413767
  AL         263.968021      286.524278     -162.256788
  AL         265.406810      287.293227     -161.099809
  AL         266.845600      288.062176     -159.942829
  AL         268.284390      288.831125     -158.785850
  AL         269.723180      289.600074     -157.628871
  AL         271.161970      290.369023     -156.471891
  AL         272.600759      291.137973     -155.314912
  AL         274.039549      291.906922     -154.157933
  AL         275.478339      292.675871     -153.000953
  AL         276.917129      293.444820     -151.843974
  AL         278.355918      294.213769     -150.686994
  AL         279.794708      294.982718     -149.530015
  AL         281.233498      295.751667     -148.373036
  AL         282.672288      296.520616     -147.216056
  AL         284.111077      297.289566     -146.059077
  AL         285.549867      298.058515     -144.902098
  AL         286.988657      298.827464     -143.745118
  B          114.057928     -119.067599     -115.926096
  B          113.187964     -120.817297     -115.499810
  B          112.317999     -122.566995     -115.073525
  B          111.448035     -124.316693     -114.647239
  B          110.578071     -126.066391     -114.220953
  B          109.708106     -127.816088     -113.794668
  B          108.838142     -129.565786     -113.368382
  B          107.968177     -131.315484     -112.942096
  B          107.098213     -133.065182     -112.515811
  B          106.228248     -134.814880     -112.089525
  B          105.358284     -136.564577     -111.663240
  B          104.488319     -138.314275     -111.236954
  B          103.618355     -140.063973     -110.810668
  B          102.748390     -141.813671     -110.384383
  B          101.878426     -143.563369     -109.958097
  B          101.008462     -145.313066     -109.531812
  B          100.138497     -147.062764     -109.105526
  B           99.268533     -148.812462     -108.679240
  B           98.398568     -150.562160     -108.252955
  B           97.528604     -152.311858     -107.826669
  BL          96.658639     -154.061556     -107.400384
  BL          95.788675     -155.811253     -106.974098
  BL          94.918710     -157.560951     -106.547812
  BL          94.048746     -159.310649     -106.121527
  BL          93.178781     -161.060347     -105.695241
  BL          92.308817     -162.810045     -105.268956
  BL          91.438853     -164.559742     -104.842670
  BL          90.568888     -166.309440     -104.416384
  BL          89.698924     -168.059138     -103.990099
  BL          88.828959     -169.808836     -103.563813
  BL          87.958995     -171.558534     -103.137528
  BL          87.089030     -173.308231     -102.711242
  BL          86.219066     -175.057929     -102.284956
  BL          85.349101     -176.807627     -101.858671
  BL          84.479137     -178.557325     -101.432385
  BL          83.609172     -180.307023     -101.006100
  BL          82.739208     -182.056720     -100.579814
  BL          81.869244     -183.806418     -100.153528
  BL          80.999279     -185.556116      -99.727243
  BL          80.129315     -187.305814      -99.300957
  BL          79.259350     -189.055512      -98.874671
  BL          78.389386     -190.805210      -98.448386
  BL          77.519421     -192.554907      -98.022100
  BL          76.649457     -194.304605      -97.595815
  BL          75.779492     -196.054303      -97.169529
  BL          74.909528     -197.804001      -96.743243
  BL          74.039563     -199.553699      -96.316958
  BL          73.169599     -201.303396      -95.890672
  BL          72.299634     -203.053094      -95.464387
  BL          71.429670     -204.802792      -95.038101
  BL          70.559706     -206.552490      -94.611815
  BL          69.689741     -208.302188      -94.185530
  BL          68.819777     -210.051885      -93.759244
  BL          67.949812     -211.801583      -93.332959
  BL          67.079848     -213.551281      -92.906673
  BL          66.209883     -215.300979      -92.480387
  BL          65.339919     -217.050677      -92.054102
  BL          64.469954     -218.800375      -91.627816
  BL          63.599990     -220.550072      -91.201531
  BL          62.730025     -222.299770      -90.775245
  BL          61.860061     -224.049468      -90.348959
  BL          60.990097     -225.799166      -89.922674
  BL          60.120132     -227.548864      -89.496388
  BL          59.250168     -229.298561      -89.070103
  BL          58.380203     -231.048259      -88.643817
  BL          57.510239     -232.797957      -88.217531
  BL          56.640274     -234.547655      -87.791246
  BL          55.770310     -236.297353      -87.364960
  BL          54.900345     -238.047050      -86.938675
  BL          54.030381     -239.796748      -86.512389
  B           50.537372      226.854737      104.303311
  B           48.680809      227.282322      104.911870
  B           46.824246      227.709907      105.520430
  B           44.967683      228.137493      106.128989
  B           43.111120      228.565078      106.737548
  B           41.254557      228.992663      107.346107
  B           39.397993      229.420248      107.954666
  B           37.541430      229.847833      108.563225
  B           35.684867      230.275418      109.171784
  B           33.828304      230.703004      109.780343
  B           31.971741      231.130589      110.388902
  B           30.115178      231.558174      110.997461
  B           28.258614      231.985759      111.606020
  B           26.402051      232.413344      112.214579
  B           24.545488      232.840929      112.823138
  B           22.688925      233.268515      113.431697
  B           20.832362      233.696100      114.040257
  B           18.975799      234.123685      114.648816
  B           17.119235      234.551270      115.257375
  B           15.262672      234.978855      115.865934
  BL          13.406109      235.406440      116.474493
  BL          11.549546      235.834026      117.083052
  BL           9.692983      236.261611      117.691611
  BL           7.836420      236.689196      118.300170
  BL           5.979856      237.116781      118.908729
  BL           4.123293      237.544366      119.517288
  BL           2.266730      237.971951      120.125847
  BL           0.410167      238.399537      120.734406
  BL          -1.446396      238.827122      121.342965
  BL          -3.302959      239.254707      121.951524
  BL          -5.159522      239.682292      122.560083
  BL          -7.016086      240.109877      123.168643
  BL          -8.872649      240.537462      123.777202
  BL         -10.729212      240.965048      124.385761
  BL         -12.585775      241.392633      124.994320
  BL         -14.442338      241.820218      125.602879
  BL         -16.298901      242.247803      126.211438
  BL         -18.155465      242.675388      126.819997
  BL         -20.012028      243.102974      127.428556
  BL         -21.868591      243.530559      128.037115
  BL         -23.725154      243.958144      128.645674
  BL         -25.581717      244.385729      129.254233
  BL         -27.438280      244.813314      129.862792
  BL         -29.294844      245.240899      130.471351
  BL         -31.151407      245.668485      131.079910
  BL         -33.007970      246.096070      131.688470
  BL         -34.864533      246.523655      132.297029
  BL         -36.721096      246.951240      132.905588
  BL         -38.577659      247.378825      133.514147
  BL         -40.434223      247.806410      134.122706
  BL         -42.290786      248.233996      134.731265
  BL         -44.147349      248.661581      135.339824
  BL         -46.003912      249.089166      135.948383
  BL         -47.860475      249.516751      136.556942
  BL         -49.717038      249.944336      137.165501
  BL         -51.573602      250.371921      137.774060
  BL         -53.430165      250.799507      138.382619
  BL         -55.286728      251.227092      138.991178
  BL         -57.143291      251.654677      139.599737
  BL         -58.999854      252.082262      140.208297
  BL         -60.856417      252.509847      140.816856
  BL         -62.712981      252.937432      141.425415
  BL         -64.569544      253.365018      142.033974
  BL         -66.426107      253.792603      142.642533
  BL         -68.282670      254.220188      143.251092
  BL         -70.139233      254.647773      143.859651
  BL         -71.995796      255.075358      144.468210
  BL         -73.852360      255.502943      145.076769
  BL         -75.708923      255.930529      145.685328
  BL         -77.565486      256.358114      146.293887
  B         -198.934429      170.110764      -28.841354
  B         -196.982709      170.541229      -28.767273
  B         -195.030988      170.971695      -28.693192
  B         -193.079268      171.402161      -28.619111
  B         -191.127548      171.832627      -28.545030
  B         -189.175828      172.263092      -28.470949
  B         -187.224108      172.693558      -28.396868
  B         -185.272388      173.124024      -28.322787
  B         -183.320668      173.554490      -28.248705
  B         -181.368948      173.984955      -28.174624
  B         -179.417228      174.415421      -28.100543
  B         -177.465508      174.845887      -28.026462
  B         -175.513788      175.276353      -27.952381
  B         -173.562068      175.706818      -27.878300
  B         -171.610348      176.137284      -27.804219
  B         -169.658628      176.567750      -27.730138
  B         -167.706907      176.998216      -27.656057
  B         -165.755187      177.428681      -27.581976
  B         -163.803467      177.859147      -27.507894
  B         -161.851747      178.289613      -27.433813
  BL        -159.900027      178.720079      -27.359732
  BL        -157.948307      179.150544      -27.285651
  BL        -155.996587      179.581010      -27.211570
  BL        -154.044867      180.011476      -27.137489
  BL        -152.093147      180.441942      -27.063408
  BL        -150.141427      180.872407      -26.989327
  BL        -148.189707      181.302873      -26.915246
  BL        -146.237987      181.733339      -26.841164
  BL        -144.286267      182.163805      -26.767083
  BL        -142.334547      182.594270      -26.693002
  BL        -140.382826      183.024736      -26.618921
  BL        -138.431106      183.455202      -26.544840
  BL        -136.479386      183.885667      -26.470759
  BL        -134.527666      184.316133      -26.396678
  BL        -132.575946      184.746599      -26.322597
  BL        -130.624226      185.177065      -26.248516
  BL        -128.672506      185.607530      -26.174434
  BL        -126.720786      186.037996      -26.100353
  BL        -124.769066      186.468462      -26.026272
  BL        -122.817346      186.898928      -25.952191
  BL        -120.865626      187.329393      -25.878110
  BL        -118.913906      187.759859      -25.804029
  BL        -116.962186      188.190325      -25.729948
  BL        -115.010466      188.620791      -25.655867
  BL        -113.058746      189.051256      -25.581786
  BL        -111.107025      189.481722      -25.507704
  BL        -109.155305      189.912188      -25.433623
  BL        -107.203585      190.342654      -25.359542
  BL        -105.251865      190.773119      -25.285461
  BL        -103.300145      191.203585      -25.211380
  BL        -101.348425      191.634051      -25.137299
  BL         -99.396705      192.064517      -25.063218
  BL         -97.444985      192.494982      -24.989137
  BL         -95.493265      192.925448      -24.915056
  BL         -93.541545      193.355914      -24.840975
  BL         -91.589825      193.786380      -24.766893
  BL         -89.638105      194.216845      -24.692812
  BL         -87.686385      194.647311      -24.618731
  BL         -85.734665      195.077777      -24.544650
  BL         -83.782944      195.508243      -24.470569
  BL         -81.831224      195.938708      -24.396488
  BL         -79.879504      196.369174      -24.322407
  BL         -77.927784      196.799640      -24.248326
  BL         -75.976064      197.230106      -24.174245
  BL         -74.024344      197.660571      -24.100163
  BL         -72.072624      198.091037      -24.026082
  BL         -70.120904      198.521503      -23.952001
  BL         -68.169184      198.951969      -23.877920
  BL         -66.217464      199.382434      -23.803839
  BL         -64.265744      199.812900      -23.729758
  B            4.211795      -39.507312      187.833774
  B            5.197226      -38.778859      186.253179
  B            6.182657      -38.050406      184.672583
  B            7.168088      -37.321953      183.091988
  B            8.153519      -36.593500      181.511392
  B            9.138949      -35.865047      179.930797
  B           10.124380      -35.136594      178.350201
  B           11.109811      -34.408141      176.769606
  B           12.095242      -33.679688      175.189010
  B           13.080673      -32.951235      173.608415
  B           14.066104      -32.222782      172.027819
  B           15.051535      -31.494329      170.447224
  B           16.036966      -30.765876      168.866628
  B           17.022397      -30.037423      167.286033
  B           18.007828      -29.308970      165.705437
  B           18.993258      -28.580517      164.124842
  B           19.978689      -27.852064      162.544246
  B           20.964120      -27.123611      160.963651
  B           21.949551      -26.395158      159.383055
  B           22.934982      -25.666705      157.802460
  BL          23.920413      -24.938252      156.221864
  BL          24.905844      -24.209799      154.641269
  BL          25.891275      -23.481346      153.060673
  BL          26.876706      -22.752893      151.480078
  BL          27.862137      -22.024440      149.899482
  BL          28.847567      -21.295987      148.318887
  BL          29.832998      -20.567534      146.738291
  BL          30.818429      -19.839081      145.157696
  BL          31.803860      -19.110628      143.577100
  BL          32.789291      -18.382175      141.996505
  BL          33.774722      -17.653722      140.415909
  BL          34.760153      -16.925269      138.835313
  BL          35.745584      -16.196816      137.254718
  BL          36.731015      -15.468363      135.674122
  BL          37.716446      -14.739910      134.093527
  BL          38.701876      -14.011457      132.512931
  BL          39.687307      -13.283004      130.932336
  BL          40.672738      -12.554551      129.351740
  BL          41.658169      -11.826098      127.771145
  BL          42.643600      -11.097645      126.190549
  BL          43.629031      -10.369192      124.609954
  BL          44.614462       -9.640739      123.029358
  BL          45.599893       -8.912286      121.448763
  BL          46.585324       -8.183833      119.868167
  BL          47.570755       -7.455380      118.287572
  BL          48.556185       -6.726927      116.706976
  BL          49.541616       -5.998474      115.126381
  BL          50.527047       -5.270021      113.545785
  BL          51.512478       -4.541568      111.965190
  BL          52.497909       -3.813115      110.384594
  BL          53.483340       -3.084662      108.803999
  BL          54.468771       -2.356209      107.223403
  BL          55.454202       -1.627756      105.642808
  BL          56.439633       -0.899303      104.062212
  BL          57.425064       -0.170850      102.481617
  BL          58.410494        0.557603      100.901021
  BL          59.395925        1.286056       99.320426
  BL          60.381356        2.014509       97.739830
  BL          61.366787        2.742962       96.159235
  BL          62.352218        3.471415       94.578639
  BL          63.337649        4.199868       92.998044
  BL          64.323080        4.928321       91.417448
  BL          65.308511        5.656774       89.836853
  BL          66.293942        6.385227       88.256257
  BL          67.279373        7.113680       86.675661
  BL          68.264803        7.842133       85.095066
  BL          69.250234        8.570586       83.514470
  BL          70.235665        9.299039       81.933875
  BL          71.221096       10.027492       80.353279
  BL          72.206527       10.755945       78.772684
  B          158.004413       94.708411      -49.252924
  B          156.147311       95.437713      -49.391807
  B          154.290208       96.167016      -49.530689
  B          152.433106       96.896319      -49.669572
  B          150.576003       97.625621      -49.808454
  B          148.718901       98.354924      -49.947337
  B          146.861799       99.084226      -50.086219
  B          145.004696       99.813529      -50.225102
  B          143.147594      100.542832      -50.363984
  B          141.290491      101.272134      -50.502867
  B          139.433389      102.001437      -50.641749
  B          137.576287      102.730739      -50.780631
  B          135.719184      103.460042      -50.919514
  B          133.862082      104.189345      -51.058396
  B          132.004979      104.918647      -51.197279
  B          130.147877      105.647950      -51.336161
  B          128.290774      106.377252      -51.475044
  B          126.433672      107.106555      -51.613926
  B          124.576570      107.835857      -51.752809
  B          122.719467      108.565160      -51.891691
  BL         120.862365      109.294463      -52.030573
  BL         119.005262      110.023765      -52.169456
  BL         117.148160      110.753068      -52.308338
  BL         115.291057      111.482370      -52.447221
  BL         113.433955      112.211673      -52.586103
  BL         111.576853      112.940976      -52.724986
  BL         109.719750      113.670278      -52.863868
  BL         107.862648      114.399581      -53.002751
  BL         106.005545      115.128883      -53.141633
  BL         104.148443      115.858186      -53.280515
  BL         102.291341      116.587489      -53.419398
  BL         100.434238      117.316791      -53.558280
  BL          98.577136      118.046094      -53.697163
  BL          96.720033      118.775396      -53.836045
  BL          94.862931      119.504699      -53.974928
  BL          93.005828      120.234002      -54.113810
  BL          91.148726      120.963304      -54.252693
  BL          89.291624      121.692607      -54.391575
  BL          87.434521      122.421909      -54.530457
  BL          85.577419      123.151212      -54.669340
  BL          83.720316      123.880514      -54.808222
  BL          81.863214      124.609817      -54.947105
  BL          80.006111      125.339120      -55.085987
  BL          78.149009      126.068422      -55.224870
  BL          76.291907      126.797725      -55.363752
  BL          74.434804      127.527027      -55.502635
  BL          72.577702      128.256330      -55.641517
  BL          70.720599      128.985633      -55.780399
  BL          68.863497      129.714935      -55.919282
  BL          67.006395      130.444238      -56.058164
  BL          65.149292      131.173540      -56.197047
  BL          63.292190      131.902843      -56.335929
  BL          61.435087      132.632146      -56.474812
  BL          59.577985      133.361448      -56.613694
  BL          57.720882      134.090751      -56.752577
  BL          55.863780      134.820053      -56.891459
  BL          54.006678      135.549356      -57.030341
  BL          52.149575      136.278659      -57.169224
  BL          50.292473      137.007961      -57.308106
  BL          48.435370      137.737264      -57.446989
  BL          46.578268      138.466566      -57.585871
  BL          44.721166      139.195869      -57.724754
  BL          42.864063      139.925171      -57.863636
  BL          41.006961      140.654474      -58.002519
  BL          39.149858      141.383777      -58.141401
  BL          37.292756      142.113079      -58.280283
  BL          35.435653      142.842382      -58.419166
  BL          33.578551      143.571684      -58.558048
  BL          31.721449      144.300987      -58.696931
  BL          29.864346      145.030290      -58.835813
  B          -25.203548       94.932891      -35.044576
  B          -23.513368       94.985523      -36.112528
  B          -21.823188       95.038155      -37.180480
  B          -20.133008       95.090788      -38.248432
  B          -18.442828       95.143420      -39.316384
  B          -16.752648       95.196052      -40.384336
  B          -15.062468       95.248685      -41.452288
  B          -13.372288       95.301317      -42.520240
  B          -11.682108       95.353949      -43.588192
  B           -9.991928       95.406582      -44.656144
  B           -8.301748       95.459214      -45.724096
  B           -6.611568       95.511846      -46.792048
  B           -4.921388       95.564479      -47.860000
  B           -3.231208       95.617111      -48.927952
  B           -1.541028       95.669743      -49.995904
  B            0.149152       95.722376      -51.063856
  B            1.839332       95.775008      -52.131808
  B            3.529512       95.827641      -53.199760
  B            5.219692       95.880273      -54.267712
  B            6.909872       95.932905      -55.335664
  BL           8.600052       95.985538      -56.403616
  BL          10.290232       96.038170      -57.471568
  BL          11.980412       96.090802      -58.539520
  BL          13.670591       96.143435      -59.607472
  BL          15.360771       96.196067      -60.675424
  BL          17.050951       96.248699      -61.743376
  BL          18.741131       96.301332      -62.811328
  BL          20.431311       96.353964      -63.879280
  BL          22.121491       96.406596      -64.947232
  BL          23.811671       96.459229      -66.015184
  BL          25.501851       96.511861      -67.083136
  BL          27.192031       96.564493      -68.151088
  BL          28.882211       96.617126      -69.219040
  BL          30.572391       96.669758      -70.286992
  BL          32.262571       96.722390      -71.354944
  BL          33.952751       96.775023      -72.422896
  BL          35.642931       96.827655      -73.490848
  BL          37.333111       96.880287      -74.558800
  BL          39.023291       96.932920      -75.626752
  BL          40.713471       96.985552      -76.694704
  BL          42.403651       97.038185      -77.762656
  BL          44.093831       97.090817      -78.830608
  BL          45.784011       97.143449      -79.898560
  BL          47.474191       97.196082      -80.966512
  BL          49.164371       97.248714      -82.034464
  BL          50.854551       97.301346      -83.102416
  BL          52.544731       97.353979      -84.170368
  BL          54.234911       97.406611      -85.238320
  BL          55.925091       97.459243      -86.306272
  BL          57.615271       97.511876      -87.374224
  BL          59.305451       97.564508      -88.442176
  BL          60.995631       97.617140      -89.510128
  BL          62.685811       97.669773      -90.578080
  BL          64.375991       97.722405      -91.646032
  BL          66.066171       97.775037      -92.713984
  BL          67.756351       97.827670      -93.781936
  BL          69.446531       97.880302      -94.849888
  BL          71.136710       97.932934      -95.917840
  BL          72.826890       97.985567      -96.985793
  BL          74.517070       98.038199      -98.053745
  BL          76.207250       98.090831      -99.121697
  BL          77.897430       98.143464     -100.189649
  BL          79.587610       98.196096     -101.257601
  BL          81.277790       98.248729     -102.325553
  BL          82.967970       98.301361     -103.393505
  BL          84.658150       98.353993     -104.461457
  BL          86.348330       98.406626     -105.529409
  BL          88.038510       98.459258     -106.597361
  BL          89.728690       98.511890     -107.665313
  BL          91.418870       98.564523     -108.733265
  B         -187.628885      -21.952051     -126.485003
  B         -187.690382      -20.082516     -127.192855
  B         -187.751879      -18.212980     -127.900707
  B         -187.813376      -16.343444     -128.608559
  B         -187.874873      -14.473909     -129.316411
  B         -187.936371      -12.604373     -130.024263
  B         -187.997868      -10.734837     -130.732115
  B         -188.059365       -8.865302     -131.439967
  B         -188.120862       -6.995766     -132.147819
  B         -188.182359       -5.126230     -132.855671
  B         -188.243856       -3.256694     -133.563523
  B         -188.305353       -1.387159     -134.271375
  B         -188.366850        0.482377     -134.979227
  B         -188.428347        2.351913     -135.687079
  B         -188.489845        4.221448     -136.394931
  B         -188.551342        6.090984     -137.102783
  B         -188.612839        7.960520     -137.810635
  B         -188.674336        9.830055     -138.518487
  B         -188.735833       11.699591     -139.226338
  B         -188.797330       13.569127     -139.934190
  BL        -188.858827       15.438663     -140.642042
  BL        -188.920324       17.308198     -141.349894
  BL        -188.981822       19.177734     -142.057746
  BL        -189.043319       21.047270     -142.765598
  BL        -189.104816       22.916805     -143.473450
  BL        -189.166313       24.786341     -144.181302
  BL        -189.227810       26.655877     -144.889154
  BL        -189.289307       28.525412     -145.597006
  BL        -189.350804       30.394948     -146.304858
  BL        -189.412301       32.264484     -147.012710
  BL        -189.473798       34.134019     -147.720562
  BL        -189.535296       36.003555     -148.428414
  BL        -189.596793       37.873091     -149.136266
  BL        -189.658290       39.742627     -149.844118
  BL        -189.719787       41.612162     -150.551970
  BL        -189.781284       43.481698     -151.259822
  BL        -189.842781       45.351234     -151.967674
  BL        -189.904278       47.220769     -152.675526
  BL        -189.965775       49.090305     -153.383378
  BL        -190.027273       50.959841     -154.091230
  BL        -190.088770       52.829376     -154.799082
  BL        -190.150267       54.698912     -155.506933
  BL        -190.211764       56.568448     -156.214785
  BL        -190.273261       58.437983     -156.922637
  BL        -190.334758       60.307519     -157.630489
  BL        -190.396255       62.177055     -158.338341
  BL        -190.457752       64.046591     -159.046193
  BL        -190.519249       65.916126     -159.754045
  BL        -190.580747       67.785662     -160.461897
  BL        -190.642244       69.655198     -161.169749
  BL        -190.703741       71.524733     -161.877601
  BL        -190.765238       73.394269     -162.585453
  BL        -190.826735       75.263805     -163.293305
  BL        -190.888232       77.133340     -164.001157
  BL        -190.949729       79.002876     -164.709009
  BL        -191.011226       80.872412     -165.416861
  BL        -191.072724       82.741948     -166.124713
  BL        -191.134221       84.611483     -166.832565
  BL        -191.195718       86.481019     -167.540417
  BL        -191.257215       88.350555     -168.248269
  BL        -191.318712       90.220090     -168.956121
  BL        -191.380209       92.089626     -169.663973
  BL        -191.441706       93.959162     -170.371825
  BL        -191.503203       95.828697     -171.079677
  BL        -191.564700       97.698233     -171.787528
  BL        -191.626198       99.567769     -172.495380
  BL        -191.687695      101.437304     -173.203232
  BL        -191.749192      103.306840     -173.911084
  BL        -191.810689      105.176376     -174.618936
  BL        -191.872186      107.045912     -175.326788
  B          172.900266        8.443915      181.630383
  B          171.103642        8.342204      182.503192
  B          169.307017        8.240493      183.376002
  B          167.510393        8.138783      184.248811
  B          165.713769        8.037072      185.121620
  B          163.917144        7.935361      185.994429
  B          162.120520        7.833650      186.867238
  B          160.323896        7.731939      187.740048
  B          158.527271        7.630229      188.612857
  B          156.730647        7.528518      189.485666
  B          154.934023        7.426807      190.358475
  B          153.137398        7.325096      191.231284
  B          151.340774        7.223385      192.104093
  B          149.544150        7.121675      192.976903
  B          147.747525        7.019964      193.849712
  B          145.950901        6.918253      194.722521
  B          144.154277        6.816542      195.595330
  B          142.357652        6.714831      196.468139
  B          140.561028        6.613121      197.340949
  B          138.764404        6.511410      198.213758
  BL         136.967779        6.409699      199.086567
  BL         135.171155        6.307988      199.959376
  BL         133.374531        6.206277      200.832185
  BL         131.577906        6.104567      201.704995
  BL         129.781282        6.002856      202.577804
  BL         127.984658        5.901145      203.450613
  BL         126.188033        5.799434      204.323422
  BL         124.391409        5.697723      205.196231
  BL         122.594785        5.596013      206.069041
  BL         120.798160        5.494302      206.941850
  BL         119.001536        5.392591      207.814659
  BL         117.204912        5.290880      208.687468
  BL         115.408287        5.189169      209.560277
  BL         113.611663        5.087459      210.433086
  BL         111.815039        4.985748      211.305896
  BL         110.018414        4.884037      212.178705
  BL         108.221790        4.782326      213.051514
  BL         106.425165        4.680615      213.924323
  BL         104.628541        4.578905      214.797132
  BL         102.831917        4.477194      215.669942
  BL         101.035292        4.375483      216.542751
  BL          99.238668        4.273772      217.415560
  BL          97.442044        4.172061      218.288369
  BL          95.645419        4.070351      219.161178
  BL          93.848795        3.968640      220.033988
  BL          92.052171        3.866929      220.906797
  BL          90.255546        3.765218      221.779606
  BL          88.458922        3.663507      222.652415
  BL          86.662298        3.561797      223.525224
  BL          84.865673        3.460086      224.398034
  BL          83.069049        3.358375      225.270843
  BL          81.272425        3.256664      226.143652
  BL          79.475800        3.154953      227.016461
  BL          77.679176        3.053243      227.889270
  BL          75.882552        2.951532      228.762079
  BL          74.085927        2.849821      229.634889
  BL          72.289303        2.748110      230.507698
  BL          70.492679        2.646399      231.380507
  BL          68.696054        2.544688      232.253316
  BL          66.899430        2.442978      233.126125
  BL          65.102806        2.341267      233.998935
  BL          63.306181        2.239556      234.871744
  BL          61.509557        2.137845      235.744553
  BL          59.712933        2.036134      236.617362
  BL          57.916308        1.934424      237.490171
  BL          56.119684        1.832713      238.362981
  BL          54.323060        1.731002      239.235790
  BL          52.526435        1.629291      240.108599
  BL          50.729811        1.527580      240.981408
  BL          48.933187        1.425870      241.854217
  B         -188.636695      -61.995314     -226.277327
  B         -187.548731      -60.318355     -226.341696
  B         -186.460768      -58.641396     -226.406064
  B         -185.372805      -56.964436     -226.470432
  B         -184.284842      -55.287477     -226.534801
  B         -183.196879      -53.610517     -226.599169
  B         -182.108916      -51.933558     -226.663538
  B         -181.020953      -50.256598     -226.727906
  B         -179.932989      -48.579639     -226.792274
  B         -178.845026      -46.902680     -226.856643
  B         -177.757063      -45.225720     -226.921011
  B         -176.669100      -43.548761     -226.985380
  B         -175.581137      -41.871801     -227.049748
  B         -174.493174      -40.194842     -227.114116
  B         -173.405211      -38.517883     -227.178485
  B         -172.317247      -36.840923     -227.242853
  B         -171.229284      -35.163964     -227.307222
  B         -170.141321      -33.487004     -227.371590
  B         -169.053358      -31.810045     -227.435958
  B         -167.965395      -30.133085     -227.500327
  BL        -166.877432      -28.456126     -227.564695
  BL        -165.789468      -26.779167     -227.629064
  BL        -164.701505      -25.102207     -227.693432
  BL        -163.613542      -23.425248     -227.757801
  BL        -162.525579      -21.748288     -227.822169
  BL        -161.437616      -20.071329     -227.886537
  BL        -160.349653      -18.394370     -227.950906
  BL        -159.261690      -16.717410     -228.015274
  BL        -158.173726      -15.040451     -228.079643
  BL        -157.085763      -13.363491     -228.144011
  BL        -155.997800      -11.686532     -228.208379
  BL        -154.909837      -10.009572     -228.272748
  BL        -153.821874       -8.332613     -228.337116
  BL        -152.733911       -6.655654     -228.401485
  BL        -151.645948       -4.978694     -228.465853
  BL        -150.557984       -3.301735     -228.530221
  BL        -149.470021       -1.624775     -228.594590
  BL        -148.382058        0.052184     -228.658958
  BL        -147.294095        1.729144     -228.723327
  BL        -146.206132        3.406103     -228.787695
  BL        -145.118169        5.083062     -228.852063
  BL        -144.030205        6.760022     -228.916432
  BL        -142.942242        8.436981     -228.980800
  BL        -141.854279       10.113941     -229.045169
  BL        -140.766316       11.790900     -229.109537
  BL        -139.678353       13.467859     -229.173905
  BL        -138.590390       15.144819     -229.238274
  BL        -137.502427       16.821778     -229.302642
  BL        -136.414463       18.498738     -229.367011
  BL        -135.326500       20.175697     -229.431379
  BL        -134.238537       21.852657     -229.495748
  BL        -133.150574       23.529616     -229.560116
  BL        -132.062611       25.206575     -229.624484
  BL        -130.974648       26.883535     -229.688853
  BL        -129.886685       28.560494     -229.753221
  BL        -128.798721       30.237454     -229.817590
  BL        -127.710758       31.914413     -229.881958
  BL        -126.622795       33.591372     -229.946326
  BL        -125.534832       35.268332     -230.010695
  BL        -124.446869       36.945291     -230.075063
  BL        -123.358906       38.622251     -230.139432
  BL        -122.270943       40.299210     -230.203800
  BL        -121.182979       41.976170     -230.268168
  BL        -120.095016       43.653129     -230.332537
  BL        -119.007053       45.330088     -230.396905
  BL        -117.919090       47.007048     -230.461274
  BL        -116.831127       48.684007     -230.525642
  BL        -115.743164       50.360967     -230.590010
  BL        -114.655200       52.037926     -230.654379
  BL        -113.567237       53.714885     -230.718747
  B         -174.835324     -260.317273     -124.037074
  B         -175.917494     -260.855060     -122.443433
  B         -176.999664     -261.392846     -120.849791
  B         -178.081835     -261.930632     -119.256150
  B         -179.164005     -262.468418     -117.662508
  B         -180.246176     -263.006205     -116.068867
  B         -181.328346     -263.543991     -114.475225
  B         -182.410516     -264.081777     -112.881584
  B         -183.492687     -264.619563     -111.287942
  B         -184.574857     -265.157350     -109.694301
  B         -185.657028     -265.695136     -108.100659
  B         -186.739198     -266.232922     -106.507018
  B         -187.821369     -266.770708     -104.913376
  B         -188.903539     -267.308495     -103.319735
  B         -189.985709     -267.846281     -101.726094
  B         -191.067880     -268.384067     -100.132452
  B         -192.150050     -268.921853      -98.538811
  B         -193.232221     -269.459640      -96.945169
  B         -194.314391     -269.997426      -95.351528
  B         -195.396561     -270.535212      -93.757886
  BL        -196.478732     -271.072998      -92.164245
  BL        -197.560902     -271.610785      -90.570603
  BL        -198.643073     -272.148571      -88.976962
  BL        -199.725243     -272.686357      -87.383320
  BL        -200.807413     -273.224143      -85.789679
  BL        -201.889584     -273.761929      -84.196037
  BL        -202.971754     -274.299716      -82.602396
  BL        -204.053925     -274.837502      -81.008754
  BL        -205.136095     -275.375288      -79.415113
  BL        -206.218266     -275.913074      -77.821471
  BL        -207.300436     -276.450861      -76.227830
  BL        -208.382606     -276.988647      -74.634188
  BL        -209.464777     -277.526433      -73.040547
  BL        -210.546947     -278.064219      -71.446905
  BL        -211.629118     -278.602006      -69.853264
  BL        -212.711288     -279.139792      -68.259623
  BL        -213.793458     -279.677578      -66.665981
  BL        -214.875629     -280.215364      -65.072340
  BL        -215.957799     -280.753151      -63.478698
  BL        -217.039970     -281.290937      -61.885057
  BL        -218.122140     -281.828723      -60.291415
  BL        -219.204310     -282.366509      -58.697774
  BL        -220.286481     -282.904296      -57.104132
  BL        -221.368651     -283.442082      -55.510491
  BL        -222.450822     -283.979868      -53.916849
  BL        -223.532992     -284.517654      -52.323208
  BL        -224.615163     -285.055441      -50.729566
  BL        -225.697333     -285.593227      -49.135925
  BL        -226.779503     -286.131013      -47.542283
  BL        -227.861674     -286.668799      -45.948642
  BL        -228.943844     -287.206586      -44.355000
  BL        -230.026015     -287.744372      -42.761359
  BL        -231.108185     -288.282158      -41.167717
  BL        -232.190355     -288.819944      -39.574076
  BL        -233.272526     -289.357731      -37.980435
  BL        -234.354696     -289.895517      -36.386793
  BL        -235.436867     -290.433303      -34.793152
  BL        -236.519037     -290.971089      -33.199510
  BL        -237.601207     -291.508876      -31.605869
  BL        -238.683378     -292.046662      -30.012227
  BL        -239.765548     -292.584448      -28.418586
  BL        -240.847719     -293.122234      -26.824944
  BL        -241.929889     -293.660021      -25.231303
  BL        -243.012060     -294.197807      -23.637661
  BL        -244.094230     -294.735593      -22.044020
  BL        -245.176400     -295.273379      -20.450378
  BL        -246.258571     -295.811166      -18.856737
  BL        -247.340741     -296.348952      -17.263095
  BL        -248.422912     -296.886738      -15.669454
  BL        -249.505082     -297.424524      -14.075812
  B         -119.419093      -62.848519      -73.167327
  B         -118.538086      -61.096173      -72.776034
  B         -117.657080      -59.343827      -72.384741
  B         -116.776073      -57.591481      -71.993448
  B         -115.895066      -55.839135      -71.602154
  B         -115.014060      -54.086789      -71.210861
  B         -114.133053      -52.334443      -70.819568
  B         -113.252046      -50.582097      -70.428275
  B         -112.371040      -48.829751      -70.036982
  B         -111.490033      -47.077405      -69.645689
  B         -110.609026      -45.325058      -69.254395
  B         -109.728020      -43.572712      -68.863102
  B         -108.847013      -41.820366      -68.471809
  B         -107.966006      -40.068020      -68.080516
  B         -107.085000      -38.315674      -67.689223
  B         -106.203993      -36.563328      -67.297929
  B         -105.322986      -34.810982      -66.906636
  B         -104.441980      -33.058636      -66.515343
  B         -103.560973      -31.306290      -66.124050
  B         -102.679966      -29.553944      -65.732757
  BL        -101.798959      -27.801597      -65.341464
  BL        -100.917953      -26.049251      -64.950170
  BL        -100.036946      -24.296905      -64.558877
  BL         -99.155939      -22.544559      -64.167584
  BL         -98.274933      -20.792213      -63.776291
  BL         -97.393926      -19.039867      -63.384998
  BL         -96.512919      -17.287521      -62.993704
  BL         -95.631913      -15.535175      -62.602411
  BL         -94.750906      -13.782829      -62.211118
  BL         -93.869899      -12.030482      -61.819825
  BL         -92.988893      -10.278136      -61.428532
  BL         -92.107886       -8.525790      -61.037239
  BL         -91.226879       -6.773444      -60.645945
  BL         -90.345873       -5.021098      -60.254652
  BL         -89.464866       -3.268752      -59.863359
  BL         -88.583859       -1.516406      -59.472066
  BL         -87.702853        0.235940      -59.080773
  BL         -86.821846        1.988286      -58.689479
  BL         -85.940839        3.740632      -58.298186
  BL         -85.059832        5.492979      -57.906893
  BL         -84.178826        7.245325      -57.515600
  BL         -83.297819        8.997671      -57.124307
  BL         -82.416812       10.750017      -56.733014
  BL         -81.535806       12.502363      -56.341720
  BL         -80.654799       14.254709      -55.950427
  BL         -79.773792       16.007055      -55.559134
  BL         -78.892786       17.759401      -55.167841
  BL         -78.011779       19.511747      -54.776548
  BL         -77.130772       21.264093      -54.385254
  BL         -76.249766       23.016440      -53.993961
  BL         -75.368759       24.768786      -53.602668
  BL         -74.487752       26.521132      -53.211375
  BL         -73.606746       28.273478      -52.820082
  BL         -72.725739       30.025824      -52.428789
  BL         -71.844732       31.778170      -52.037495
  BL         -70.963726       33.530516      -51.646202
  BL         -70.082719       35.282862      -51.254909
  BL         -69.201712       37.035208      -50.863616
  BL         -68.320705       38.787555      -50.472323
  BL         -67.439699       40.539901      -50.081029
  BL         -66.558692       42.292247      -49.689736
  BL         -65.677685       44.044593      -49.298443
  BL         -64.796679       45.796939      -48.907150
  BL         -63.915672       47.549285      -48.515857
  BL         -63.034665       49.301631      -48.124564
  BL         -62.153659       51.053977      -47.733270
  BL         -61.272652       52.806323      -47.341977
  BL         -60.391645       54.558669      -46.950684
  BL         -59.510639       56.311016      -46.559391
  BL         -58.629632       58.063362      -46.168098
  B          292.899665      104.735459      186.926999
  B          292.816227      106.716811      186.667608
  B          292.732789      108.698162      186.408218
  B          292.649352      110.679514      186.148828
  B          292.565914      112.660866      185.889437
  B          292.482476      114.642218      185.630047
  B          292.399039      116.623569      185.370657
  B          292.315601      118.604921      185.111267
  B          292.232163      120.586273      184.851876
  B          292.148726      122.567625      184.592486
  B          292.065288      124.548976      184.333096
  B          291.981851      126.530328      184.073705
  B          291.898413      128.511680      183.814315
  B          291.814975      130.493032      183.554925
  B          291.731538      132.474384      183.295535
  B          291.648100      134.455735      183.036144
  B          291.564662      136.437087      182.776754
  B          291.481225      138.418439      182.517364
  B          291.397787      140.399791      182.257973
  B          291.314349      142.381142      181.998583
  BL         291.230912      144.362494      181.739193
  BL         291.147474      146.343846      181.479803
  BL         291.064036      148.325198      181.220412
  BL         290.980599      150.306549      180.961022
  BL         290.897161      152.287901      180.701632
  BL         290.813723      154.269253      180.442241
  BL         290.730286      156.250605      180.182851
  BL         290.646848      158.231957      179.923461
  BL         290.563411      160.213308      179.664071
  BL         290.479973      162.194660      179.404680
  BL         290.396535      164.176012      179.145290
  BL         290.313098      166.157364      178.885900
  BL         290.229660      168.138715      178.626510
  BL         290.146222      170.120067      178.367119
  BL         290.062785      172.101419      178.107729
  BL         289.979347      174.082771      177.848339
  BL         289.895909      176.064123      177.588948
  BL         289.812472      178.045474      177.329558
  BL         289.729034      180.026826      177.070168
  BL         289.645596      182.008178      176.810778
  BL         289.562159      183.989530      176.551387
  BL         289.478721      185.970881      176.291997
  BL         289.395283      187.952233      176.032607
  BL         289.311846      189.933585      175.773216
  BL         289.228408      191.914937      175.513826
  BL         289.144971      193.896288      175.254436
  BL         289.061533      195.877640      174.995046
  BL         288.978095      197.858992      174.735655
  BL         288.894658      199.840344      174.476265
  BL         288.811220      201.821696      174.216875
  BL         288.727782      203.803047      173.957484
  BL         288.644345      205.784399      173.698094
  BL         288.560907      207.765751      173.438704
  BL         288.477469      209.747103      173.179314
  BL         288.394032      211.728454      172.919923
  BL         288.310594      213.709806      172.660533
  BL         288.227156      215.691158      172.401143
  BL         288.143719      217.672510      172.141752
  BL         288.060281      219.653861      171.882362
  BL         287.976843      221.635213      171.622972
  BL         287.893406      223.616565      171.363582
  BL         287.809968      225.597917      171.104191
  BL         287.726531      227.579269      170.844801
  BL         287.643093      229.560620      170.585411
  BL         287.559655      231.541972      170.326020
  BL         287.476218      233.523324      170.066630
  BL         287.392780      235.504676      169.807240
  BL         287.309342      237.486027      169.547850
  BL         287.225905      239.467379      169.288459
  BL         287.142467      241.448731      169.029069
  B          236.677906     -252.730072      223.463664
  B          235.353729     -251.271296      223.119387
  B          234.029553     -249.812519      222.775109
  B          232.705376     -248.353742      222.430832
  B          231.381200     -246.894965      222.086555
  B          230.057023     -245.436189      221.742277
  B          228.732847     -243.977412      221.398000
  B          227.408670     -242.518635      221.053722
  B          226.084494     -241.059858      220.709445
  B          224.760317     -239.601082      220.365168
  B          223.436140     -238.142305      220.020890
  B          222.111964     -236.683528      219.676613
  B          220.787787     -235.224752      219.332335
  B          219.463611     -233.765975      218.988058
  B          218.139434     -232.307198      218.643781
  B          216.815258     -230.848421      218.299503
  B          215.491081     -229.389645      217.955226
  B          214.166905     -227.930868      217.610948
  B          212.842728     -226.472091      217.266671
  B          211.518551     -225.013315      216.922393
  BL         210.194375     -223.554538      216.578116
  BL         208.870198     -222.095761      216.233839
  BL         207.546022     -220.636984      215.889561
  BL         206.221845     -219.178208      215.545284
  BL         204.897669     -217.719431      215.201006
  BL         203.573492     -216.260654      214.856729
  BL         202.249316     -214.801877      214.512452
  BL         200.925139     -213.343101      214.168174
  BL         199.600963     -211.884324      213.823897
  BL         198.276786     -210.425547      213.479619
  BL         196.952609     -208.966771      213.135342
  BL         195.628433     -207.507994      212.791065
  BL         194.304256     -206.049217      212.446787
  BL         192.980080     -204.590440      212.102510
  BL         191.655903     -203.131664      211.758232
  BL         190.331727     -201.672887      211.413955
  BL         189.007550     -200.214110      211.069678
  BL         187.683374     -198.755333      210.725400
  BL         186.359197     -197.296557      210.381123
  BL         185.035020     -195.837780      210.036845
  BL         183.710844     -194.379003      209.692568
  BL         182.386667     -192.920227      209.348291
  BL         181.062491     -191.461450      209.004013
  BL         179.738314     -190.002673      208.659736
  BL         178.414138     -188.543896      208.315458
  BL         177.089961     -187.085120      207.971181
  BL         175.765785     -185.626343      207.626904
  BL         174.441608     -184.167566      207.282626
  BL         173.117432     -182.708789      206.938349
  BL         171.793255     -181.250013      206.594071
  BL         170.469078     -179.791236      206.249794
  BL         169.144902     -178.332459      205.905517
  BL         167.820725     -176.873683      205.561239
  BL         166.496549     -175.414906      205.216962
  BL         165.172372     -173.956129      204.872684
  BL         163.848196     -172.497352      204.528407
  BL         162.524019     -171.038576      204.184129
  BL         161.199843     -169.579799      203.839852
  BL         159.875666     -168.121022      203.495575
  BL         158.551490     -166.662245      203.151297
  BL         157.227313     -165.203469      202.807020
  BL         155.903136     -163.744692      202.462742
  BL         154.578960     -162.285915      202.118465
  BL         153.254783     -160.827139      201.774188
  BL         151.930607     -159.368362      201.429910
  BL         150.606430     -157.909585      201.085633
  BL         149.282254     -156.450808      200.741355
  BL         147.958077     -154.992032      200.397078
  BL         146.633901     -153.533255      200.052801
  BL         145.309724     -152.074478      199.708523
  B          251.745701      199.986483      -17.000341
  B          250.078999      199.548129      -15.985476
  B          248.412297      199.109775      -14.970611
  B          246.745596      198.671421      -13.955746
  B          245.078894      198.233067      -12.940880
  B          243.412192      197.794714      -11.926015
  B          241.745491      197.356360      -10.911150
  B          240.078789      196.918006       -9.896285
  B          238.412087      196.479652       -8.881420
  B          236.745386      196.041298       -7.866554
  B          235.078684      195.602944       -6.851689
  B          233.411982      195.164591       -5.836824
  B          231.745280      194.726237       -4.821959
  B          230.078579      194.287883       -3.807094
  B          228.411877      193.849529       -2.792229
  B          226.745175      193.411175       -1.777363
  B          225.078474      192.972821       -0.762498
  B          223.411772      192.534468        0.252367
  B          221.745070      192.096114        1.267232
  B          220.078369      191.657760        2.282097
  BL         218.411667      191.219406        3.296963
  BL         216.744965      190.781052        4.311828
  BL         215.078263      190.342698        5.326693
  BL         213.411562      189.904345        6.341558
  BL         211.744860      189.465991        7.356423
  BL         210.078158      189.027637        8.371289
  BL         208.411457      188.589283        9.386154
  BL         206.744755      188.150929       10.401019
  BL         205.078053      187.712576       11.415884
  BL         203.411351      187.274222       12.430749
  BL         201.744650      186.835868       13.445615
  BL         200.077948      186.397514       14.460480
  BL         198.411246      185.959160       15.475345
  BL         196.744545      185.520806       16.490210
  BL         195.077843      185.082453       17.505075
  BL         193.411141      184.644099       18.519940
  BL         191.744440      184.205745       19.534806
  BL         190.077738      183.767391       20.549671
  BL         188.411036      183.329037       21.564536
  BL         186.744334      182.890683       22.579401
  BL         185.077633      182.452330       23.594266
  BL         183.410931      182.013976       24.609132
  BL         181.744229      181.575622       25.623997
  BL         180.077528      181.137268       26.638862
  BL         178.410826      180.698914       27.653727
  BL         176.744124      180.260560       28.668592
  BL         175.077423      179.822207       29.683458
  BL         173.410721      179.383853       30.698323
  BL         171.744019      178.945499       31.713188
  BL         170.077317      178.507145       32.728053
  BL         168.410616      178.068791       33.742918
  BL         166.743914      177.630437       34.757784
  BL         165.077212      177.192084       35.772649
  BL         163.410511      176.753730       36.787514
  BL         161.743809      176.315376       37.802379
  BL         160.077107      175.877022       38.817244
  BL         158.410406      175.438668       39.832110
  BL         156.743704      175.000314       40.846975
  BL         155.077002      174.561961       41.861840
  BL         153.410300      174.123607       42.876705
  BL         151.743599      173.685253       43.891570
  BL         150.076897      173.246899       44.906435
  BL         148.410195      172.808545       45.921301
  BL         146.743494      172.370191       46.936166
  BL         145.076792      171.931838       47.951031
  BL         143.410090      171.493484       48.965896
  BL         141.743389      171.055130       49.980761
  BL         140.076687      170.616776       50.995627
  BL         138.409985      170.178422       52.010492
  BL         136.743283      169.740068       53.025357
  B           69.063324      130.206028       67.884578
  B           70.160382      130.653694       69.495807
  B           71.257439      131.101359       71.107037
  B           72.354496      131.549025       72.718267
  B           73.451553      131.996690       74.329496
  B           74.548610      132.444356       75.940726
  B           75.645667      132.892021       77.551956
  B           76.742725      133.339687       79.163186
  B           77.839782      133.787352       80.774415
  B           78.936839      134.235018       82.385645
  B           80.033896      134.682683       83.996875
  B           81.130953      135.130349       85.608104
  B           82.228011      135.578014       87.219334
  B           83.325068      136.025680       88.830564
  B           84.422125      136.473345       90.441793
  B           85.519182      136.921011       92.053023
  B           86.616239      137.368677       93.664253
  B           87.713296      137.816342       95.275482
  B           88.810354      138.264008       96.886712
  B           89.907411      138.711673       98.497942
  BL          91.004468      139.159339      100.109172
  BL          92.101525      139.607004      101.720401
  BL          93.198582      140.054670      103.331631
  BL          94.295640      140.502335      104.942861
  BL          95.392697      140.950001      106.554090
  BL          96.489754      141.397666      108.165320
  BL          97.586811      141.845332      109.776550
  BL          98.683868      142.292997      111.387779
  BL          99.780925      142.740663      112.999009
  BL         100.877983      143.188328      114.610239
  BL         101.975040      143.635994      116.221468
  BL         103.072097      144.083659      117.832698
  BL         104.169154      144.531325      119.443928
  BL         105.266211      144.978990      121.055158
  BL         106.363269      145.426656      122.666387
  BL         107.460326      145.874322      124.277617
  BL         108.557383      146.321987      125.888847
  BL         109.654440      146.769653      127.500076
  BL         110.751497      147.217318      129.111306
  BL         111.848554      147.664984      130.722536
  BL         112.945612      148.112649      132.333765
  BL         114.042669      148.560315      133.944995
  BL         115.139726      149.007980      135.556225
  BL         116.236783      149.455646      137.167454
  BL         117.333840      149.903311      138.778684
  BL         118.430898      150.350977      140.389914
  BL         119.527955      150.798642      142.001143
  BL         120.625012      151.246308      143.612373
  BL         121.722069      151.693973      145.223603
  BL         122.819126      152.141639      146.834833
  BL         123.916183      152.589304      148.446062
  BL         125.013241      153.036970      150.057292
  BL         126.110298      153.484635      151.668522
  BL         127.207355      153.932301      153.279751
  BL         128.304412      154.379966      154.890981
  BL         129.401469      154.827632      156.502211
  BL         130.498527      155.275298      158.113440
  BL         131.595584      155.722963      159.724670
  BL         132.692641      156.170629      161.335900
  BL         133.789698      156.618294      162.947129
  BL         134.886755      157.065960      164.558359
  BL         135.983812      157.513625      166.169589
  BL         137.080870      157.961291      167.780819
  BL         138.177927      158.408956      169.392048
  BL         139.274984      158.856622      171.003278
  BL         140.372041      159.304287      172.614508
  BL         141.469098      159.751953      174.225737
  BL         142.566156      160.199618      175.836967
  BL         143.663213      160.647284      177.448197
  BL         144.760270      161.094949      179.059426
  B         -148.989860      -65.069799       44.140764
  B         -150.129616      -63.463143       44.486616
  B         -151.269371      -61.856487       44.832468
  B         -152.409127      -60.249831       45.178319
  B         -153.548882      -58.643174       45.524171
  B         -154.688638      -57.036518       45.870023
  B         -155.828393      -55.429862       46.215875
  B         -156.968149      -53.823206       46.561726
  B         -158.107904      -52.216550       46.907578
  B         -159.247659      -50.609894       47.253430
  B         -160.387415      -49.003237       47.599282
  B         -161.527170      -47.396581       47.945133
  B         -162.666926      -45.789925       48.290985
  B         -163.806681      -44.183269       48.636837
  B         -164.946437      -42.576613       48.982689
  B         -166.086192      -40.969957       49.328540
  B         -167.225948      -39.363300       49.674392
  B         -168.365703      -37.756644       50.020244
  B         -169.505459      -36.149988       50.366096
  B         -170.645214      -34.543332       50.711948
  BL        -171.784969      -32.936676       51.057799
  BL        -172.924725      -31.330019       51.403651
  BL        -174.064480      -29.723363       51.749503
  BL        -175.204236      -28.116707       52.095355
  BL        -176.343991      -26.510051       52.441206
  BL        -177.483747      -24.903395       52.787058
  BL        -178.623502      -23.296739       53.132910
  BL        -179.763258      -21.690082       53.478762
  BL        -180.903013      -20.083426       53.824613
  BL        -182.042768      -18.476770       54.170465
  BL        -183.182524      -16.870114       54.516317
  BL        -184.322279      -15.263458       54.862169
  BL        -185.462035      -13.656802       55.208021
  BL        -186.601790      -12.050145       55.553872
  BL        -187.741546      -10.443489       55.899724
  BL        -188.881301       -8.836833       56.245576
  BL        -190.021057       -7.230177       56.591428
  BL        -191.160812       -5.623521       56.937279
  BL        -192.300568       -4.016864       57.283131
  BL        -193.440323       -2.410208       57.628983
  BL        -194.580078       -0.803552       57.974835
  BL        -195.719834        0.803104       58.320686
  BL        -196.859589        2.409760       58.666538
  BL        -197.999345        4.016416       59.012390
  BL        -199.139100        5.623073       59.358242
  BL        -200.278856        7.229729       59.704094
  BL        -201.418611        8.836385       60.049945
  BL        -202.558367       10.443041       60.395797
  BL        -203.698122       12.049697       60.741649
  BL        -204.837877       13.656353       61.087501
  BL        -205.977633       15.263010       61.433352
  BL        -207.117388       16.869666       61.779204
  BL        -208.257144       18.476322       62.125056
  BL        -209.396899       20.082978       62.470908
  BL        -210.536655       21.689634       62.816759
  BL        -211.676410       23.296291       63.162611
  BL        -212.816166       24.902947       63.508463
  BL        -213.955921       26.509603       63.854315
  BL        -215.095677       28.116259       64.200167
  BL        -216.235432       29.722915       64.546018
  BL        -217.375187       31.329571       64.891870
  BL        -218.514943       32.936228       65.237722
  BL        -219.654698       34.542884       65.583574
  BL        -220.794454       36.149540       65.929425
  BL        -221.934209       37.756196       66.275277
  BL        -223.073965       39.362852       66.621129
  BL        -224.213720       40.969508       66.966981
  BL        -225.353476       42.576165       67.312832
  BL        -226.493231       44.182821       67.658684
  BL        -227.632986       45.789477       68.004536
  B          135.039471     -149.470148      118.601518
  B          133.744743     -148.050849      119.157637
  B          132.450014     -146.631551      119.713757
  B          131.155285     -145.212252      120.269876
  B          129.860556     -143.792954      120.825996
  B          128.565827     -142.373655      121.382115
  B          127.271098     -140.954357      121.938235
  B          125.976369     -139.535059      122.494354
  B          124.681640     -138.115760      123.050474
  B          123.386911     -136.696462      123.606593
  B          122.092182     -135.277163      124.162713
  B          120.797453     -133.857865      124.718832
  B          119.502724     -132.438567      125.274952
  B          118.207995     -131.019268      125.831071
  B          116.913266     -129.599970      126.387190
  B          115.618537     -128.180671      126.943310
  B          114.323808     -126.761373      127.499429
  B          113.029079     -125.342074      128.055549
  B          111.734350     -123.922776      128.611668
  B          110.439621     -122.503478      129.167788
  BL         109.144892     -121.084179      129.723907
  BL         107.850163     -119.664881      130.280027
  BL         106.555434     -118.245582      130.836146
  BL         105.260705     -116.826284      131.392266
  BL         103.965976     -115.406986      131.948385
  BL         102.671247     -113.987687      132.504505
  BL         101.376518     -112.568389      133.060624
  BL         100.081789     -111.149090      133.616744
  BL          98.787060     -109.729792      134.172863
  BL          97.492331     -108.310493      134.728983
  BL          96.197602     -106.891195      135.285102
  BL          94.902873     -105.471897      135.841222
  BL          93.608144     -104.052598      136.397341
  BL          92.313415     -102.633300      136.953461
  BL          91.018686     -101.214001      137.509580
  BL          89.723957      -99.794703      138.065700
  BL          88.429228      -98.375405      138.621819
  BL          87.134499      -96.956106      139.177938
  BL          85.839770      -95.536808      139.734058
  BL          84.545041      -94.117509      140.290177
  BL          83.250312      -92.698211      140.846297
  BL          81.955583      -91.278913      141.402416
  BL          80.660854      -89.859614      141.958536
  BL          79.366125      -88.440316      142.514655
  BL          78.071396      -87.021017      143.070775
  BL          76.776667      -85.601719      143.626894
  BL          75.481938      -84.182420      144.183014
  BL          74.187209      -82.763122      144.739133
  BL          72.892480      -81.343824      145.295253
  BL          71.597751      -79.924525      145.851372
  BL          70.303022      -78.505227      146.407492
  BL          69.008293      -77.085928      146.963611
  BL          67.713564      -75.666630      147.519731
  BL          66.418836      -74.247332      148.075850
  BL          65.124107      -72.828033      148.631970
  BL          63.829378      -71.408735      149.188089
  BL          62.534649      -69.989436      149.744209
  BL          61.239920      -68.570138      150.300328
  BL          59.945191      -67.150839      150.856448
  BL          58.650462      -65.731541      151.412567
  BL          57.355733      -64.312243      151.968686
  BL          56.061004      -62.892944      152.524806
  BL          54.766275      -61.473646      153.080925
  BL          53.471546      -60.054347      153.637045
  BL          52.176817      -58.635049      154.193164
  BL          50.882088      -57.215751      154.749284
  BL          49.587359      -55.796452      155.305403
  BL          48.292630      -54.377154      155.861523
  BL          46.997901      -52.957855      156.417642
  BL          45.703172      -51.538557      156.973762
  B           36.101956     -107.248685     -298.995850
  B           36.066828     -105.251393     -298.897923
  B           36.031700     -103.254101     -298.799995
  B           35.996572     -101.256808     -298.702068
  B           35.961444      -99.259516     -298.604141
  B           35.926316      -97.262224     -298.506214
  B           35.891188      -95.264932     -298.408287
  B           35.856060      -93.267639     -298.310359
  B           35.820932      -91.270347     -298.212432
  B           35.785804      -89.273055     -298.114505
  B           35.750676      -87.275763     -298.016578
  B           35.715548      -85.278470     -297.918651
  B           35.680420      -83.281178     -297.820723
  B           35.645292      -81.283886     -297.722796
  B           35.610164      -79.286594     -297.624869
  B           35.575036      -77.289302     -297.526942
  B           35.539908      -75.292009     -297.429015
  B           35.504780      -73.294717     -297.331087
  B           35.469652      -71.297425     -297.233160
  B           35.434524      -69.300133     -297.135233
  BL          35.399396      -67.302840     -297.037306
  BL          35.364268      -65.305548     -296.939379
  BL          35.329140      -63.308256     -296.841451
  BL          35.294012      -61.310964     -296.743524
  BL          35.258884      -59.313671     -296.645597
  BL          35.223756      -57.316379     -296.547670
  BL          35.188628      -55.319087     -296.449743
  BL          35.153500      -53.321795     -296.351815
  BL          35.118372      -51.324502     -296.253888
  BL          35.083244      -49.327210     -296.155961
  BL          35.048116      -47.329918     -296.058034
  BL          35.012988      -45.332626     -295.960107
  BL          34.977860      -43.335333     -295.862179
  BL          34.942732      -41.338041     -295.764252
  BL          34.907604      -39.340749     -295.666325
  BL          34.872476      -37.343457     -295.568398
  BL          34.837348      -35.346165     -295.470471
  BL          34.802220      -33.348872     -295.372543
  BL          34.767092      -31.351580     -295.274616
  BL          34.731964      -29.354288     -295.176689
  BL          34.696836      -27.356996     -295.078762
  BL          34.661708      -25.359703     -294.980835
  BL          34.626580      -23.362411     -294.882907
  BL          34.591452      -21.365119     -294.784980
  BL          34.556324      -19.367827     -294.687053
  BL          34.521196      -17.370534     -294.589126
  BL          34.486068      -15.373242     -294.491199
  BL          34.450940      -13.375950     -294.393271
  BL          34.415812      -11.378658     -294.295344
  BL          34.380684       -9.381365     -294.197417
  BL          34.345556       -7.384073     -294.099490
  BL          34.310428       -5.386781     -294.001563
  BL          34.275300       -3.389489     -293.903635
  BL          34.240172       -1.392196     -293.805708
  BL          34.205044        0.605096     -293.707781
  BL          34.169916        2.602388     -293.609854
  BL          34.134788        4.599680     -293.511927
  BL          34.099660        6.596972     -293.413999
  BL          34.064532        8.594265     -293.316072
  BL          34.029404       10.591557     -293.218145
  BL          33.994276       12.588849     -293.120218
  BL          33.959148       14.586141     -293.022291
  BL          33.924020       16.583434     -292.924363
  BL          33.888892       18.580726     -292.826436
  BL          33.853764       20.578018     -292.728509
  BL          33.818636       22.575310     -292.630582
  BL          33.783508       24.572603     -292.532655
  BL          33.748380       26.569895     -292.434727
  BL          33.713252       28.567187     -292.336800
  BL          33.678124       30.564479     -292.238873
  B          151.395964      187.500254     -204.922064
  B          149.554095      186.789185     -204.602849
  B          147.712226      186.078115     -204.283634
  B          145.870357      185.367045     -203.964419
  B          144.028488      184.655975     -203.645204
  B          142.186619      183.944905     -203.325990
  B          140.344750      183.233835     -203.006775
  B          138.502881      182.522765     -202.687560
  B          136.661012      181.811695     -202.368345
  B          134.819143      181.100625     -202.049130
  B          132.977274      180.389556     -201.729915
  B          131.135405      179.678486     -201.410701
  B          129.293536      178.967416     -201.091486
  B          127.451667      178.256346     -200.772271
  B          125.609798      177.545276     -200.453056
  B          123.767929      176.834206     -200.133841
  B          121.926060      176.123136     -199.814627
  B          120.084191      175.412066     -199.495412
  B          118.242322      174.700996     -199.176197
  B          116.400453      173.989926     -198.856982
  BL         114.558584      173.278857     -198.537767
  BL         112.716714      172.567787     -198.218552
  BL         110.874845      171.856717     -197.899338
  BL         109.032976      171.145647     -197.580123
  BL         107.191107      170.434577     -197.260908
  BL         105.349238      169.723507     -196.941693
  BL         103.507369      169.012437     -196.622478
  BL         101.665500      168.301367     -196.303264
  BL          99.823631      167.590297     -195.984049
  BL          97.981762      166.879228     -195.664834
  BL          96.139893      166.168158     -195.345619
  BL          94.298024      165.457088     -195.026404
  BL          92.456155      164.746018     -194.707189
  BL          90.614286      164.034948     -194.387975
  BL          88.772417      163.323878     -194.068760
  BL          86.930548      162.612808     -193.749545
  BL          85.088679      161.901738     -193.430330
  BL          83.246810      161.190668     -193.111115
  BL          81.404941      160.479599     -192.791901
  BL          79.563072      159.768529     -192.472686
  BL          77.721203      159.057459     -192.153471
  BL          75.879334      158.346389     -191.834256
  BL          74.037465      157.635319     -191.515041
  BL          72.195596      156.924249     -191.195826
  BL          70.353727      156.213179     -190.876612
  BL          68.511858      155.502109     -190.557397
  BL          66.669989      154.791039     -190.238182
  BL          64.828120      154.079969     -189.918967
  BL          62.986251      153.368900     -189.599752
  BL          61.144382      152.657830     -189.280538
  BL          59.302513      151.946760     -188.961323
  BL          57.460644      151.235690     -188.642108
  BL          55.618775      150.524620     -188.322893
  BL          53.776906      149.813550     -188.003678
  BL          51.935037      149.102480     -187.684463
  BL          50.093168      148.391410     -187.365249
  BL          48.251299      147.680340     -187.046034
  BL          46.409430      146.969271     -186.726819
  BL          44.567561      146.258201     -186.407604
  BL          42.725692      145.547131     -186.088389
  BL          40.883822      144.836061     -185.769175
  BL          39.041953      144.124991     -185.449960
  BL          37.200084      143.413921     -185.130745
  BL          35.358215      142.702851     -184.811530
  BL          33.516346      141.991781     -184.492315
  BL          31.674477      141.280711     -184.173100
  BL          29.832608      140.569641     -183.853886
  BL          27.990739      139.858572     -183.534671
  BL          26.148870      139.147502     -183.215456
  BL          24.307001      138.436432     -182.896241
  B           -9.143282      244.933954       20.404364
  B           -7.211017      245.155124       19.938062
  B           -5.278752      245.376295       19.471761
  B           -3.346487      245.597465       19.005460
  B           -1.414223      245.818636       18.539159
  B            0.518042      246.039806       18.072858
  B            2.450307      246.260976       17.606556
  B            4.382571      246.482147       17.140255
  B            6.314836      246.703317       16.673954
  B            8.247101      246.924488       16.207653
  B           10.179365      247.145658       15.741352
  B           12.111630      247.366828       15.275050
  B           14.043895      247.587999       14.808749
  B           15.976159      247.809169       14.342448
  B           17.908424      248.030340       13.876147
  B           19.840689      248.251510       13.409845
  B           21.772953      248.472681       12.943544
  B           23.705218      248.693851       12.477243
  B           25.637483      248.915021       12.010942
  B           27.569748      249.136192       11.544641
  BL          29.502012      249.357362       11.078339
  BL          31.434277      249.578533       10.612038
  BL          33.366542      249.799703       10.145737
  BL          35.298806      250.020874        9.679436
  BL          37.231071      250.242044        9.213135
  BL          39.163336      250.463214        8.746833
  BL          41.095600      250.684385        8.280532
  BL          43.027865      250.905555        7.814231
  BL          44.960130      251.126726        7.347930
  BL          46.892394      251.347896        6.881628
  BL          48.824659      251.569067        6.415327
  BL          50.756924      251.790237        5.949026
  BL          52.689188      252.011407        5.482725
  BL          54.621453      252.232578        5.016424
  BL          56.553718      252.453748        4.550122
  BL          58.485982      252.674919        4.083821
  BL          60.418247      252.896089        3.617520
  BL          62.350512      253.117260        3.151219
  BL          64.282777      253.338430        2.684917
  BL          66.215041      253.559600        2.218616
  BL          68.147306      253.780771        1.752315
  BL          70.079571      254.001941        1.286014
  BL          72.011835      254.223112        0.819713
  BL          73.944100      254.444282        0.353411
  BL          75.876365      254.665452       -0.112890
  BL          77.808629      254.886623       -0.579191
  BL          79.740894      255.107793       -1.045492
  BL          81.673159      255.328964       -1.511793
  BL          83.605423      255.550134       -1.978095
  BL          85.537688      255.771305       -2.444396
  BL          87.469953      255.992475       -2.910697
  BL          89.402217      256.213645       -3.376998
  BL          91.334482      256.434816       -3.843300
  BL          93.266747      256.655986       -4.309601
  BL          95.199012      256.877157       -4.775902
  BL          97.131276      257.098327       -5.242203
  BL          99.063541      257.319498       -5.708504
  BL         100.995806      257.540668       -6.174806
  BL         102.928070      257.761838       -6.641107
  BL         104.860335      257.983009       -7.107408
  BL         106.792600      258.204179       -7.573709
  BL         108.724864      258.425350       -8.040010
  BL         110.657129      258.646520       -8.506312
  BL         112.589394      258.867691       -8.972613
  BL         114.521658      259.088861       -9.438914
  BL         116.453923      259.310031       -9.905215
  BL         118.386188      259.531202      -10.371517
  BL         120.318452      259.752372      -10.837818
  BL         122.250717      259.973543      -11.304119
  BL         124.182982      260.194713      -11.770420
  B          -75.320382       79.111081       10.447545
  B          -76.667014       77.654197       10.194417
  B          -78.013646       76.197314        9.941290
  B          -79.360277       74.740431        9.688162
  B          -80.706909       73.283547        9.435034
  B          -82.053541       71.826664        9.181906
  B          -83.400173       70.369781        8.928779
  B          -84.746805       68.912897        8.675651
  B          -86.093437       67.456014        8.422523
  B          -87.440068       65.999131        8.169395
  B          -88.786700       64.542247        7.916267
  B          -90.133332       63.085364        7.663140
  B          -91.479964       61.628481        7.410012
  B          -92.826596       60.171597        7.156884
  B          -94.173228       58.714714        6.903756
  B          -95.519859       57.257831        6.650629
  B          -96.866491       55.800947        6.397501
  B          -98.213123       54.344064        6.144373
  B          -99.559755       52.887181        5.891245
  B         -100.906387       51.430297        5.638117
  BL        -102.253018       49.973414        5.384990
  BL        -103.599650       48.516531        5.131862
  BL        -104.946282       47.059647        4.878734
  BL        -106.292914       45.602764        4.625606
  BL        -107.639546       44.145881        4.372479
  BL        -108.986178       42.688997        4.119351
  BL        -110.332809       41.232114        3.866223
  BL        -111.679441       39.775230        3.613095
  BL        -113.026073       38.318347        3.359968
  BL        -114.372705       36.861464        3.106840
  BL        -115.719337       35.404580        2.853712
  BL        -117.065968       33.947697        2.600584
  BL        -118.412600       32.490814        2.347456
  BL        -119.759232       31.033930        2.094329
  BL        -121.105864       29.577047        1.841201
  BL        -122.452496       28.120164        1.588073
  BL        -123.799128       26.663280        1.334945
  BL        -125.145759       25.206397        1.081818
  BL        -126.492391       23.749514        0.828690
  BL        -127.839023       22.292630        0.575562
  BL        -129.185655       20.835747        0.322434
  BL        -130.532287       19.378864        0.069306
  BL        -131.878919       17.921980       -0.183821
  BL        -133.225550       16.465097       -0.436949
  BL        -134.572182       15.008214       -0.690077
  BL        -135.918814       13.551330       -0.943205
  BL        -137.265446       12.094447       -1.196332
  BL        -138.612078       10.637564       -1.449460
  BL        -139.958709        9.180680       -1.702588
  BL        -141.305341        7.723797       -1.955716
  BL        -142.651973        6.266914       -2.208844
  BL        -143.998605        4.810030       -2.461971
  BL        -145.345237        3.353147       -2.715099
  BL        -146.691869        1.896264       -2.968227
  BL        -148.038500        0.439380       -3.221355
  BL        -149.385132       -1.017503       -3.474482
  BL        -150.731764       -2.474386       -3.727610
  BL        -152.078396       -3.931270       -3.980738
  BL        -153.425028       -5.388153       -4.233866
  BL        -154.771659       -6.845036       -4.486994
  BL        -156.118291       -8.301920       -4.740121
  BL        -157.464923       -9.758803       -4.993249
  BL        -158.811555      -11.215686       -5.246377
  BL        -160.158187      -12.672570       -5.499505
  BL        -161.504819      -14.129453       -5.752632
  BL        -162.851450      -15.586336       -6.005760
  BL        -164.198082      -17.043220       -6.258888
  BL        -165.544714      -18.500103       -6.512016
  BL        -166.891346      -19.956986       -6.765143
  BL        -168.237978      -21.413870       -7.018271
  B          112.018351       24.113576       -4.893742
  B          110.336501       24.483184       -5.910979
  B          108.654651       24.852791       -6.928216
  B          106.972801       25.222398       -7.945453
  B          105.290951       25.592005       -8.962690
  B          103.609101       25.961612       -9.979927
  B          101.927251       26.331219      -10.997164
  B          100.245401       26.700826      -12.014401
  B           98.563551       27.070433      -13.031638
  B           96.881701       27.440041      -14.048875
  B           95.199851       27.809648      -15.066112
  B           93.518001       28.179255      -16.083349
  B           91.836151       28.548862      -17.100586
  B           90.154301       28.918469      -18.117823
  B           88.472451       29.288076      -19.135060
  B           86.790601       29.657683      -20.152297
  B           85.108751       30.027290      -21.169534
  B           83.426901       30.396898      -22.186771
  B           81.745051       30.766505      -23.204008
  B           80.063201       31.136112      -24.221245
  BL          78.381351       31.505719      -25.238482
  BL          76.699501       31.875326      -26.255719
  BL          75.017651       32.244933      -27.272956
  BL          73.335801       32.614540      -28.290193
  BL          71.653951       32.984148      -29.307430
  BL          69.972101       33.353755      -30.324667
  BL          68.290251       33.723362      -31.341904
  BL          66.608401       34.092969      -32.359141
  BL          64.926551       34.462576      -33.376378
  BL          63.244701       34.832183      -34.393615
  BL          61.562851       35.201790      -35.410852
  BL          59.881001       35.571397      -36.428089
  BL          58.199151       35.941005      -37.445326
  BL          56.517301       36.310612      -38.462563
  BL          54.835451       36.680219      -39.479800
  BL          53.153601       37.049826      -40.497037
  BL          51.471751       37.419433      -41.514274
  BL          49.789901       37.789040      -42.531511
  BL          48.108051       38.158647      -43.548748
  BL          46.426201       38.528254      -44.565985
  BL          44.744351       38.897862      -45.583222
  BL          43.062501       39.267469      -46.600459
  BL          41.380651       39.637076      -47.617696
  BL          39.698801       40.006683      -48.634933
  BL          38.016951       40.376290      -49.652170
  BL          36.335101       40.745897      -50.669407
  BL          34.653251       41.115504      -51.686643
  BL          32.971401       41.485112      -52.703880
  BL          31.289551       41.854719      -53.721117
  BL          29.607701       42.224326      -54.738354
  BL          27.925851       42.593933      -55.755591
  BL          26.244001       42.963540      -56.772828
  BL          24.562151       43.333147      -57.790065
  BL          22.880301       43.702754      -58.807302
  BL          21.198451       44.072361      -59.824539
  BL          19.516600       44.441969      -60.841776
  BL          17.834750       44.811576      -61.859013
  BL          16.152900       45.181183      -62.876250
  BL          14.471050       45.550790      -63.893487
  BL          12.789200       45.920397      -64.910724
  BL          11.107350       46.290004      -65.927961
  BL           9.425500       46.659611      -66.945198
  BL           7.743650       47.029218      -67.962435
  BL           6.061800       47.398826      -68.979672
  BL           4.379950       47.768433      -69.996909
  BL           2.698100       48.138040      -71.014146
  BL           1.016250       48.507647      -72.031383
  BL          -0.665600       48.877254      -73.048620
  BL          -2.347450       49.246861      -74.065857
  BL          -4.029300       49.616468      -75.083094
  B           -3.631908       -2.645883      156.466335
  B           -3.581486       -1.364759      154.931350
  B           -3.531064       -0.083634      153.396366
  B           -3.480642        1.197490      151.861381
  B           -3.430220        2.478615      150.326397
  B           -3.379798        3.759739      148.791412
  B           -3.329376        5.040864      147.256428
  B           -3.278954        6.321988      145.721443
  B           -3.228532        7.603113      144.186458
  B           -3.178110        8.884237      142.651474
  B           -3.127688       10.165362      141.116489
  B           -3.077266       11.446486      139.581505
  B           -3.026844       12.727611      138.046520
  B           -2.976421       14.008735      136.511536
  B           -2.925999       15.289860      134.976551
  B           -2.875577       16.570984      133.441567
  B           -2.825155       17.852109      131.906582
  B           -2.774733       19.133233      130.371597
  B           -2.724311       20.414358      128.836613
  B           -2.673889       21.695482      127.301628
  BL          -2.623467       22.976607      125.766644
  BL          -2.573045       24.257731      124.231659
  BL          -2.522623       25.538856      122.696675
  BL          -2.472201       26.819980      121.161690
  BL          -2.421779       28.101105      119.626705
  BL          -2.371357       29.382229      118.091721
  BL          -2.320935       30.663354      116.556736
  BL          -2.270513       31.944478      115.021752
  BL          -2.220090       33.225603      113.486767
  BL          -2.169668       34.506727      111.951783
  BL          -2.119246       35.787852      110.416798
  BL          -2.068824       37.068976      108.881814
  BL          -2.018402       38.350101      107.346829
  BL          -1.967980       39.631226      105.811844
  BL          -1.917558       40.912350      104.276860
  BL          -1.867136       42.193475      102.741875
  BL          -1.816714       43.474599      101.206891
  BL          -1.766292       44.755724       99.671906
  BL          -1.715870       46.036848       98.136922
  BL          -1.665448       47.317973       96.601937
  BL          -1.615026       48.599097       95.066952
  BL          -1.564604       49.880222       93.531968
  BL          -1.514181       51.161346       91.996983
  BL          -1.463759       52.442471       90.461999
  BL          -1.413337       53.723595       88.927014
  BL          -1.362915       55.004720       87.392030
  BL          -1.312493       56.285844       85.857045
  BL          -1.262071       57.566969       84.322061
  BL          -1.211649       58.848093       82.787076
  BL          -1.161227       60.129218       81.252091
  BL          -1.110805       61.410342       79.717107
  BL          -1.060383       62.691467       78.182122
  BL          -1.009961       63.972591       76.647138
  BL          -0.959539       65.253716       75.112153
  BL          -0.909117       66.534840       73.577169
  BL          -0.858695       67.815965       72.042184
  BL          -0.808273       69.097089       70.507200
  BL          -0.757850       70.378214       68.972215
  BL          -0.707428       71.659338       67.437230
  BL          -0.657006       72.940463       65.902246
  BL          -0.606584       74.221587       64.367261
  BL          -0.556162       75.502712       62.832277
  BL          -0.505740       76.783836       61.297292
  BL          -0.455318       78.064961       59.762308
  BL          -0.404896       79.346085       58.227323
  BL          -0.354474       80.627210       56.692338
  BL          -0.304052       81.908334       55.157354
  BL          -0.253630       83.189459       53.622369
  BL          -0.203208       84.470583       52.087385
  BL          -0.152786       85.751708       50.552400
  B           19.518814       52.896659       65.911849
  B           19.808880       50.917951       65.887816
  B           20.098945       48.939243       65.863784
  B           20.389011       46.960536       65.839751
  B           20.679077       44.981828       65.815718
  B           20.969142       43.003120       65.791686
  B           21.259208       41.024412       65.767653
  B           21.549273       39.045704       65.743620
  B           21.839339       37.066997       65.719587
  B           22.129405       35.088289       65.695555
  B           22.419470       33.109581       65.671522
  B           22.709536       31.130873       65.647489
  B           22.999601       29.152166       65.623457
  B           23.289667       27.173458       65.599424
  B           23.579733       25.194750       65.575391
  B           23.869798       23.216042       65.551358
  B           24.159864       21.237335       65.527326
  B           24.449929       19.258627       65.503293
  B           24.739995       17.279919       65.479260
  B           25.030060       15.301211       65.455228
  BL          25.320126       13.322504       65.431195
  BL          25.610192       11.343796       65.407162
  BL          25.900257        9.365088       65.383129
  BL          26.190323        7.386380       65.359097
  BL          26.480388        5.407673       65.335064
  BL          26.770454        3.428965       65.311031
  BL          27.060520        1.450257       65.286999
  BL          27.350585       -0.528451       65.262966
  BL          27.640651       -2.507158       65.238933
  BL          27.930716       -4.485866       65.214900
  BL          28.220782       -6.464574       65.190868
  BL          28.510848       -8.443282       65.166835
  BL          28.800913      -10.421989       65.142802
  BL          29.090979      -12.400697       65.118770
  BL          29.381044      -14.379405       65.094737
  BL          29.671110      -16.358113       65.070704
  BL          29.961176      -18.336820       65.046671
  BL          30.251241      -20.315528       65.022639
  BL          30.541307      -22.294236       64.998606
  BL          30.831372      -24.272944       64.974573
  BL          31.121438      -26.251651       64.950541
  BL          31.411503      -28.230359       64.926508
  BL          31.701569      -30.209067       64.902475
  BL          31.991635      -32.187775       64.878442
  BL          32.281700      -34.166482       64.854410
  BL          32.571766      -36.145190       64.830377
  BL          32.861831      -38.123898       64.806344
  BL          33.151897      -40.102606       64.782312
  BL          33.441963      -42.081313       64.758279
  BL          33.732028      -44.060021       64.734246
  BL          34.022094      -46.038729       64.710213
  BL          34.312159      -48.017437       64.686181
  BL          34.602225      -49.996145       64.662148
  BL          34.892291      -51.974852       64.638115
  BL          35.182356      -53.953560       64.614083
  BL          35.472422      -55.932268       64.590050
  BL          35.762487      -57.910976       64.566017
  BL          36.052553      -59.889683       64.541984
  BL          36.342619      -61.868391       64.517952
  BL          36.632684      -63.847099       64.493919
  BL          36.922750      -65.825807       64.469886
  BL          37.212815      -67.804514       64.445854
  BL          37.502881      -69.783222       64.421821
  BL          37.792946      -71.761930       64.397788
  BL          38.083012      -73.740638       64.373755
  BL          38.373078      -75.719345       64.349723
  BL          38.663143      -77.698053       64.325690
  BL          38.953209      -79.676761       64.301657
  BL          39.243274      -81.655469       64.277625
  BL          39.533340      -83.634176       64.253592
  B           48.956786      288.835423      151.434650
  B           48.188642      287.118834      150.754004
  B           47.420498      285.402246      150.073358
  B           46.652354      283.685657      149.392712
  B           45.884210      281.969069      148.712066
  B           45.116066      280.252480      148.031420
  B           44.347922      278.535892      147.350774
  B           43.579778      276.819303      146.670128
  B           42.811634      275.102715      145.989482
  B           42.043491      273.386126      145.308836
  B           41.275347      271.669538      144.628190
  B           40.507203      269.952949      143.947544
  B           39.739059      268.236361      143.266898
  B           38.970915      266.519773      142.586252
  B           38.202771      264.803184      141.905606
  B           37.434627      263.086596      141.224960
  B           36.666483      261.370007      140.544315
  B           35.898339      259.653419      139.863669
  B           35.130195      257.936830      139.183023
  B           34.362052      256.220242      138.502377
  BL          33.593908      254.503653      137.821731
  BL          32.825764      252.787065      137.141085
  BL          32.057620      251.070476      136.460439
  BL          31.289476      249.353888      135.779793
  BL          30.521332      247.637299      135.099147
  BL          29.753188      245.920711      134.418501
  BL          28.985044      244.204122      133.737855
  BL          28.216900      242.487534      133.057209
  BL          27.448756      240.770945      132.376563
  BL          26.680612      239.054357      131.695917
  BL          25.912469      237.337768      131.015271
  BL          25.144325      235.621180      130.334626
  BL          24.376181      233.904591      129.653980
  BL          23.608037      232.188003      128.973334
  BL          22.839893      230.471414      128.292688
  BL          22.071749      228.754826      127.612042
  BL          21.303605      227.038237      126.931396
  BL          20.535461      225.321649      126.250750
  BL          19.767317      223.605060      125.570104
  BL          18.999173      221.888472      124.889458
  BL          18.231030      220.171883      124.208812
  BL          17.462886      218.455295      123.528166
  BL          16.694742      216.738706      122.847520
  BL          15.926598      215.022118      122.166874
  BL          15.158454      213.305529      121.486228
  BL          14.390310      211.588941      120.805582
  BL          13.622166      209.872352      120.124936
  BL          12.854022      208.155764      119.444291
  BL          12.085878      206.439175      118.763645
  BL          11.317734      204.722587      118.082999
  BL          10.549591      203.005998      117.402353
  BL           9.781447      201.289410      116.721707
  BL           9.013303      199.572821      116.041061
  BL           8.245159      197.856233      115.360415
  BL           7.477015      196.139644      114.679769
  BL           6.708871      194.423056      113.999123
  BL           5.940727      192.706467      113.318477
  BL           5.172583      190.989879      112.637831
  BL           4.404439      189.273290      111.957185
  BL           3.636295      187.556702      111.276539
  BL           2.868151      185.840113      110.595893
  BL           2.100008      184.123525      109.915247
  BL           1.331864      182.406936      109.234601
  BL           0.563720      180.690348      108.553956
  BL          -0.204424      178.973759      107.873310
  BL          -0.972568      177.257171      107.192664
  BL          -1.740712      175.540582      106.512018
  BL          -2.508856      173.823994      105.831372
  BL          -3.277000      172.107405      105.150726
  BL          -4.045144      170.390817      104.470080
  B          -43.505400      149.380737       23.007356
  B          -42.706767      151.179868       22.653358
  B          -41.908134      152.978998       22.299360
  B          -41.109501      154.778129       21.945363
  B          -40.310868      156.577259       21.591365
  B          -39.512235      158.376390       21.237367
  B          -38.713602      160.175521       20.883370
  B          -37.914969      161.974651       20.529372
  B          -37.116336      163.773782       20.175374
  B          -36.317703      165.572912       19.821376
  B          -35.519070      167.372043       19.467379
  B          -34.720437      169.171174       19.113381
  B          -33.921804      170.970304       18.759383
  B          -33.123171      172.769435       18.405386
  B          -32.324538      174.568565       18.051388
  B          -31.525905      176.367696       17.697390
  B          -30.727272      178.166827       17.343393
  B          -29.928639      179.965957       16.989395
  B          -29.130006      181.765088       16.635397
  B          -28.331373      183.564218       16.281399
  BL         -27.532740      185.363349       15.927402
  BL         -26.734107      187.162480       15.573404
  BL         -25.935474      188.961610       15.219406
  BL         -25.136841      190.760741       14.865409
  BL         -24.338208      192.559872       14.511411
  BL         -23.539575      194.359002       14.157413
  BL         -22.740942      196.158133       13.803415
  BL         -21.942309      197.957263       13.449418
  BL         -21.143676      199.756394       13.095420
  BL         -20.345043      201.555525       12.741422
  BL         -19.546410      203.354655       12.387425
  BL         -18.747777      205.153786       12.033427
  BL         -17.949144      206.952916       11.679429
  BL         -17.150511      208.752047       11.325432
  BL         -16.351878      210.551178       10.971434
  BL         -15.553245      212.350308       10.617436
  BL         -14.754612      214.149439       10.263438
  BL         -13.955979      215.948569        9.909441
  BL         -13.157346      217.747700        9.555443
  BL         -12.358713      219.546831        9.201445
  BL         -11.560080      221.345961        8.847448
  BL         -10.761447      223.145092        8.493450
  BL          -9.962814      224.944222        8.139452
  BL          -9.164181      226.743353        7.785454
  BL          -8.365548      228.542484        7.431457
  BL          -7.566915      230.341614        7.077459
  BL          -6.768282      232.140745        6.723461
  BL          -5.969649      233.939875        6.369464
  BL          -5.171016      235.739006        6.015466
  BL          -4.372383      237.538137        5.661468
  BL          -3.573750      239.337267        5.307470
  BL          -2.775117      241.136398        4.953473
  BL          -1.976484      242.935528        4.599475
  BL          -1.177851      244.734659        4.245477
  BL          -0.379218      246.533790        3.891480
  BL           0.419415      248.332920        3.537482
  BL           1.218048      250.132051        3.183484
  BL           2.016681      251.931182        2.829487
  BL           2.815314      253.730312        2.475489
  BL           3.613947      255.529443        2.121491
  BL           4.412580      257.328573        1.767493
  BL           5.211213      259.127704        1.413496
  BL           6.009846      260.926835        1.059498
  BL           6.808479      262.725965        0.705500
  BL           7.607112      264.525096        0.351503
  BL           8.405745      266.324226       -0.002495
  BL           9.204378      268.123357       -0.356493
  BL          10.003012      269.922488       -0.710491
  BL          10.801645      271.721618       -1.064488
  BL          11.600278      273.520749       -1.418486
  B         -212.528674       88.012910     -115.075754
  B         -210.833531       88.960324     -115.554185
  B         -209.138388       89.907737     -116.032617
  B         -207.443244       90.855150     -116.511049
  B         -205.748101       91.802563     -116.989481
  B         -204.052957       92.749977     -117.467913
  B         -202.357814       93.697390     -117.946344
  B         -200.662670       94.644803     -118.424776
  B         -198.967527       95.592216     -118.903208
  B         -197.272384       96.539629     -119.381640
  B         -195.577240       97.487043     -119.860071
  B         -193.882097       98.434456     -120.338503
  B         -192.186953       99.381869     -120.816935
  B         -190.491810      100.329282     -121.295367
  B         -188.796667      101.276696     -121.773799
  B         -187.101523      102.224109     -122.252230
  B         -185.406380      103.171522     -122.730662
  B         -183.711236      104.118935     -123.209094
  B         -182.016093      105.066348     -123.687526
  B         -180.320949      106.013762     -124.165958
  BL        -178.625806      106.961175     -124.644389
  BL        -176.930663      107.908588     -125.122821
  BL        -175.235519      108.856001     -125.601253
  BL        -173.540376      109.803415     -126.079685
  BL        -171.845232      110.750828     -126.558117
  BL        -170.150089      111.698241     -127.036548
  BL        -168.454946      112.645654     -127.514980
  BL        -166.759802      113.593067     -127.993412
  BL        -165.064659      114.540481     -128.471844
  BL        -163.369515      115.487894     -128.950276
  BL        -161.674372      116.435307     -129.428707
  BL        -159.979228      117.382720     -129.907139
  BL        -158.284085      118.330134     -130.385571
  BL        -156.588942      119.277547     -130.864003
  BL        -154.893798      120.224960     -131.342435
  BL        -153.198655      121.172373     -131.820866
  BL        -151.503511      122.119786     -132.299298
  BL        -149.808368      123.067200     -132.777730
  BL        -148.113225      124.014613     -133.256162
  BL        -146.418081      124.962026     -133.734594
  BL        -144.722938      125.909439     -134.213025
  BL        -143.027794      126.856853     -134.691457
  BL        -141.332651      127.804266     -135.169889
  BL        -139.637508      128.751679     -135.648321
  BL        -137.942364      129.699092     -136.126753
  BL        -136.247221      130.646505     -136.605184
  BL        -134.552077      131.593919     -137.083616
  BL        -132.856934      132.541332     -137.562048
  BL        -131.161790      133.488745     -138.040480
  BL        -129.466647      134.436158     -138.518912
  BL        -127.771504      135.383572     -138.997343
  BL        -126.076360      136.330985     -139.475775
  BL        -124.381217      137.278398     -139.954207
  BL        -122.686073      138.225811     -140.432639
  BL        -120.990930      139.173224     -140.911071
  BL        -119.295787      140.120638     -141.389502
  BL        -117.600643      141.068051     -141.867934
  BL        -115.905500      142.015464     -142.346366
  BL        -114.210356      142.962877     -142.824798
  BL        -112.515213      143.910291     -143.303230
  BL        -110.820069      144.857704     -143.781661
  BL        -109.124926      145.805117     -144.260093
  BL        -107.429783      146.752530     -144.738525
  BL        -105.734639      147.699943     -145.216957
  BL        -104.039496      148.647357     -145.695389
  BL        -102.344352      149.594770     -146.173820
  BL        -100.649209      150.542183     -146.652252
  BL         -98.954066      151.489596     -147.130684
  BL         -97.258922      152.437010     -147.609116
  BL         -95.563779      153.384423     -148.087548
  B          244.208388      279.532378      218.775457
  B          244.080931      278.577864      217.022557
  B          243.953474      277.623351      215.269657
  B          243.826017      276.668837      213.516757
  B          243.698560      275.714323      211.763857
  B          243.571103      274.759810      210.010957
  B          243.443646      273.805296      208.258057
  B          243.316189      272.850782      206.505157
  B          243.188732      271.896268      204.752257
  B          243.061275      270.941755      202.999357
  B          242.933818      269.987241      201.246457
  B          242.806361      269.032727      199.493557
  B          242.678904      268.078214      197.740657
  B          242.551447      267.123700      195.987757
  B          242.423990      266.169186      194.234857
  B          242.296533      265.214672      192.481957
  B          242.169076      264.260159      190.729057
  B          242.041619      263.305645      188.976157
  B          241.914163      262.351131      187.223257
  B          241.786706      261.396618      185.470357
  BL         241.659249      260.442104      183.717457
  BL         241.531792      259.487590      181.964557
  BL         241.404335      258.533077      180.211658
  BL         241.276878      257.578563      178.458758
  BL         241.149421      256.624049      176.705858
  BL         241.021964      255.669535      174.952958
  BL         240.894507      254.715022      173.200058
  BL         240.767050      253.760508      171.447158
  BL         240.639593      252.805994      169.694258
  BL         240.512136      251.851481      167.941358
  BL         240.384679      250.896967      166.188458
  BL         240.257222      249.942453      164.435558
  BL         240.129765      248.987939      162.682658
  BL         240.002308      248.033426      160.929758
  BL         239.874851      247.078912      159.176858
  BL         239.747394      246.124398      157.423958
  BL         239.619937      245.169885      155.671058
  BL         239.492480      244.215371      153.918158
  BL         239.365023      243.260857      152.165258
  BL         239.237566      242.306344      150.412358
  BL         239.110109      241.351830      148.659458
  BL         238.982652      240.397316      146.906558
  BL         238.855195      239.442802      145.153658
  BL         238.727738      238.488289      143.400758
  BL         238.600281      237.533775      141.647858
  BL         238.472824      236.579261      139.894958
  BL         238.345367      235.624748      138.142058
  BL         238.217910      234.670234      136.389158
  BL         238.090453      233.715720      134.636258
  BL         237.962996      232.761206      132.883358
  BL         237.835539      231.806693      131.130458
  BL         237.708082      230.852179      129.377558
  BL         237.580626      229.897665      127.624658
  BL         237.453169      228.943152      125.871758
  BL         237.325712      227.988638      124.118858
  BL         237.198255      227.034124      122.365959
  BL         237.070798      226.079611      120.613059
  BL         236.943341      225.125097      118.860159
  BL         236.815884      224.170583      117.107259
  BL         236.688427      223.216069      115.354359
  BL         236.560970      222.261556      113.601459
  BL         236.433513      221.307042      111.848559
  BL         236.306056      220.352528      110.095659
  BL         236.178599      219.398015      108.342759
  BL         236.051142      218.443501      106.589859
  BL         235.923685      217.488987      104.836959
  BL         235.796228      216.534473      103.084059
  BL         235.668771      215.579960      101.331159
  BL         235.541314      214.625446       99.578259
  BL         235.413857      213.670932       97.825359
  B          103.772325     -239.742329       11.621075
  B          105.316404     -239.199769       10.471532
  B          106.860482     -238.657208        9.321989
  B          108.404561     -238.114648        8.172447
  B          109.948640     -237.572088        7.022904
  B          111.492719     -237.029527        5.873361
  B          113.036798     -236.486967        4.723818
  B          114.580877     -235.944406        3.574275
  B          116.124955     -235.401846        2.424732
  B          117.669034     -234.859285        1.275190
  B          119.213113     -234.316725        0.125647
  B          120.757192     -233.774164       -1.023896
  B          122.301271     -233.231604       -2.173439
  B          123.845350     -232.689043       -3.322982
  B          125.389428     -232.146483       -4.472524
  B          126.933507     -231.603922       -5.622067
  B          128.477586     -231.061362       -6.771610
  B          130.021665     -230.518801       -7.921153
  B          131.565744     -229.976241       -9.070696
  B          133.109823     -229.433680      -10.220238
  BL         134.653902     -228.891120      -11.369781
  BL         136.197980     -228.348559      -12.519324
  BL         137.742059     -227.805999      -13.668867
  BL         139.286138     -227.263439      -14.818410
  BL         140.830217     -226.720878      -15.967952
  BL         142.374296     -226.178318      -17.117495
  BL         143.918375     -225.635757      -18.267038
  BL         145.462453     -225.093197      -19.416581
  BL         147.006532     -224.550636      -20.566124
  BL         148.550611     -224.008076      -21.715667
  BL         150.094690     -223.465515      -22.865209
  BL         151.638769     -222.922955      -24.014752
  BL         153.182848     -222.380394      -25.164295
  BL         154.726926     -221.837834      -26.313838
  BL         156.271005     -221.295273      -27.463381
  BL         157.815084     -220.752713      -28.612923
  BL         159.359163     -220.210152      -29.762466
  BL         160.903242     -219.667592      -30.912009
  BL         162.447321     -219.125031      -32.061552
  BL         163.991399     -218.582471      -33.211095
  BL         165.535478     -218.039910      -34.360637
  BL         167.079557     -217.497350      -35.510180
  BL         168.623636     -216.954790      -36.659723
  BL         170.167715     -216.412229      -37.809266
  BL         171.711794     -215.869669      -38.958809
  BL         173.255873     -215.327108      -40.108351
  BL         174.799951     -214.784548      -41.257894
  BL         176.344030     -214.241987      -42.407437
  BL         177.888109     -213.699427      -43.556980
  BL         179.432188     -213.156866      -44.706523
  BL         180.976267     -212.614306      -45.856065
  BL         182.520346     -212.071745      -47.005608
  BL         184.064424     -211.529185      -48.155151
  BL         185.608503     -210.986624      -49.304694
  BL         187.152582     -210.444064      -50.454237
  BL         188.696661     -209.901503      -51.603780
  BL         190.240740     -209.358943      -52.753322
  BL         191.784819     -208.816382      -53.902865
  BL         193.328897     -208.273822      -55.052408
  BL         194.872976     -207.731261      -56.201951
  BL         196.417055     -207.188701      -57.351494
  BL         197.961134     -206.646141      -58.501036
  BL         199.505213     -206.103580      -59.650579
  BL         201.049292     -205.561020      -60.800122
  BL         202.593370     -205.018459      -61.949665
  BL         204.137449     -204.475899      -63.099208
  BL         205.681528     -203.933338      -64.248750
  BL         207.225607     -203.390778      -65.398293
  BL         208.769686     -202.848217      -66.547836
  BL         210.313765     -202.305657      -67.697379
  B          120.560692      -17.937900      280.442936
  B          122.168171      -19.125643      280.370295
  B          123.775651      -20.313385      280.297654
  B          125.383131      -21.501128      280.225013
  B          126.990611      -22.688871      280.152372
  B          128.598090      -23.876613      280.079731
  B          130.205570      -25.064356      280.007090
  B          131.813050      -26.252098      279.934449
  B          133.420529      -27.439841      279.861808
  B          135.028009      -28.627583      279.789167
  B          136.635489      -29.815326      279.716526
  B          138.242968      -31.003068      279.643885
  B          139.850448      -32.190811      279.571244
  B          141.457928      -33.378553      279.498603
  B          143.065407      -34.566296      279.425962
  B          144.672887      -35.754038      279.353321
  B          146.280367      -36.941781      279.280680
  B          147.887846      -38.129524      279.208039
  B          149.495326      -39.317266      279.135398
  B          151.102806      -40.505009      279.062757
  BL         152.710286      -41.692751      278.990116
  BL         154.317765      -42.880494      278.917475
  BL         155.925245      -44.068236      278.844834
  BL         157.532725      -45.255979      278.772193
  BL         159.140204      -46.443721      278.699552
  BL         160.747684      -47.631464      278.626911
  BL         162.355164      -48.819206      278.554270
  BL         163.962643      -50.006949      278.481629
  BL         165.570123      -51.194691      278.408988
  BL         167.177603      -52.382434      278.336347
  BL         168.785082      -53.570177      278.263706
  BL         170.392562      -54.757919      278.191065
  BL         172.000042      -55.945662      278.118424
  BL         173.607521      -57.133404      278.045783
  BL         175.215001      -58.321147      277.973142
  BL         176.822481      -59.508889      277.900501
  BL         178.429961      -60.696632      277.827860
  BL         180.037440      -61.884374      277.755219
  BL         181.644920      -63.072117      277.682578
  BL         183.252400      -64.259859      277.609937
  BL         184.859879      -65.447602      277.537296
  BL         186.467359      -66.635344      277.464655
  BL         188.074839      -67.823087      277.392014
  BL         189.682318      -69.010830      277.319372
  BL         191.289798      -70.198572      277.246731
  BL         192.897278      -71.386315      277.174090
  BL         194.504757      -72.574057      277.101449
  BL         196.112237      -73.761800      277.028808
  BL         197.719717      -74.949542      276.956167
  BL         199.327196      -76.137285      276.883526
  BL         200.934676      -77.325027      276.810885
  BL         202.542156      -78.512770      276.738244
  BL         204.149635      -79.700512      276.665603
  BL         205.757115      -80.888255      276.592962
  BL         207.364595      -82.075998      276.520321
  BL         208.972075      -83.263740      276.447680
  BL         210.579554      -84.451483      276.375039
  BL         212.187034      -85.639225      276.302398
  BL         213.794514      -86.826968      276.229757
  BL         215.401993      -88.014710      276.157116
  BL         217.009473      -89.202453      276.084475
  BL         218.616953      -90.390195      276.011834
  BL         220.224432      -91.577938      275.939193
  BL         221.831912      -92.765680      275.866552
  BL         223.439392      -93.953423      275.793911
  BL         225.046871      -95.141165      275.721270
  BL         226.654351      -96.328908      275.648629
  BL         228.261831      -97.516651      275.575988
  BL         229.869310      -98.704393      275.503347
  BL         231.476790      -99.892136      275.430706
  B         -217.486056      131.794712      242.789006
  B         -218.672400      130.227457      242.419815
  B         -219.858744      128.660203      242.050625
  B         -221.045088      127.092948      241.681434
  B         -222.231432      125.525694      241.312243
  B         -223.417776      123.958439      240.943053
  B         -224.604119      122.391185      240.573862
  B         -225.790463      120.823931      240.204671
  B         -226.976807      119.256676      239.835481
  B         -228.163151      117.689422      239.466290
  B         -229.349495      116.122167      239.097099
  B         -230.535839      114.554913      238.727909
  B         -231.722182      112.987658      238.358718
  B         -232.908526      111.420404      237.989528
  B         -234.094870      109.853149      237.620337
  B         -235.281214      108.285895      237.251146
  B         -236.467558      106.718640      236.881956
  B         -237.653902      105.151386      236.512765
  B         -238.840246      103.584131      236.143574
  B         -240.026589      102.016877      235.774384
  BL        -241.212933      100.449622      235.405193
  BL        -242.399277       98.882368      235.036002
  BL        -243.585621       97.315114      234.666812
  BL        -244.771965       95.747859      234.297621
  BL        -245.958309       94.180605      233.928430
  BL        -247.144652       92.613350      233.559240
  BL        -248.330996       91.046096      233.190049
  BL        -249.517340       89.478841      232.820859
  BL        -250.703684       87.911587      232.451668
  BL        -251.890028       86.344332      232.082477
  BL        -253.076372       84.777078      231.713287
  BL        -254.262715       83.209823      231.344096
  BL        -255.449059       81.642569      230.974905
  BL        -256.635403       80.075314      230.605715
  BL        -257.821747       78.508060      230.236524
  BL        -259.008091       76.940806      229.867333
  BL        -260.194435       75.373551      229.498143
  BL        -261.380779       73.806297      229.128952
  BL        -262.567122       72.239042      228.759761
  BL        -263.753466       70.671788      228.390571
  BL        -264.939810       69.104533      228.021380
  BL        -266.126154       67.537279      227.652190
  BL        -267.312498       65.970024      227.282999
  BL        -268.498842       64.402770      226.913808
  BL        -269.685185       62.835515      226.544618
  BL        -270.871529       61.268261      226.175427
  BL        -272.057873       59.701006      225.806236
  BL        -273.244217       58.133752      225.437046
  BL        -274.430561       56.566498      225.067855
  BL        -275.616905       54.999243      224.698664
  BL        -276.803249       53.431989      224.329474
  BL        -277.989592       51.864734      223.960283
  BL        -279.175936       50.297480      223.591092
  BL        -280.362280       48.730225      223.221902
  BL        -281.548624       47.162971      222.852711
  BL        -282.734968       45.595716      222.483521
  BL        -283.921312       44.028462      222.114330
  BL        -285.107655       42.461207      221.745139
  BL        -286.293999       40.893953      221.375949
  BL        -287.480343       39.326698      221.006758
  BL        -288.666687       37.759444      220.637567
  BL        -289.853031       36.192190      220.268377
  BL        -291.039375       34.624935      219.899186
  BL        -292.225719       33.057681      219.529995
  BL        -293.412062       31.490426      219.160805
  BL        -294.598406       29.923172      218.791614
  BL        -295.784750       28.355917      218.422423
  BL        -296.971094       26.788663      218.053233
  BL        -298.157438       25.221408      217.684042
  BL        -299.343782       23.654154      217.314852
  B          -25.715968      182.934854     -197.968997
  B          -27.699920      182.730876     -197.819568
  B          -29.683871      182.526899     -197.670139
  B          -31.667823      182.322922     -197.520710
  B          -33.651775      182.118945     -197.371281
  B          -35.635726      181.914968     -197.221851
  B          -37.619678      181.710990     -197.072422
  B          -39.603630      181.507013     -196.922993
  B          -41.587581      181.303036     -196.773564
  B          -43.571533      181.099059     -196.624134
  B          -45.555485      180.895082     -196.474705
  B          -47.539436      180.691104     -196.325276
  B          -49.523388      180.487127     -196.175847
  B          -51.507340      180.283150     -196.026418
  B          -53.491291      180.079173     -195.876988
  B          -55.475243      179.875195     -195.727559
  B          -57.459195      179.671218     -195.578130
  B          -59.443146      179.467241     -195.428701
  B          -61.427098      179.263264     -195.279272
  B          -63.411050      179.059287     -195.129842
  BL         -65.395001      178.855309     -194.980413
  BL         -67.378953      178.651332     -194.830984
  BL         -69.362905      178.447355     -194.681555
  BL         -71.346856      178.243378     -194.532126
  BL         -73.330808      178.039401     -194.382696
  BL         -75.314760      177.835423     -194.233267
  BL         -77.298711      177.631446     -194.083838
  BL         -79.282663      177.427469     -193.934409
  BL         -81.266615      177.223492     -193.784979
  BL         -83.250566      177.019515     -193.635550
  BL         -85.234518      176.815537     -193.486121
  BL         -87.218470      176.611560     -193.336692
  BL         -89.202421      176.407583     -193.187263
  BL         -91.186373      176.203606     -193.037833
  BL         -93.170325      175.999629     -192.888404
  BL         -95.154276      175.795651     -192.738975
  BL         -97.138228      175.591674     -192.589546
  BL         -99.122180      175.387697     -192.440117
  BL        -101.106131      175.183720     -192.290687
  BL        -103.090083      174.979742     -192.141258
  BL        -105.074035      174.775765     -191.991829
  BL        -107.057986      174.571788     -191.842400
  BL        -109.041938      174.367811     -191.692970
  BL        -111.025890      174.163834     -191.543541
  BL        -113.009841      173.959856     -191.394112
  BL        -114.993793      173.755879     -191.244683
  BL        -116.977745      173.551902     -191.095254
  BL        -118.961696      173.347925     -190.945824
  BL        -120.945648      173.143948     -190.796395
  BL        -122.929600      172.939970     -190.646966
  BL        -124.913551      172.735993     -190.497537
  BL        -126.897503      172.532016     -190.348108
  BL        -128.881455      172.328039     -190.198678
  BL        -130.865406      172.124062     -190.049249
  BL        -132.849358      171.920084     -189.899820
  BL        -134.833310      171.716107     -189.750391
  BL        -136.817261      171.512130     -189.600962
  BL        -138.801213      171.308153     -189.451532
  BL        -140.785165      171.104176     -189.302103
  BL        -142.769116      170.900198     -189.152674
  BL        -144.753068      170.696221     -189.003245
  BL        -146.737020      170.492244     -188.853815
  BL        -148.720971      170.288267     -188.704386
  BL        -150.704923      170.084289     -188.554957
  BL        -152.688875      169.880312     -188.405528
  BL        -154.672826      169.676335     -188.256099
  BL        -156.656778      169.472358     -188.106669
  BL        -158.640730      169.268381     -187.957240
  BL        -160.624681      169.064403     -187.807811
  BL        -162.608633      168.860426     -187.658382
  B          240.162217      103.497721     -162.258974
  B          238.197613      103.815423     -162.457454
  B          236.233008      104.133126     -162.655934
  B          234.268404      104.450828     -162.854414
  B          232.303799      104.768530     -163.052893
  B          230.339195      105.086233     -163.251373
  B          228.374590      105.403935     -163.449853
  B          226.409986      105.721638     -163.648333
  B          224.445381      106.039340     -163.846813
  B          222.480776      106.357043     -164.045292
  B          220.516172      106.674745     -164.243772
  B          218.551567      106.992447     -164.442252
  B          216.586963      107.310150     -164.640732
  B          214.622358      107.627852     -164.839212
  B          212.657754      107.945555     -165.037692
  B          210.693149      108.263257     -165.236171
  B          208.728545      108.580960     -165.434651
  B          206.763940      108.898662     -165.633131
  B          204.799336      109.216364     -165.831611
  B          202.834731      109.534067     -166.030091
  BL         200.870127      109.851769     -166.228570
  BL         198.905522      110.169472     -166.427050
  BL         196.940918      110.487174     -166.625530
  BL         194.976313      110.804876     -166.824010
  BL         193.011709      111.122579     -167.022490
  BL         191.047104      111.440281     -167.220969
  BL         189.082500      111.757984     -167.419449
  BL         187.117895      112.075686     -167.617929
  BL         185.153291      112.393389     -167.816409
  BL         183.188686      112.711091     -168.014889
  BL         181.224081      113.028793     -168.213368
  BL         179.259477      113.346496     -168.411848
  BL         177.294872      113.664198     -168.610328
  BL         175.330268      113.981901     -168.808808
  BL         173.365663      114.299603     -169.007288
  BL         171.401059      114.617306     -169.205768
  BL         169.436454      114.935008     -169.404247
  BL         167.471850      115.252710     -169.602727
  BL         165.507245      115.570413     -169.801207
  BL         163.542641      115.888115     -169.999687
  BL         161.578036      116.205818     -170.198167
  BL         159.613432      116.523520     -170.396646
  BL         157.648827      116.841222     -170.595126
  BL         155.684223      117.158925     -170.793606
  BL         153.719618      117.476627     -170.992086
  BL         151.755014      117.794330     -171.190566
  BL         149.790409      118.112032     -171.389045
  BL         147.825805      118.429735     -171.587525
  BL         145.861200      118.747437     -171.786005
  BL         143.896596      119.065139     -171.984485
  BL         141.931991      119.382842     -172.182965
  BL         139.967386      119.700544     -172.381445
  BL         138.002782      120.018247     -172.579924
  BL         136.038177      120.335949     -172.778404
  BL         134.073573      120.653651     -172.976884
  BL         132.108968      120.971354     -173.175364
  BL         130.144364      121.289056     -173.373844
  BL         128.179759      121.606759     -173.572323
  BL         126.215155      121.924461     -173.770803
  BL         124.250550      122.242164     -173.969283
  BL         122.285946      122.559866     -174.167763
  BL         120.321341      122.877568     -174.366243
  BL         118.356737      123.195271     -174.564722
  BL         116.392132      123.512973     -174.763202
  BL         114.427528      123.830676     -174.961682
  BL         112.462923      124.148378     -175.160162
  BL         110.498319      124.466081     -175.358642
  BL         108.533714      124.783783     -175.557121
  BL         106.569110      125.101485     -175.755601
  BL         104.604505      125.419188     -175.954081
  B          157.591013     -120.176861     -216.769801
  B          158.667836     -120.741947     -215.181994
  B          159.744659     -121.307033     -213.594187
  B          160.821481     -121.872118     -212.006380
  B          161.898304     -122.437204     -210.418573
  B          162.975127     -123.002290     -208.830766
  B          164.051949     -123.567375     -207.242959
  B          165.128772     -124.132461     -205.655152
  B          166.205595     -124.697547     -204.067345
  B          167.282417     -125.262632     -202.479538
  B          168.359240     -125.827718     -200.891731
  B          169.436063     -126.392804     -199.303924
  B          170.512885     -126.957889     -197.716117
  B          171.589708     -127.522975     -196.128309
  B          172.666531     -128.088060     -194.540502
  B          173.743353     -128.653146     -192.952695
  B          174.820176     -129.218232     -191.364888
  B          175.896999     -129.783317     -189.777081
  B          176.973821     -130.348403     -188.189274
  B          178.050644     -130.913489     -186.601467
  BL         179.127467     -131.478574     -185.013660
  BL         180.204289     -132.043660     -183.425853
  BL         181.281112     -132.608746     -181.838046
  BL         182.357935     -133.173831     -180.250239
  BL         183.434757     -133.738917     -178.662432
  BL         184.511580     -134.304003     -177.074625
  BL         185.588403     -134.869088     -175.486818
  BL         186.665225     -135.434174     -173.899011
  BL         187.742048     -135.999259     -172.311204
  BL         188.818871     -136.564345     -170.723397
  BL         189.895693     -137.129431     -169.135590
  BL         190.972516     -137.694516     -167.547783
  BL         192.049339     -138.259602     -165.959976
  BL         193.126162     -138.824688     -164.372169
  BL         194.202984     -139.389773     -162.784362
  BL         195.279807     -139.954859     -161.196555
  BL         196.356630     -140.519945     -159.608748
  BL         197.433452     -141.085030     -158.020941
  BL         198.510275     -141.650116     -156.433134
  BL         199.587098     -142.215202     -154.845327
  BL         200.663920     -142.780287     -153.257520
  BL         201.740743     -143.345373     -151.669713
  BL         202.817566     -143.910458     -150.081906
  BL         203.894388     -144.475544     -148.494099
  BL         204.971211     -145.040630     -146.906292
  BL         206.048034     -145.605715     -145.318485
  BL         207.124856     -146.170801     -143.730678
  BL         208.201679     -146.735887     -142.142871
  BL         209.278502     -147.300972     -140.555064
  BL         210.355324     -147.866058     -138.967257
  BL         211.432147     -148.431144     -137.379450
  BL         212.508970     -148.996229     -135.791643
  BL         213.585792     -149.561315     -134.203836
  BL         214.662615     -150.126401     -132.616029
  BL         215.739438     -150.691486     -131.028222
  BL         216.816260     -151.256572     -129.440415
  BL         217.893083     -151.821658     -127.852608
  BL         218.969906     -152.386743     -126.264801
  BL         220.046728     -152.951829     -124.676994
  BL         221.123551     -153.516914     -123.089187
  BL         222.200374     -154.082000     -121.501379
  BL         223.277196     -154.647086     -119.913572
  BL         224.354019     -155.212171     -118.325765
  BL         225.430842     -155.777257     -116.737958
  BL         226.507665     -156.342343     -115.150151
  BL         227.584487     -156.907428     -113.562344
  BL         228.661310     -157.472514     -111.974537
  BL         229.738133     -158.037600     -110.386730
  BL         230.814955     -158.602685     -108.798923
  BL         231.891778     -159.167771     -107.211116
  B           98.405507     -164.346117      277.248019
  B           99.076189     -165.742325      275.982796
  B           99.746871     -167.138534      274.717574
  B          100.417553     -168.534742      273.452352
  B          101.088235     -169.930950      272.187129
  B          101.758917     -171.327159      270.921907
  B          102.429599     -172.723367      269.656684
  B          103.100281     -174.119576      268.391462
  B          103.770962     -175.515784      267.126239
  B          104.441644     -176.911992      265.861017
  B          105.112326     -178.308201      264.595794
  B          105.783008     -179.704409      263.330572
  B          106.453690     -181.100618      262.065350
  B          107.124372     -182.496826      260.800127
  B          107.795054     -183.893034      259.534905
  B          108.465736     -185.289243      258.269682
  B          109.136418     -186.685451      257.004460
  B          109.807100     -188.081660      255.739237
  B          110.477782     -189.477868      254.474015
  B          111.148464     -190.874076      253.208792
  BL         111.819146     -192.270285      251.943570
  BL         112.489828     -193.666493      250.678348
  BL         113.160510     -195.062702      249.413125
  BL         113.831192     -196.458910      248.147903
  BL         114.501874     -197.855118      246.882680
  BL         115.172556     -199.251327      245.617458
  BL         115.843237     -200.647535      244.352235
  BL         116.513919     -202.043744      243.087013
  BL         117.184601     -203.439952      241.821791
  BL         117.855283     -204.836160      240.556568
  BL         118.525965     -206.232369      239.291346
  BL         119.196647     -207.628577      238.026123
  BL         119.867329     -209.024786      236.760901
  BL         120.538011     -210.420994      235.495678
  BL         121.208693     -211.817203      234.230456
  BL         121.879375     -213.213411      232.965233
  BL         122.550057     -214.609619      231.700011
  BL         123.220739     -216.005828      230.434789
  BL         123.891421     -217.402036      229.169566
  BL         124.562103     -218.798245      227.904344
  BL         125.232785     -220.194453      226.639121
  BL         125.903467     -221.590661      225.373899
  BL         126.574149     -222.986870      224.108676
  BL         127.244831     -224.383078      222.843454
  BL         127.915512     -225.779287      221.578231
  BL         128.586194     -227.175495      220.313009
  BL         129.256876     -228.571703      219.047787
  BL         129.927558     -229.967912      217.782564
  BL         130.598240     -231.364120      216.517342
  BL         131.268922     -232.760329      215.252119
  BL         131.939604     -234.156537      213.986897
  BL         132.610286     -235.552745      212.721674
  BL         133.280968     -236.948954      211.456452
  BL         133.951650     -238.345162      210.191230
  BL         134.622332     -239.741371      208.926007
  BL         135.293014     -241.137579      207.660785
  BL         135.963696     -242.533787      206.395562
  BL         136.634378     -243.929996      205.130340
  BL         137.305060     -245.326204      203.865117
  BL         137.975742     -246.722413      202.599895
  BL         138.646424     -248.118621      201.334672
  BL         139.317106     -249.514829      200.069450
  BL         139.987787     -250.911038      198.804228
  BL         140.658469     -252.307246      197.539005
  BL         141.329151     -253.703455      196.273783
  BL         141.999833     -255.099663      195.008560
  BL         142.670515     -256.495871      193.743338
  BL         143.341197     -257.892080      192.478115
  BL         144.011879     -259.288288      191.212893
  BL         144.682561     -260.684497      189.947670
  B         -226.520788      284.033667     -263.758681
  B         -227.093412      282.254272     -263.047447
  B         -227.666037      280.474877     -262.336212
  B         -228.238661      278.695482     -261.624977
  B         -228.811286      276.916087     -260.913742
  B         -229.383910      275.136692     -260.202508
  B         -229.956535      273.357297     -259.491273
  B         -230.529159      271.577902     -258.780038
  B         -231.101784      269.798507     -258.068803
  B         -231.674408      268.019112     -257.357568
  B         -232.247033      266.239717     -256.646334
  B         -232.819658      264.460323     -255.935099
  B         -233.392282      262.680928     -255.223864
  B         -233.964907      260.901533     -254.512629
  B         -234.537531      259.122138     -253.801394
  B         -235.110156      257.342743     -253.090160
  B         -235.682780      255.563348     -252.378925
  B         -236.255405      253.783953     -251.667690
  B         -236.828029      252.004558     -250.956455
  B         -237.400654      250.225163     -250.245221
  BL        -237.973278      248.445768     -249.533986
  BL        -238.545903      246.666373     -248.822751
  BL        -239.118527      244.886979     -248.111516
  BL        -239.691152      243.107584     -247.400281
  BL        -240.263776      241.328189     -246.689047
  BL        -240.836401      239.548794     -245.977812
  BL        -241.409025      237.769399     -245.266577
  BL        -241.981650      235.990004     -244.555342
  BL        -242.554274      234.210609     -243.844108
  BL        -243.126899      232.431214     -243.132873
  BL        -243.699524      230.651819     -242.421638
  BL        -244.272148      228.872424     -241.710403
  BL        -244.844773      227.093030     -240.999168
  BL        -245.417397      225.313635     -240.287934
  BL        -245.990022      223.534240     -239.576699
  BL        -246.562646      221.754845     -238.865464
  BL        -247.135271      219.975450     -238.154229
  BL        -247.707895      218.196055     -237.442994
  BL        -248.280520      216.416660     -236.731760
  BL        -248.853144      214.637265     -236.020525
  BL        -249.425769      212.857870     -235.309290
  BL        -249.998393      211.078475     -234.598055
  BL        -250.571018      209.299080     -233.886821
  BL        -251.143642      207.519686     -233.175586
  BL        -251.716267      205.740291     -232.464351
  BL        -252.288891      203.960896     -231.753116
  BL        -252.861516      202.181501     -231.041881
  BL        -253.434140      200.402106     -230.330647
  BL        -254.006765      198.622711     -229.619412
  BL        -254.579390      196.843316     -228.908177
  BL        -255.152014      195.063921     -228.196942
  BL        -255.724639      193.284526     -227.485707
  BL        -256.297263      191.505131     -226.774473
  BL        -256.869888      189.725736     -226.063238
  BL        -257.442512      187.946342     -225.352003
  BL        -258.015137      186.166947     -224.640768
  BL        -258.587761      184.387552     -223.929534
  BL        -259.160386      182.608157     -223.218299
  BL        -259.733010      180.828762     -222.507064
  BL        -260.305635      179.049367     -221.795829
  BL        -260.878259      177.269972     -221.084594
  BL        -261.450884      175.490577     -220.373360
  BL        -262.023508      173.711182     -219.662125
  BL        -262.596133      171.931787     -218.950890
  BL        -263.168757      170.152392     -218.239655
  BL        -263.741382      168.372998     -217.528421
  BL        -264.314006      166.593603     -216.817186
  BL        -264.886631      164.814208     -216.105951
  BL        -265.459256      163.034813     -215.394716
  BL        -266.031880      161.255418     -214.683481
  B           -6.662040      293.939019     -238.436107
  B           -8.510847      293.210323     -238.210471
  B          -10.359655      292.481626     -237.984835
  B          -12.208462      291.752929     -237.759198
  B          -14.057270      291.024233     -237.533562
  B          -15.906078      290.295536     -237.307926
  B          -17.754885      289.566839     -237.082289
  B          -19.603693      288.838142     -236.856653
  B          -21.452500      288.109446     -236.631017
  B          -23.301308      287.380749     -236.405380
  B          -25.150115      286.652052     -236.179744
  B          -26.998923      285.923356     -235.954108
  B          -28.847730      285.194659     -235.728471
  B          -30.696538      284.465962     -235.502835
  B          -32.545346      283.737265     -235.277199
  B          -34.394153      283.008569     -235.051562
  B          -36.242961      282.279872     -234.825926
  B          -38.091768      281.551175     -234.600290
  B          -39.940576      280.822479     -234.374653
  B          -41.789383      280.093782     -234.149017
  BL         -43.638191      279.365085     -233.923381
  BL         -45.486998      278.636388     -233.697745
  BL         -47.335806      277.907692     -233.472108
  BL         -49.184613      277.178995     -233.246472
  BL         -51.033421      276.450298     -233.020836
  BL         -52.882229      275.721602     -232.795199
  BL         -54.731036      274.992905     -232.569563
  BL         -56.579844      274.264208     -232.343927
  BL         -58.428651      273.535511     -232.118290
  BL         -60.277459      272.806815     -231.892654
  BL         -62.126266      272.078118     -231.667018
  BL         -63.975074      271.349421     -231.441381
  BL         -65.823881      270.620725     -231.215745
  BL         -67.672689      269.892028     -230.990109
  BL         -69.521496      269.163331     -230.764472
  BL         -71.370304      268.434634     -230.538836
  BL         -73.219112      267.705938     -230.313200
  BL         -75.067919      266.977241     -230.087563
  BL         -76.916727      266.248544     -229.861927
  BL         -78.765534      265.519848     -229.636291
  BL         -80.614342      264.791151     -229.410655
  BL         -82.463149      264.062454     -229.185018
  BL         -84.311957      263.333757     -228.959382
  BL         -86.160764      262.605061     -228.733746
  BL         -88.009572      261.876364     -228.508109
  BL         -89.858379      261.147667     -228.282473
  BL         -91.707187      260.418971     -228.056837
  BL         -93.555995      259.690274     -227.831200
  BL         -95.404802      258.961577     -227.605564
  BL         -97.253610      258.232880     -227.379928
  BL         -99.102417      257.504184     -227.154291
  BL        -100.951225      256.775487     -226.928655
  BL        -102.800032      256.046790     -226.703019
  BL        -104.648840      255.318094     -226.477382
  BL        -106.497647      254.589397     -226.251746
  BL        -108.346455      253.860700     -226.026110
  BL        -110.195263      253.132003     -225.800473
  BL        -112.044070      252.403307     -225.574837
  BL        -113.892878      251.674610     -225.349201
  BL        -115.741685      250.945913     -225.123565
  BL        -117.590493      250.217217     -224.897928
  BL        -119.439300      249.488520     -224.672292
  BL        -121.288108      248.759823     -224.446656
  BL        -123.136915      248.031126     -224.221019
  BL        -124.985723      247.302430     -223.995383
  BL        -126.834530      246.573733     -223.769747
  BL        -128.683338      245.845036     -223.544110
  BL        -130.532146      245.116340     -223.318474
  BL        -132.380953      244.387643     -223.092838
  BL        -134.229761      243.658946     -222.867201
  B           61.071887      157.589953       87.904244
  B           61.518420      156.354842       89.412590
  B           61.964953      155.119731       90.920937
  B           62.411486      153.884620       92.429283
  B           62.858018      152.649509       93.937630
  B           63.304551      151.414398       95.445976
  B           63.751084      150.179287       96.954323
  B           64.197617      148.944176       98.462670
  B           64.644149      147.709065       99.971016
  B           65.090682      146.473954      101.479363
  B           65.537215      145.238843      102.987709
  B           65.983748      144.003732      104.496056
  B           66.430280      142.768621      106.004403
  B           66.876813      141.533510      107.512749
  B           67.323346      140.298400      109.021096
  B           67.769879      139.063289      110.529442
  B           68.216411      137.828178      112.037789
  B           68.662944      136.593067      113.546135
  B           69.109477      135.357956      115.054482
  B           69.556010      134.122845      116.562829
  BL          70.002542      132.887734      118.071175
  BL          70.449075      131.652623      119.579522
  BL          70.895608      130.417512      121.087868
  BL          71.342141      129.182401      122.596215
  BL          71.788673      127.947290      124.104561
  BL          72.235206      126.712179      125.612908
  BL          72.681739      125.477068      127.121255
  BL          73.128272      124.241957      128.629601
  BL          73.574805      123.006846      130.137948
  BL          74.021337      121.771735      131.646294
  BL          74.467870      120.536624      133.154641
  BL          74.914403      119.301513      134.662988
  BL          75.360936      118.066402      136.171334
  BL          75.807468      116.831291      137.679681
  BL          76.254001      115.596180      139.188027
  BL          76.700534      114.361069      140.696374
  BL          77.147067      113.125958      142.204720
  BL          77.593599      111.890847      143.713067
  BL          78.040132      110.655736      145.221414
  BL          78.486665      109.420625      146.729760
  BL          78.933198      108.185514      148.238107
  BL          79.379730      106.950403      149.746453
  BL          79.826263      105.715292      151.254800
  BL          80.272796      104.480181      152.763146
  BL          80.719329      103.245071      154.271493
  BL          81.165861      102.009960      155.779840
  BL          81.612394      100.774849      157.288186
  BL          82.058927       99.539738      158.796533
  BL          82.505460       98.304627      160.304879
  BL          82.951992       97.069516      161.813226
  BL          83.398525       95.834405      163.321573
  BL          83.845058       94.599294      164.829919
  BL          84.291591       93.364183      166.338266
  BL          84.738123       92.129072      167.846612
  BL          85.184656       90.893961      169.354959
  BL          85.631189       89.658850      170.863305
  BL          86.077722       88.423739      172.371652
  BL          86.524254       87.188628      173.879999
  BL          86.970787       85.953517      175.388345
  BL          87.417320       84.718406      176.896692
  BL          87.863853       83.483295      178.405038
  BL          88.310385       82.248184      179.913385
  BL          88.756918       81.013073      181.421731
  BL          89.203451       79.777962      182.930078
  BL          89.649984       78.542851      184.438425
  BL          90.096516       77.307740      185.946771
  BL          90.543049       76.072629      187.455118
  BL          90.989582       74.837518      188.963464
  BL          91.436115       73.602407      190.471811
  BL          91.882647       72.367296      191.980157
  B          136.506788       25.053865     -254.968596
  B          135.394929       23.391440     -254.979150
  B          134.283069       21.729015     -254.989704
  B          133.171210       20.066589     -255.000258
  B          132.059351       18.404164     -255.010812
  B          130.947492       16.741739     -255.021366
  B          129.835633       15.079313     -255.031920
  B          128.723774       13.416888     -255.042474
  B          127.611915       11.754463     -255.053028
  B          126.500055       10.092038     -255.063582
  B          125.388196        8.429612     -255.074136
  B          124.276337        6.767187     -255.084690
  B          123.164478        5.104762     -255.095245
  B          122.052619        3.442336     -255.105799
  B          120.940760        1.779911     -255.116353
  B          119.828901        0.117486     -255.126907
  B          118.717042       -1.544940     -255.137461
  B          117.605182       -3.207365     -255.148015
  B          116.493323       -4.869790     -255.158569
  B          115.381464       -6.532215     -255.169123
  BL         114.269605       -8.194641     -255.179677
  BL         113.157746       -9.857066     -255.190231
  BL         112.045887      -11.519491     -255.200785
  BL         110.934028      -13.181917     -255.211339
  BL         109.822168      -14.844342     -255.221894
  BL         108.710309      -16.506767     -255.232448
  BL         107.598450      -18.169193     -255.243002
  BL         106.486591      -19.831618     -255.253556
  BL         105.374732      -21.494043     -255.264110
  BL         104.262873      -23.156468     -255.274664
  BL         103.151014      -24.818894     -255.285218
  BL         102.039154      -26.481319     -255.295772
  BL         100.927295      -28.143744     -255.306326
  BL          99.815436      -29.806170     -255.316880
  BL          98.703577      -31.468595     -255.327434
  BL          97.591718      -33.131020     -255.337988
  BL          96.479859      -34.793446     -255.348543
  BL          95.368000      -36.455871     -255.359097
  BL          94.256141      -38.118296     -255.369651
  BL          93.144281      -39.780721     -255.380205
  BL          92.032422      -41.443147     -255.390759
  BL          90.920563      -43.105572     -255.401313
  BL          89.808704      -44.767997     -255.411867
  BL          88.696845      -46.430423     -255.422421
  BL          87.584986      -48.092848     -255.432975
  BL          86.473127      -49.755273     -255.443529
  BL          85.361267      -51.417699     -255.454083
  BL          84.249408      -53.080124     -255.464637
  BL          83.137549      -54.742549     -255.475192
  BL          82.025690      -56.404974     -255.485746
  BL          80.913831      -58.067400     -255.496300
  BL          79.801972      -59.729825     -255.506854
  BL          78.690113      -61.392250     -255.517408
  BL          77.578254      -63.054676     -255.527962
  BL          76.466394      -64.717101     -255.538516
  BL          75.354535      -66.379526     -255.549070
  BL          74.242676      -68.041952     -255.559624
  BL          73.130817      -69.704377     -255.570178
  BL          72.018958      -71.366802     -255.580732
  BL          70.907099      -73.029227     -255.591287
  BL          69.795240      -74.691653     -255.601841
  BL          68.683380      -76.354078     -255.612395
  BL          67.571521      -78.016503     -255.622949
  BL          66.459662      -79.678929     -255.633503
  BL          65.347803      -81.341354     -255.644057
  BL          64.235944      -83.003779     -255.654611
  BL          63.124085      -84.666205     -255.665165
  BL          62.012226      -86.328630     -255.675719
  BL          60.900367      -87.991055     -255.686273
  BL          59.788507      -89.653480     -255.696827
  B          -73.697987       91.990345      148.768416
  B          -72.063506       93.142494      148.736424
  B          -70.429025       94.294644      148.704433
  B          -68.794544       95.446793      148.672441
  B          -67.160063       96.598943      148.640449
  B          -65.525582       97.751092      148.608458
  B          -63.891101       98.903242      148.576466
  B          -62.256620      100.055391      148.544475
  B          -60.622139      101.207540      148.512483
  B          -58.987658      102.359690      148.480491
  B          -57.353177      103.511839      148.448500
  B          -55.718696      104.663989      148.416508
  B          -54.084215      105.816138      148.384516
  B          -52.449734      106.968288      148.352525
  B          -50.815253      108.120437      148.320533
  B          -49.180772      109.272587      148.288542
  B          -47.546291      110.424736      148.256550
  B          -45.911810      111.576886      148.224558
  B          -44.277329      112.729035      148.192567
  B          -42.642848      113.881185      148.160575
  BL         -41.008367      115.033334      148.128584
  BL         -39.373886      116.185483      148.096592
  BL         -37.739405      117.337633      148.064600
  BL         -36.104924      118.489782      148.032609
  BL         -34.470443      119.641932      148.000617
  BL         -32.835962      120.794081      147.968625
  BL         -31.201481      121.946231      147.936634
  BL         -29.567000      123.098380      147.904642
  BL         -27.932519      124.250530      147.872651
  BL         -26.298038      125.402679      147.840659
  BL         -24.663557      126.554829      147.808667
  BL         -23.029076      127.706978      147.776676
  BL         -21.394595      128.859128      147.744684
  BL         -19.760114      130.011277      147.712692
  BL         -18.125633      131.163426      147.680701
  BL         -16.491152      132.315576      147.648709
  BL         -14.856671      133.467725      147.616718
  BL         -13.222190      134.619875      147.584726
  BL         -11.587709      135.772024      147.552734
  BL          -9.953228      136.924174      147.520743
  BL          -8.318747      138.076323      147.488751
  BL          -6.684266      139.228473      147.456760
  BL          -5.049785      140.380622      147.424768
  BL          -3.415304      141.532772      147.392776
  BL          -1.780823      142.684921      147.360785
  BL          -0.146342      143.837071      147.328793
  BL           1.488139      144.989220      147.296801
  BL           3.122620      146.141369      147.264810
  BL           4.757101      147.293519      147.232818
  BL           6.391582      148.445668      147.200827
  BL           8.026063      149.597818      147.168835
  BL           9.660544      150.749967      147.136843
  BL          11.295025      151.902117      147.104852
  BL          12.929506      153.054266      147.072860
  BL          14.563987      154.206416      147.040869
  BL          16.198468      155.358565      147.008877
  BL          17.832949      156.510715      146.976885
  BL          19.467430      157.662864      146.944894
  BL          21.101911      158.815014      146.912902
  BL          22.736392      159.967163      146.880910
  BL          24.370873      161.119313      146.848919
  BL          26.005354      162.271462      146.816927
  BL          27.639835      163.423611      146.784936
  BL          29.274316      164.575761      146.752944
  BL          30.908797      165.727910      146.720952
  BL          32.543278      166.880060      146.688961
  BL          34.177759      168.032209      146.656969
  BL          35.812240      169.184359      146.624977
  BL          37.446721      170.336508      146.592986
  BL          39.081202      171.488658      146.560994
  B         -111.733015      292.611922      207.745391
  B         -113.407510      291.655280      208.275394
  B         -115.082005      290.698638      208.805397
  B         -116.756500      289.741997      209.335401
  B         -118.430995      288.785355      209.865404
  B         -120.105490      287.828713      210.395408
  B         -121.779985      286.872072      210.925411
  B         -123.454480      285.915430      211.455414
  B         -125.128974      284.958788      211.985418
  B         -126.803469      284.002147      212.515421
  B         -128.477964      283.045505      213.045425
  B         -130.152459      282.088863      213.575428
  B         -131.826954      281.132222      214.105431
  B         -133.501449      280.175580      214.635435
  B         -135.175944      279.218938      215.165438
  B         -136.850439      278.262297      215.695441
  B         -138.524934      277.305655      216.225445
  B         -140.199428      276.349013      216.755448
  B         -141.873923      275.392372      217.285452
  B         -143.548418      274.435730      217.815455
  BL        -145.222913      273.479088      218.345458
  BL        -146.897408      272.522447      218.875462
  BL        -148.571903      271.565805      219.405465
  BL        -150.246398      270.609163      219.935469
  BL        -151.920893      269.652522      220.465472
  BL        -153.595387      268.695880      220.995475
  BL        -155.269882      267.739238      221.525479
  BL        -156.944377      266.782596      222.055482
  BL        -158.618872      265.825955      222.585485
  BL        -160.293367      264.869313      223.115489
  BL        -161.967862      263.912671      223.645492
  BL        -163.642357      262.956030      224.175496
  BL        -165.316852      261.999388      224.705499
  BL        -166.991347      261.042746      225.235502
  BL        -168.665841      260.086105      225.765506
  BL        -170.340336      259.129463      226.295509
  BL        -172.014831      258.172821      226.825513
  BL        -173.689326      257.216180      227.355516
  BL        -175.363821      256.259538      227.885519
  BL        -177.038316      255.302896      228.415523
  BL        -178.712811      254.346255      228.945526
  BL        -180.387306      253.389613      229.475529
  BL        -182.061801      252.432971      230.005533
  BL        -183.736295      251.476330      230.535536
  BL        -185.410790      250.519688      231.065540
  BL        -187.085285      249.563046      231.595543
  BL        -188.759780      248.606405      232.125546
  BL        -190.434275      247.649763      232.655550
  BL        -192.108770      246.693121      233.185553
  BL        -193.783265      245.736480      233.715557
  BL        -195.457760      244.779838      234.245560
  BL        -197.132254      243.823196      234.775563
  BL        -198.806749      242.866555      235.305567
  BL        -200.481244      241.909913      235.835570
  BL        -202.155739      240.953271      236.365574
  BL        -203.830234      239.996630      236.895577
  BL        -205.504729      239.039988      237.425580
  BL        -207.179224      238.083346      237.955584
  BL        -208.853719      237.126705      238.485587
  BL        -210.528214      236.170063      239.015590
  BL        -212.202708      235.213421      239.545594
  BL        -213.877203      234.256780      240.075597
  BL        -215.551698      233.300138      240.605601
  BL        -217.226193      232.343496      241.135604
  BL        -218.900688      231.386854      241.665607
  BL        -220.575183      230.430213      242.195611
  BL        -222.249678      229.473571      242.725614
  BL        -223.924173      228.516929      243.255618
  BL        -225.598667      227.560288      243.785621
  BL        -227.273162      226.603646      244.315624
  B         -145.702622       44.733311       50.492606
  B         -143.850897       44.179796       49.978082
  B         -141.999172       43.626281       49.463558
  B         -140.147447       43.072766       48.949034
  B         -138.295722       42.519251       48.434509
  B         -136.443997       41.965736       47.919985
  B         -134.592271       41.412221       47.405461
  B         -132.740546       40.858705       46.890936
  B         -130.888821       40.305190       46.376412
  B         -129.037096       39.751675       45.861888
  B         -127.185371       39.198160       45.347364
  B         -125.333646       38.644645       44.832839
  B         -123.481921       38.091130       44.318315
  B         -121.630196       37.537615       43.803791
  B         -119.778471       36.984100       43.289267
  B         -117.926745       36.430585       42.774742
  B         -116.075020       35.877070       42.260218
  B         -114.223295       35.323555       41.745694
  B         -112.371570       34.770040       41.231169
  B         -110.519845       34.216525       40.716645
  BL        -108.668120       33.663010       40.202121
  BL        -106.816395       33.109495       39.687597
  BL        -104.964670       32.555980       39.173072
  BL        -103.112945       32.002465       38.658548
  BL        -101.261219       31.448950       38.144024
  BL         -99.409494       30.895435       37.629500
  BL         -97.557769       30.341920       37.114975
  BL         -95.706044       29.788405       36.600451
  BL         -93.854319       29.234890       36.085927
  BL         -92.002594       28.681375       35.571403
  BL         -90.150869       28.127860       35.056878
  BL         -88.299144       27.574345       34.542354
  BL         -86.447419       27.020830       34.027830
  BL         -84.595693       26.467315       33.513305
  BL         -82.743968       25.913799       32.998781
  BL         -80.892243       25.360284       32.484257
  BL         -79.040518       24.806769       31.969733
  BL         -77.188793       24.253254       31.455208
  BL         -75.337068       23.699739       30.940684
  BL         -73.485343       23.146224       30.426160
  BL         -71.633618       22.592709       29.911636
  BL         -69.781893       22.039194       29.397111
  BL         -67.930167       21.485679       28.882587
  BL         -66.078442       20.932164       28.368063
  BL         -64.226717       20.378649       27.853539
  BL         -62.374992       19.825134       27.339014
  BL         -60.523267       19.271619       26.824490
  BL         -58.671542       18.718104       26.309966
  BL         -56.819817       18.164589       25.795441
  BL         -54.968092       17.611074       25.280917
  BL         -53.116367       17.057559       24.766393
  BL         -51.264641       16.504044       24.251869
  BL         -49.412916       15.950529       23.737344
  BL         -47.561191       15.397014       23.222820
  BL         -45.709466       14.843499       22.708296
  BL         -43.857741       14.289984       22.193772
  BL         -42.006016       13.736469       21.679247
  BL         -40.154291       13.182954       21.164723
  BL         -38.302566       12.629439       20.650199
  BL         -36.450841       12.075924       20.135675
  BL         -34.599116       11.522409       19.621150
  BL         -32.747390       10.968893       19.106626
  BL         -30.895665       10.415378       18.592102
  BL         -29.043940        9.861863       18.077577
  BL         -27.192215        9.308348       17.563053
  BL         -25.340490        8.754833       17.048529
  BL         -23.488765        8.201318       16.534005
  BL         -21.637040        7.647803       16.019480
  BL         -19.785315        7.094288       15.504956
  BL         -17.933590        6.540773       14.990432
  B          165.614171     -258.317295      171.150201
  B          163.665904     -258.581440      170.783483
  B          161.717637     -258.845585      170.416765
  B          159.769369     -259.109730      170.050047
  B          157.821102     -259.373875      169.683330
  B          155.872835     -259.638021      169.316612
  B          153.924568     -259.902166      168.949894
  B          151.976300     -260.166311      168.583176
  B          150.028033     -260.430456      168.216459
  B          148.079766     -260.694602      167.849741
  B          146.131499     -260.958747      167.483023
  B          144.183231     -261.222892      167.116305
  B          142.234964     -261.487037      166.749588
  B          140.286697     -261.751183      166.382870
  B          138.338429     -262.015328      166.016152
  B          136.390162     -262.279473      165.649434
  B          134.441895     -262.543618      165.282717
  B          132.493628     -262.807764      164.915999
  B          130.545360     -263.071909      164.549281
  B          128.597093     -263.336054      164.182563
  BL         126.648826     -263.600199      163.815846
  BL         124.700558     -263.864345      163.449128
  BL         122.752291     -264.128490      163.082410
  BL         120.804024     -264.392635      162.715692
  BL         118.855757     -264.656780      162.348975
  BL         116.907489     -264.920925      161.982257
  BL         114.959222     -265.185071      161.615539
  BL         113.010955     -265.449216      161.248821
  BL         111.062688     -265.713361      160.882104
  BL         109.114420     -265.977506      160.515386
  BL         107.166153     -266.241652      160.148668
  BL         105.217886     -266.505797      159.781950
  BL         103.269618     -266.769942      159.415233
  BL         101.321351     -267.034087      159.048515
  BL          99.373084     -267.298233      158.681797
  BL          97.424817     -267.562378      158.315079
  BL          95.476549     -267.826523      157.948362
  BL          93.528282     -268.090668      157.581644
  BL          91.580015     -268.354814      157.214926
  BL          89.631747     -268.618959      156.848208
  BL          87.683480     -268.883104      156.481491
  BL          85.735213     -269.147249      156.114773
  BL          83.786946     -269.411394      155.748055
  BL          81.838678     -269.675540      155.381337
  BL          79.890411     -269.939685      155.014620
  BL          77.942144     -270.203830      154.647902
  BL          75.993877     -270.467975      154.281184
  BL          74.045609     -270.732121      153.914466
  BL          72.097342     -270.996266      153.547749
  BL          70.149075     -271.260411      153.181031
  BL          68.200807     -271.524556      152.814313
  BL          66.252540     -271.788702      152.447595
  BL          64.304273     -272.052847      152.080878
  BL          62.356006     -272.316992      151.714160
  BL          60.407738     -272.581137      151.347442
  BL          58.459471     -272.845283      150.980724
  BL          56.511204     -273.109428      150.614007
  BL          54.562936     -273.373573      150.247289
  BL          52.614669     -273.637718      149.880571
  BL          50.666402     -273.901864      149.513853
  BL          48.718135     -274.166009      149.147136
  BL          46.769867     -274.430154      148.780418
  BL          44.821600     -274.694299      148.413700
  BL          42.873333     -274.958444      148.046982
  BL          40.925066     -275.222590      147.680265
  BL          38.976798     -275.486735      147.313547
  BL          37.028531     -275.750880      146.946829
  BL          35.080264     -276.015025      146.580111
  BL          33.131996     -276.279171      146.213394
  BL          31.183729     -276.543316      145.846676
  B            6.382973      -62.378213     -108.677627
  B            4.588467      -63.248199     -108.828850
  B            2.793960      -64.118186     -108.980073
  B            0.999453      -64.988173     -109.131297
  B           -0.795054      -65.858159     -109.282520
  B           -2.589561      -66.728146     -109.433743
  B           -4.384067      -67.598133     -109.584966
  B           -6.178574      -68.468119     -109.736189
  B           -7.973081      -69.338106     -109.887413
  B           -9.767588      -70.208093     -110.038636
  B          -11.562095      -71.078080     -110.189859
  B          -13.356601      -71.948066     -110.341082
  B          -15.151108      -72.818053     -110.492305
  B          -16.945615      -73.688040     -110.643529
  B          -18.740122      -74.558026     -110.794752
  B          -20.534629      -75.428013     -110.945975
  B          -22.329136      -76.298000     -111.097198
  B          -24.123642      -77.167986     -111.248421
  B          -25.918149      -78.037973     -111.399645
  B          -27.712656      -78.907960     -111.550868
  BL         -29.507163      -79.777946     -111.702091
  BL         -31.301670      -80.647933     -111.853314
  BL         -33.096176      -81.517920     -112.004537
  BL         -34.890683      -82.387907     -112.155761
  BL         -36.685190      -83.257893     -112.306984
  BL         -38.479697      -84.127880     -112.458207
  BL         -40.274204      -84.997867     -112.609430
  BL         -42.068710      -85.867853     -112.760653
  BL         -43.863217      -86.737840     -112.911877
  BL         -45.657724      -87.607827     -113.063100
  BL         -47.452231      -88.477813     -113.214323
  BL         -49.246738      -89.347800     -113.365546
  BL         -51.041245      -90.217787     -113.516769
  BL         -52.835751      -91.087773     -113.667993
  BL         -54.630258      -91.957760     -113.819216
  BL         -56.424765      -92.827747     -113.970439
  BL         -58.219272      -93.697734     -114.121662
  BL         -60.013779      -94.567720     -114.272885
  BL         -61.808285      -95.437707     -114.424109
  BL         -63.602792      -96.307694     -114.575332
  BL         -65.397299      -97.177680     -114.726555
  BL         -67.191806      -98.047667     -114.877778
  BL         -68.986313      -98.917654     -115.029001
  BL         -70.780819      -99.787640     -115.180225
  BL         -72.575326     -100.657627     -115.331448
  BL         -74.369833     -101.527614     -115.482671
  BL         -76.164340     -102.397601     -115.633894
  BL         -77.958847     -103.267587     -115.785117
  BL         -79.753354     -104.137574     -115.936341
  BL         -81.547860     -105.007561     -116.087564
  BL         -83.342367     -105.877547     -116.238787
  BL         -85.136874     -106.747534     -116.390010
  BL         -86.931381     -107.617521     -116.541233
  BL         -88.725888     -108.487507     -116.692457
  BL         -90.520394     -109.357494     -116.843680
  BL         -92.314901     -110.227481     -116.994903
  BL         -94.109408     -111.097467     -117.146126
  BL         -95.903915     -111.967454     -117.297349
  BL         -97.698422     -112.837441     -117.448573
  BL         -99.492928     -113.707428     -117.599796
  BL        -101.287435     -114.577414     -117.751019
  BL        -103.081942     -115.447401     -117.902242
  BL        -104.876449     -116.317388     -118.053465
  BL        -106.670956     -117.187374     -118.204689
  BL        -108.465462     -118.057361     -118.355912
  BL        -110.259969     -118.927348     -118.507135
  BL        -112.054476     -119.797334     -118.658358
  BL        -113.848983     -120.667321     -118.809581
  BL        -115.643490     -121.537308     -118.960805
  BL        -117.437997     -122.407294     -119.112028
  B          135.458332     -127.378226     -279.012820
  B          136.221165     -129.203101     -279.309328
  B          136.983997     -131.027976     -279.605836
  B          137.746830     -132.852851     -279.902345
  B          138.509663     -134.677726     -280.198853
  B          139.272496     -136.502601     -280.495361
  B          140.035329     -138.327476     -280.791869
  B          140.798162     -140.152351     -281.088378
  B          141.560995     -141.977226     -281.384886
  B          142.323828     -143.802101     -281.681394
  B          143.086661     -145.626976     -281.977902
  B          143.849494     -147.451851     -282.274411
  B          144.612327     -149.276726     -282.570919
  B          145.375160     -151.101601     -282.867427
  B          146.137993     -152.926476     -283.163936
  B          146.900826     -154.751351     -283.460444
  B          147.663659     -156.576226     -283.756952
  B          148.426492     -158.401101     -284.053460
  B          149.189325     -160.225976     -284.349969
  B          149.952158     -162.050851     -284.646477
  BL         150.714991     -163.875726     -284.942985
  BL         151.477824     -165.700601     -285.239493
  BL         152.240657     -167.525476     -285.536002
  BL         153.003490     -169.350351     -285.832510
  BL         153.766322     -171.175226     -286.129018
  BL         154.529155     -173.000101     -286.425527
  BL         155.291988     -174.824976     -286.722035
  BL         156.054821     -176.649851     -287.018543
  BL         156.817654     -178.474726     -287.315051
  BL         157.580487     -180.299601     -287.611560
  BL         158.343320     -182.124476     -287.908068
  BL         159.106153     -183.949351     -288.204576
  BL         159.868986     -185.774226     -288.501084
  BL         160.631819     -187.599101     -288.797593
  BL         161.394652     -189.423976     -289.094101
  BL         162.157485     -191.248851     -289.390609
  BL         162.920318     -193.073726     -289.687118
  BL         163.683151     -194.898601     -289.983626
  BL         164.445984     -196.723476     -290.280134
  BL         165.208817     -198.548351     -290.576642
  BL         165.971650     -200.373226     -290.873151
  BL         166.734483     -202.198101     -291.169659
  BL         167.497316     -204.022976     -291.466167
  BL         168.260149     -205.847851     -291.762675
  BL         169.022982     -207.672726     -292.059184
  BL         169.785814     -209.497601     -292.355692
  BL         170.548647     -211.322476     -292.652200
  BL         171.311480     -213.147351     -292.948709
  BL         172.074313     -214.972225     -293.245217
  BL         172.837146     -216.797100     -293.541725
  BL         173.599979     -218.621975     -293.838233
  BL         174.362812     -220.446850     -294.134742
  BL         175.125645     -222.271725     -294.431250
  BL         175.888478     -224.096600     -294.727758
  BL         176.651311     -225.921475     -295.024266
  BL         177.414144     -227.746350     -295.320775
  BL         178.176977     -229.571225     -295.617283
  BL         178.939810     -231.396100     -295.913791
  BL         179.702643     -233.220975     -296.210300
  BL         180.465476     -235.045850     -296.506808
  BL         181.228309     -236.870725     -296.803316
  BL         181.991142     -238.695600     -297.099824
  BL         182.753975     -240.520475     -297.396333
  BL         183.516808     -242.345350     -297.692841
  BL         184.279641     -244.170225     -297.989349
  BL         185.042474     -245.995100     -298.285857
  BL         185.805306     -247.819975     -298.582366
  BL         186.568139     -249.644850     -298.878874
  BL         187.330972     -251.469725     -299.175382
  BL         188.093805     -253.294600     -299.471891
  B         -143.613029     -102.004833     -238.855640
  B         -145.523393     -101.471884     -239.113465
  B         -147.433758     -100.938936     -239.371290
  B         -149.344122     -100.405987     -239.629114
  B         -151.254487      -99.873039     -239.886939
  B         -153.164851      -99.340091     -240.144764
  B         -155.075216      -98.807142     -240.402588
  B         -156.985580      -98.274194     -240.660413
  B         -158.895945      -97.741245     -240.918238
  B         -160.806309      -97.208297     -241.176062
  B         -162.716673      -96.675348     -241.433887
  B         -164.627038      -96.142400     -241.691712
  B         -166.537402      -95.609451     -241.949536
  B         -168.447767      -95.076503     -242.207361
  B         -170.358131      -94.543554     -242.465186
  B         -172.268496      -94.010606     -242.723010
  B         -174.178860      -93.477658     -242.980835
  B         -176.089225      -92.944709     -243.238660
  B         -177.999589      -92.411761     -243.496484
  B         -179.909954      -91.878812     -243.754309
  BL        -181.820318      -91.345864     -244.012134
  BL        -183.730683      -90.812915     -244.269958
  BL        -185.641047      -90.279967     -244.527783
  BL        -187.551411      -89.747018     -244.785608
  BL        -189.461776      -89.214070     -245.043432
  BL        -191.372140      -88.681122     -245.301257
  BL        -193.282505      -88.148173     -245.559082
  BL        -195.192869      -87.615225     -245.816906
  BL        -197.103234      -87.082276     -246.074731
  BL        -199.013598      -86.549328     -246.332556
  BL        -200.923963      -86.016379     -246.590380
  BL        -202.834327      -85.483431     -246.848205
  BL        -204.744692      -84.950482     -247.106030
  BL        -206.655056      -84.417534     -247.363854
  BL        -208.565421      -83.884585     -247.621679
  BL        -210.475785      -83.351637     -247.879504
  BL        -212.386150      -82.818689     -248.137328
  BL        -214.296514      -82.285740     -248.395153
  BL        -216.206878      -81.752792     -248.652978
  BL        -218.117243      -81.219843     -248.910802
  BL        -220.027607      -80.686895     -249.168627
  BL        -221.937972      -80.153946     -249.426452
  BL        -223.848336      -79.620998     -249.684276
  BL        -225.758701      -79.088049     -249.942101
  BL        -227.669065      -78.555101     -250.199926
  BL        -229.579430      -78.022152     -250.457750
  BL        -231.489794      -77.489204     -250.715575
  BL        -233.400159      -76.956256     -250.973400
  BL        -235.310523      -76.423307     -251.231224
  BL        -237.220888      -75.890359     -251.489049
  BL        -239.131252      -75.357410     -251.746874
  BL        -241.041616      -74.824462     -252.004698
  BL        -242.951981      -74.291513     -252.262523
  BL        -244.862345      -73.758565     -252.520348
  BL        -246.772710      -73.225616     -252.778172
  BL        -248.683074      -72.692668     -253.035997
  BL        -250.593439      -72.159720     -253.293822
  BL        -252.503803      -71.626771     -253.551646
  BL        -254.414168      -71.093823     -253.809471
  BL        -256.324532      -70.560874     -254.067296
  BL        -258.234897      -70.027926     -254.325120
  BL        -260.145261      -69.494977     -254.582945
  BL        -262.055626      -68.962029     -254.840770
  BL        -263.965990      -68.429080     -255.098594
  BL        -265.876355      -67.896132     -255.356419
  BL        -267.786719      -67.363183     -255.614244
  BL        -269.697083      -66.830235     -255.872068
  BL        -271.607448      -66.297287     -256.129893
  BL        -273.517812      -65.764338     -256.387718
  BL        -275.428177      -65.231390     -256.645542
  B         -220.197007     -180.150364     -257.566517
  B         -221.198824     -178.420809     -257.637226
  B         -222.200642     -176.691253     -257.707935
  B         -223.202459     -174.961697     -257.778643
  B         -224.204276     -173.232142     -257.849352
  B         -225.206093     -171.502586     -257.920061
  B         -226.207910     -169.773030     -257.990769
  B         -227.209727     -168.043475     -258.061478
  B         -228.211545     -166.313919     -258.132187
  B         -229.213362     -164.584364     -258.202895
  B         -230.215179     -162.854808     -258.273604
  B         -231.216996     -161.125252     -258.344313
  B         -232.218813     -159.395697     -258.415022
  B         -233.220630     -157.666141     -258.485730
  B         -234.222448     -155.936585     -258.556439
  B         -235.224265     -154.207030     -258.627148
  B         -236.226082     -152.477474     -258.697856
  B         -237.227899     -150.747919     -258.768565
  B         -238.229716     -149.018363     -258.839274
  B         -239.231533     -147.288807     -258.909982
  BL        -240.233350     -145.559252     -258.980691
  BL        -241.235168     -143.829696     -259.051400
  BL        -242.236985     -142.100140     -259.122108
  BL        -243.238802     -140.370585     -259.192817
  BL        -244.240619     -138.641029     -259.263526
  BL        -245.242436     -136.911473     -259.334234
  BL        -246.244253     -135.181918     -259.404943
  BL        -247.246071     -133.452362     -259.475652
  BL        -248.247888     -131.722807     -259.546360
  BL        -249.249705     -129.993251     -259.617069
  BL        -250.251522     -128.263695     -259.687778
  BL        -251.253339     -126.534140     -259.758486
  BL        -252.255156     -124.804584     -259.829195
  BL        -253.256974     -123.075028     -259.899904
  BL        -254.258791     -121.345473     -259.970612
  BL        -255.260608     -119.615917     -260.041321
  BL        -256.262425     -117.886362     -260.112030
  BL        -257.264242     -116.156806     -260.182738
  BL        -258.266059     -114.427250     -260.253447
  BL        -259.267877     -112.697695     -260.324156
  BL        -260.269694     -110.968139     -260.394864
  BL        -261.271511     -109.238583     -260.465573
  BL        -262.273328     -107.509028     -260.536282
  BL        -263.275145     -105.779472     -260.606990
  BL        -264.276962     -104.049917     -260.677699
  BL        -265.278779     -102.320361     -260.748408
  BL        -266.280597     -100.590805     -260.819117
  BL        -267.282414      -98.861250     -260.889825
  BL        -268.284231      -97.131694     -260.960534
  BL        -269.286048      -95.402138     -261.031243
  BL        -270.287865      -93.672583     -261.101951
  BL        -271.289682      -91.943027     -261.172660
  BL        -272.291500      -90.213472     -261.243369
  BL        -273.293317      -88.483916     -261.314077
  BL        -274.295134      -86.754360     -261.384786
  BL        -275.296951      -85.024805     -261.455495
  BL        -276.298768      -83.295249     -261.526203
  BL        -277.300585      -81.565693     -261.596912
  BL        -278.302403      -79.836138     -261.667621
  BL        -279.304220      -78.106582     -261.738329
  BL        -280.306037      -76.377027     -261.809038
  BL        -281.307854      -74.647471     -261.879747
  BL        -282.309671      -72.917915     -261.950455
  BL        -283.311488      -71.188360     -262.021164
  BL        -284.313305      -69.458804     -262.091873
  BL        -285.315123      -67.729248     -262.162581
  BL        -286.316940      -65.999693     -262.233290
  BL        -287.318757      -64.270137     -262.303999
  BL        -288.320574      -62.540582     -262.374707
  BL        -289.322391      -60.811026     -262.445416
  B          179.193495     -279.142532       49.404152
  B          180.589410     -277.855641       48.775397
  B          181.985326     -276.568751       48.146642
  B          183.381242     -275.281861       47.517886
  B          184.777157     -273.994971       46.889131
  B          186.173073     -272.708080       46.260376
  B          187.568988     -271.421190       45.631621
  B          188.964904     -270.134300       45.002866
  B          190.360820     -268.847409       44.374111
  B          191.756735     -267.560519       43.745356
  B          193.152651     -266.273629       43.116601
  B          194.548567     -264.986739       42.487846
  B          195.944482     -263.699848       41.859091
  B          197.340398     -262.412958       41.230336
  B          198.736313     -261.126068       40.601580
  B          200.132229     -259.839177       39.972825
  B          201.528145     -258.552287       39.344070
  B          202.924060     -257.265397       38.715315
  B          204.319976     -255.978507       38.086560
  B          205.715892     -254.691616       37.457805
  BL         207.111807     -253.404726       36.829050
  BL         208.507723     -252.117836       36.200295
  BL         209.903638     -250.830945       35.571540
  BL         211.299554     -249.544055       34.942785
  BL         212.695470     -248.257165       34.314029
  BL         214.091385     -246.970275       33.685274
  BL         215.487301     -245.683384       33.056519
  BL         216.883217     -244.396494       32.427764
  BL         218.279132     -243.109604       31.799009
  BL         219.675048     -241.822713       31.170254
  BL         221.070963     -240.535823       30.541499
  BL         222.466879     -239.248933       29.912744
  BL         223.862795     -237.962043       29.283989
  BL         225.258710     -236.675152       28.655234
  BL         226.654626     -235.388262       28.026479
  BL         228.050542     -234.101372       27.397723
  BL         229.446457     -232.814482       26.768968
  BL         230.842373     -231.527591       26.140213
  BL         232.238288     -230.240701       25.511458
  BL         233.634204     -228.953811       24.882703
  BL         235.030120     -227.666920       24.253948
  BL         236.426035     -226.380030       23.625193
  BL         237.821951     -225.093140       22.996438
  BL         239.217867     -223.806250       22.367683
  BL         240.613782     -222.519359       21.738928
  BL         242.009698     -221.232469       21.110173
  BL         243.405613     -219.945579       20.481417
  BL         244.801529     -218.658688       19.852662
  BL         246.197445     -217.371798       19.223907
  BL         247.593360     -216.084908       18.595152
  BL         248.989276     -214.798018       17.966397
  BL         250.385192     -213.511127       17.337642
  BL         251.781107     -212.224237       16.708887
  BL         253.177023     -210.937347       16.080132
  BL         254.572938     -209.650456       15.451377
  BL         255.968854     -208.363566       14.822622
  BL         257.364770     -207.076676       14.193866
  BL         258.760685     -205.789786       13.565111
  BL         260.156601     -204.502895       12.936356
  BL         261.552517     -203.216005       12.307601
  BL         262.948432     -201.929115       11.678846
  BL         264.344348     -200.642224       11.050091
  BL         265.740263     -199.355334       10.421336
  BL         267.136179     -198.068444        9.792581
  BL         268.532095     -196.781554        9.163826
  BL         269.928010     -195.494663        8.535071
  BL         271.323926     -194.207773        7.906316
  BL         272.719842     -192.920883        7.277560
  BL         274.115757     -191.633992        6.648805
  BL         275.511673     -190.347102        6.020050
  B          182.086806       64.607525     -211.060032
  B          180.564920       63.663824     -210.169363
  B          179.043035       62.720122     -209.278694
  B          177.521149       61.776421     -208.388025
  B          175.999263       60.832719     -207.497357
  B          174.477377       59.889017     -206.606688
  B          172.955491       58.945316     -205.716019
  B          171.433605       58.001614     -204.825350
  B          169.911720       57.057913     -203.934682
  B          168.389834       56.114211     -203.044013
  B          166.867948       55.170509     -202.153344
  B          165.346062       54.226808     -201.262675
  B          163.824176       53.283106     -200.372007
  B          162.302290       52.339405     -199.481338
  B          160.780405       51.395703     -198.590669
  B          159.258519       50.452002     -197.700000
  B          157.736633       49.508300     -196.809332
  B          156.214747       48.564598     -195.918663
  B          154.692861       47.620897     -195.027994
  B          153.170975       46.677195     -194.137325
  BL         151.649090       45.733494     -193.246657
  BL         150.127204       44.789792     -192.355988
  BL         148.605318       43.846090     -191.465319
  BL         147.083432       42.902389     -190.574650
  BL         145.561546       41.958687     -189.683982
  BL         144.039660       41.014986     -188.793313
  BL         142.517774       40.071284     -187.902644
  BL         140.995889       39.127583     -187.011975
  BL         139.474003       38.183881     -186.121307
  BL         137.952117       37.240179     -185.230638
  BL         136.430231       36.296478     -184.339969
  BL         134.908345       35.352776     -183.449300
  BL         133.386459       34.409075     -182.558632
  BL         131.864574       33.465373     -181.667963
  BL         130.342688       32.521671     -180.777294
  BL         128.820802       31.577970     -179.886625
  BL         127.298916       30.634268     -178.995957
  BL         125.777030       29.690567     -178.105288
  BL         124.255144       28.746865     -177.214619
  BL         122.733259       27.803164     -176.323950
  BL         121.211373       26.859462     -175.433282
  BL         119.689487       25.915760     -174.542613
  BL         118.167601       24.972059     -173.651944
  BL         116.645715       24.028357     -172.761275
  BL         115.123829       23.084656     -171.870607
  BL         113.601944       22.140954     -170.979938
  BL         112.080058       21.197252     -170.089269
  BL         110.558172       20.253551     -169.198600
  BL         109.036286       19.309849     -168.307932
  BL         107.514400       18.366148     -167.417263
  BL         105.992514       17.422446     -166.526594
  BL         104.470629       16.478745     -165.635925
  BL         102.948743       15.535043     -164.745257
  BL         101.426857       14.591341     -163.854588
  BL          99.904971       13.647640     -162.963919
  BL          98.383085       12.703938     -162.073250
  BL          96.861199       11.760237     -161.182582
  BL          95.339314       10.816535     -160.291913
  BL          93.817428        9.872833     -159.401244
  BL          92.295542        8.929132     -158.510575
  BL          90.773656        7.985430     -157.619907
  BL          89.251770        7.041729     -156.729238
  BL          87.729884        6.098027     -155.838569
  BL          86.207998        5.154326     -154.947900
  BL          84.686113        4.210624     -154.057232
  BL          83.164227        3.266922     -153.166563
  BL          81.642341        2.323221     -152.275894
  BL          80.120455        1.379519     -151.385225
  BL          78.598569        0.435818     -150.494557
  BL          77.076683       -0.507884     -149.603888
  B           72.747510      187.827158      -94.804875
  B           71.779086      186.082233      -94.673004
  B           70.810662      184.337307      -94.541133
  B           69.842238      182.592382      -94.409262
  B           68.873814      180.847456      -94.277391
  B           67.905390      179.102531      -94.145520
  B           66.936966      177.357605      -94.013648
  B           65.968543      175.612679      -93.881777
  B           65.000119      173.867754      -93.749906
  B           64.031695      172.122828      -93.618035
  B           63.063271      170.377903      -93.486164
  B           62.094847      168.632977      -93.354293
  B           61.126423      166.888052      -93.222421
  B           60.157999      165.143126      -93.090550
  B           59.189575      163.398201      -92.958679
  B           58.221152      161.653275      -92.826808
  B           57.252728      159.908349      -92.694937
  B           56.284304      158.163424      -92.563066
  B           55.315880      156.418498      -92.431194
  B           54.347456      154.673573      -92.299323
  BL          53.379032      152.928647      -92.167452
  BL          52.410608      151.183722      -92.035581
  BL          51.442184      149.438796      -91.903710
  BL          50.473761      147.693871      -91.771839
  BL          49.505337      145.948945      -91.639967
  BL          48.536913      144.204019      -91.508096
  BL          47.568489      142.459094      -91.376225
  BL          46.600065      140.714168      -91.244354
  BL          45.631641      138.969243      -91.112483
  BL          44.663217      137.224317      -90.980612
  BL          43.694793      135.479392      -90.848740
  BL          42.726370      133.734466      -90.716869
  BL          41.757946      131.989541      -90.584998
  BL          40.789522      130.244615      -90.453127
  BL          39.821098      128.499689      -90.321256
  BL          38.852674      126.754764      -90.189385
  BL          37.884250      125.009838      -90.057513
  BL          36.915826      123.264913      -89.925642
  BL          35.947402      121.519987      -89.793771
  BL          34.978979      119.775062      -89.661900
  BL          34.010555      118.030136      -89.530029
  BL          33.042131      116.285211      -89.398158
  BL          32.073707      114.540285      -89.266286
  BL          31.105283      112.795359      -89.134415
  BL          30.136859      111.050434      -89.002544
  BL          29.168435      109.305508      -88.870673
  BL          28.200011      107.560583      -88.738802
  BL          27.231588      105.815657      -88.606931
  BL          26.263164      104.070732      -88.475059
  BL          25.294740      102.325806      -88.343188
  BL          24.326316      100.580881      -88.211317
  BL          23.357892       98.835955      -88.079446
  BL          22.389468       97.091029      -87.947575
  BL          21.421044       95.346104      -87.815704
  BL          20.452620       93.601178      -87.683832
  BL          19.484197       91.856253      -87.551961
  BL          18.515773       90.111327      -87.420090
  BL          17.547349       88.366402      -87.288219
  BL          16.578925       86.621476      -87.156348
  BL          15.610501       84.876551      -87.024477
  BL          14.642077       83.131625      -86.892605
  BL          13.673653       81.386699      -86.760734
  BL          12.705229       79.641774      -86.628863
  BL          11.736806       77.896848      -86.496992
  BL          10.768382       76.151923      -86.365121
  BL           9.799958       74.406997      -86.233250
  BL           8.831534       72.662072      -86.101378
  BL           7.863110       70.917146      -85.969507
  BL           6.894686       69.172221      -85.837636
  BL           5.926262       67.427295      -85.705765
  B          166.608570      -30.272562      149.870948
  B          166.799300      -28.334967      149.413402
  B          166.990031      -26.397372      148.955857
  B          167.180761      -24.459777      148.498312
  B          167.371492      -22.522182      148.040766
  B          167.562222      -20.584587      147.583221
  B          167.752953      -18.646992      147.125676
  B          167.943683      -16.709397      146.668130
  B          168.134414      -14.771802      146.210585
  B          168.325144      -12.834207      145.753040
  B          168.515875      -10.896612      145.295494
  B          168.706605       -8.959017      144.837949
  B          168.897336       -7.021422      144.380404
  B          169.088066       -5.083827      143.922858
  B          169.278797       -3.146233      143.465313
  B          169.469527       -1.208638      143.007767
  B          169.660258        0.728957      142.550222
  B          169.850988        2.666552      142.092677
  B          170.041718        4.604147      141.635131
  B          170.232449        6.541742      141.177586
  BL         170.423179        8.479337      140.720041
  BL         170.613910       10.416932      140.262495
  BL         170.804640       12.354527      139.804950
  BL         170.995371       14.292122      139.347405
  BL         171.186101       16.229717      138.889859
  BL         171.376832       18.167312      138.432314
  BL         171.567562       20.104907      137.974769
  BL         171.758293       22.042502      137.517223
  BL         171.949023       23.980097      137.059678
  BL         172.139754       25.917692      136.602133
  BL         172.330484       27.855286      136.144587
  BL         172.521215       29.792881      135.687042
  BL         172.711945       31.730476      135.229496
  BL         172.902676       33.668071      134.771951
  BL         173.093406       35.605666      134.314406
  BL         173.284137       37.543261      133.856860
  BL         173.474867       39.480856      133.399315
  BL         173.665598       41.418451      132.941770
  BL         173.856328       43.356046      132.484224
  BL         174.047059       45.293641      132.026679
  BL         174.237789       47.231236      131.569134
  BL         174.428520       49.168831      131.111588
  BL         174.619250       51.106426      130.654043
  BL         174.809981       53.044021      130.196498
  BL         175.000711       54.981616      129.738952
  BL         175.191441       56.919210      129.281407
  BL         175.382172       58.856805      128.823861
  BL         175.572902       60.794400      128.366316
  BL         175.763633       62.731995      127.908771
  BL         175.954363       64.669590      127.451225
  BL         176.145094       66.607185      126.993680
  BL         176.335824       68.544780      126.536135
  BL         176.526555       70.482375      126.078589
  BL         176.717285       72.419970      125.621044
  BL         176.908016       74.357565      125.163499
  BL         177.098746       76.295160      124.705953
  BL         177.289477       78.232755      124.248408
  BL         177.480207       80.170350      123.790863
  BL         177.670938       82.107945      123.333317
  BL         177.861668       84.045540      122.875772
  BL         178.052399       85.983134      122.418227
  BL         178.243129       87.920729      121.960681
  BL         178.433860       89.858324      121.503136
  BL         178.624590       91.795919      121.045590
  BL         178.815321       93.733514      120.588045
  BL         179.006051       95.671109      120.130500
  BL         179.196782       97.608704      119.672954
  BL         179.387512       99.546299      119.215409
  BL         179.578243      101.483894      118.757864
  BL         179.768973      103.421489      118.300318
  B          107.682526     -113.969225      208.403443
  B          106.602772     -112.337893      207.987645
  B          105.523018     -110.706561      207.571848
  B          104.443264     -109.075229      207.156050
  B          103.363510     -107.443897      206.740253
  B          102.283756     -105.812565      206.324455
  B          101.204002     -104.181233      205.908658
  B          100.124248     -102.549901      205.492860
  B           99.044494     -100.918569      205.077063
  B           97.964740      -99.287237      204.661265
  B           96.884986      -97.655905      204.245468
  B           95.805233      -96.024573      203.829670
  B           94.725479      -94.393241      203.413873
  B           93.645725      -92.761909      202.998075
  B           92.565971      -91.130578      202.582278
  B           91.486217      -89.499246      202.166480
  B           90.406463      -87.867914      201.750683
  B           89.326709      -86.236582      201.334885
  B           88.246955      -84.605250      200.919088
  B           87.167201      -82.973918      200.503290
  BL          86.087447      -81.342586      200.087493
  BL          85.007693      -79.711254      199.671695
  BL          83.927939      -78.079922      199.255898
  BL          82.848185      -76.448590      198.840101
  BL          81.768431      -74.817258      198.424303
  BL          80.688677      -73.185926      198.008506
  BL          79.608923      -71.554594      197.592708
  BL          78.529169      -69.923262      197.176911
  BL          77.449415      -68.291930      196.761113
  BL          76.369662      -66.660599      196.345316
  BL          75.289908      -65.029267      195.929518
  BL          74.210154      -63.397935      195.513721
  BL          73.130400      -61.766603      195.097923
  BL          72.050646      -60.135271      194.682126
  BL          70.970892      -58.503939      194.266328
  BL          69.891138      -56.872607      193.850531
  BL          68.811384      -55.241275      193.434733
  BL          67.731630      -53.609943      193.018936
  BL          66.651876      -51.978611      192.603138
  BL          65.572122      -50.347279      192.187341
  BL          64.492368      -48.715947      191.771543
  BL          63.412614      -47.084615      191.355746
  BL          62.332860      -45.453283      190.939948
  BL          61.253106      -43.821951      190.524151
  BL          60.173352      -42.190620      190.108353
  BL          59.093598      -40.559288      189.692556
  BL          58.013845      -38.927956      189.276758
  BL          56.934091      -37.296624      188.860961
  BL          55.854337      -35.665292      188.445163
  BL          54.774583      -34.033960      188.029366
  BL          53.694829      -32.402628      187.613568
  BL          52.615075      -30.771296      187.197771
  BL          51.535321      -29.139964      186.781973
  BL          50.455567      -27.508632      186.366176
  BL          49.375813      -25.877300      185.950378
  BL          48.296059      -24.245968      185.534581
  BL          47.216305      -22.614636      185.118783
  BL          46.136551      -20.983304      184.702986
  BL          45.056797      -19.351972      184.287189
  BL          43.977043      -17.720641      183.871391
  BL          42.897289      -16.089309      183.455594
  BL          41.817535      -14.457977      183.039796
  BL          40.737781      -12.826645      182.623999
  BL          39.658027      -11.195313      182.208201
  BL          38.578274       -9.563981      181.792404
  BL          37.498520       -7.932649      181.376606
  BL          36.418766       -6.301317      180.960809
  BL          35.339012       -4.669985      180.545011
  BL          34.259258       -3.038653      180.129214
  BL          33.179504       -1.407321      179.713416
  B          126.744462     -213.930777      118.808896
  B          126.627626     -212.501428      120.202923
  B          126.510789     -211.072080      121.596950
  B          126.393953     -209.642732      122.990978
  B          126.277116     -208.213383      124.385005
  B          126.160280     -206.784035      125.779032
  B          126.043443     -205.354686      127.173060
  B          125.926607     -203.925338      128.567087
  B          125.809770     -202.495989      129.961115
  B          125.692933     -201.066641      131.355142
  B          125.576097     -199.637293      132.749169
  B          125.459260     -198.207944      134.143197
  B          125.342424     -196.778596      135.537224
  B          125.225587     -195.349247      136.931251
  B          125.108751     -193.919899      138.325279
  B          124.991914     -192.490550      139.719306
  B          124.875078     -191.061202      141.113334
  B          124.758241     -189.631854      142.507361
  B          124.641404     -188.202505      143.901388
  B          124.524568     -186.773157      145.295416
  BL         124.407731     -185.343808      146.689443
  BL         124.290895     -183.914460      148.083470
  BL         124.174058     -182.485112      149.477498
  BL         124.057222     -181.055763      150.871525
  BL         123.940385     -179.626415      152.265552
  BL         123.823549     -178.197066      153.659580
  BL         123.706712     -176.767718      155.053607
  BL         123.589875     -175.338369      156.447635
  BL         123.473039     -173.909021      157.841662
  BL         123.356202     -172.479673      159.235689
  BL         123.239366     -171.050324      160.629717
  BL         123.122529     -169.620976      162.023744
  BL         123.005693     -168.191627      163.417771
  BL         122.888856     -166.762279      164.811799
  BL         122.772020     -165.332930      166.205826
  BL         122.655183     -163.903582      167.599854
  BL         122.538346     -162.474234      168.993881
  BL         122.421510     -161.044885      170.387908
  BL         122.304673     -159.615537      171.781936
  BL         122.187837     -158.186188      173.175963
  BL         122.071000     -156.756840      174.569990
  BL         121.954164     -155.327492      175.964018
  BL         121.837327     -153.898143      177.358045
  BL         121.720491     -152.468795      178.752073
  BL         121.603654     -151.039446      180.146100
  BL         121.486817     -149.610098      181.540127
  BL         121.369981     -148.180749      182.934155
  BL         121.253144     -146.751401      184.328182
  BL         121.136308     -145.322053      185.722209
  BL         121.019471     -143.892704      187.116237
  BL         120.902635     -142.463356      188.510264
  BL         120.785798     -141.034007      189.904291
  BL         120.668962     -139.604659      191.298319
  BL         120.552125     -138.175310      192.692346
  BL         120.435288     -136.745962      194.086374
  BL         120.318452     -135.316614      195.480401
  BL         120.201615     -133.887265      196.874428
  BL         120.084779     -132.457917      198.268456
  BL         119.967942     -131.028568      199.662483
  BL         119.851106     -129.599220      201.056510
  BL         119.734269     -128.169871      202.450538
  BL         119.617433     -126.740523      203.844565
  BL         119.500596     -125.311175      205.238593
  BL         119.383759     -123.881826      206.632620
  BL         119.266923     -122.452478      208.026647
  BL         119.150086     -121.023129      209.420675
  BL         119.033250     -119.593781      210.814702
  BL         118.916413     -118.164433      212.208729
  BL         118.799577     -116.735084      213.602757
  BL         118.682740     -115.305736      214.996784
  B          125.602377      202.678391       93.816511
  B          127.298870      201.643803       94.043536
  B          128.995362      200.609216       94.270561
  B          130.691855      199.574628       94.497586
  B          132.388348      198.540040       94.724611
  B          134.084840      197.505452       94.951637
  B          135.781333      196.470864       95.178662
  B          137.477826      195.436276       95.405687
  B          139.174319      194.401688       95.632712
  B          140.870811      193.367101       95.859737
  B          142.567304      192.332513       96.086763
  B          144.263797      191.297925       96.313788
  B          145.960289      190.263337       96.540813
  B          147.656782      189.228749       96.767838
  B          149.353275      188.194161       96.994864
  B          151.049768      187.159573       97.221889
  B          152.746260      186.124986       97.448914
  B          154.442753      185.090398       97.675939
  B          156.139246      184.055810       97.902964
  B          157.835738      183.021222       98.129990
  BL         159.532231      181.986634       98.357015
  BL         161.228724      180.952046       98.584040
  BL         162.925217      179.917459       98.811065
  BL         164.621709      178.882871       99.038091
  BL         166.318202      177.848283       99.265116
  BL         168.014695      176.813695       99.492141
  BL         169.711187      175.779107       99.719166
  BL         171.407680      174.744519       99.946191
  BL         173.104173      173.709931      100.173217
  BL         174.800666      172.675344      100.400242
  BL         176.497158      171.640756      100.627267
  BL         178.193651      170.606168      100.854292
  BL         179.890144      169.571580      101.081318
  BL         181.586636      168.536992      101.308343
  BL         183.283129      167.502404      101.535368
  BL         184.979622      166.467816      101.762393
  BL         186.676115      165.433229      101.989418
  BL         188.372607      164.398641      102.216444
  BL         190.069100      163.364053      102.443469
  BL         191.765593      162.329465      102.670494
  BL         193.462085      161.294877      102.897519
  BL         195.158578      160.260289      103.124545
  BL         196.855071      159.225702      103.351570
  BL         198.551564      158.191114      103.578595
  BL         200.248056      157.156526      103.805620
  BL         201.944549      156.121938      104.032645
  BL         203.641042      155.087350      104.259671
  BL         205.337534      154.052762      104.486696
  BL         207.034027      153.018174      104.713721
  BL         208.730520      151.983587      104.940746
  BL         210.427013      150.948999      105.167771
  BL         212.123505      149.914411      105.394797
  BL         213.819998      148.879823      105.621822
  BL         215.516491      147.845235      105.848847
  BL         217.212983      146.810647      106.075872
  BL         218.909476      145.776059      106.302898
  BL         220.605969      144.741472      106.529923
  BL         222.302462      143.706884      106.756948
  BL         223.998954      142.672296      106.983973
  BL         225.695447      141.637708      107.210998
  BL         227.391940      140.603120      107.438024
  BL         229.088432      139.568532      107.665049
  BL         230.784925      138.533945      107.892074
  BL         232.481418      137.499357      108.119099
  BL         234.177911      136.464769      108.346125
  BL         235.874403      135.430181      108.573150
  BL         237.570896      134.395593      108.800175
  BL         239.267389      133.361005      109.027200
  BL         240.963881      132.326417      109.254225
  BL         242.660374      131.291830      109.481251
  B         -162.270713     -163.783339     -265.567526
  B         -162.082774     -162.517334     -264.030676
  B         -161.894834     -161.251329     -262.493825
  B         -161.706895     -159.985324     -260.956975
  B         -161.518956     -158.719319     -259.420124
  B         -161.331017     -157.453313     -257.883273
  B         -161.143078     -156.187308     -256.346423
  B         -160.955138     -154.921303     -254.809572
  B         -160.767199     -153.655298     -253.272722
  B         -160.579260     -152.389293     -251.735871
  B         -160.391321     -151.123288     -250.199020
  B         -160.203382     -149.857282     -248.662170
  B         -160.015442     -148.591277     -247.125319
  B         -159.827503     -147.325272     -245.588469
  B         -159.639564     -146.059267     -244.051618
  B         -159.451625     -144.793262     -242.514768
  B         -159.263686     -143.527256     -240.977917
  B         -159.075747     -142.261251     -239.441066
  B         -158.887807     -140.995246     -237.904216
  B         -158.699868     -139.729241     -236.367365
  BL        -158.511929     -138.463236     -234.830515
  BL        -158.323990     -137.197230     -233.293664
  BL        -158.136051     -135.931225     -231.756813
  BL        -157.948111     -134.665220     -230.219963
  BL        -157.760172     -133.399215     -228.683112
  BL        -157.572233     -132.133210     -227.146262
  BL        -157.384294     -130.867205     -225.609411
  BL        -157.196355     -129.601199     -224.072561
  BL        -157.008415     -128.335194     -222.535710
  BL        -156.820476     -127.069189     -220.998859
  BL        -156.632537     -125.803184     -219.462009
  BL        -156.444598     -124.537179     -217.925158
  BL        -156.256659     -123.271173     -216.388308
  BL        -156.068719     -122.005168     -214.851457
  BL        -155.880780     -120.739163     -213.314606
  BL        -155.692841     -119.473158     -211.777756
  BL        -155.504902     -118.207153     -210.240905
  BL        -155.316963     -116.941147     -208.704055
  BL        -155.129023     -115.675142     -207.167204
  BL        -154.941084     -114.409137     -205.630353
  BL        -154.753145     -113.143132     -204.093503
  BL        -154.565206     -111.877127     -202.556652
  BL        -154.377267     -110.611121     -201.019802
  BL        -154.189328     -109.345116     -199.482951
  BL        -154.001388     -108.079111     -197.946101
  BL        -153.813449     -106.813106     -196.409250
  BL        -153.625510     -105.547101     -194.872399
  BL        -153.437571     -104.281096     -193.335549
  BL        -153.249632     -103.015090     -191.798698
  BL        -153.061692     -101.749085     -190.261848
  BL        -152.873753     -100.483080     -188.724997
  BL        -152.685814      -99.217075     -187.188146
  BL        -152.497875      -97.951070     -185.651296
  BL        -152.309936      -96.685064     -184.114445
  BL        -152.121996      -95.419059     -182.577595
  BL        -151.934057      -94.153054     -181.040744
  BL        -151.746118      -92.887049     -179.503894
  BL        -151.558179      -91.621044     -177.967043
  BL        -151.370240      -90.355038     -176.430192
  BL        -151.182300      -89.089033     -174.893342
  BL        -150.994361      -87.823028     -173.356491
  BL        -150.806422      -86.557023     -171.819641
  BL        -150.618483      -85.291018     -170.282790
  BL        -150.430544      -84.025013     -168.745939
  BL        -150.242604      -82.759007     -167.209089
  BL        -150.054665      -81.493002     -165.672238
  BL        -149.866726      -80.226997     -164.135388
  BL        -149.678787      -78.960992     -162.598537
  BL        -149.490848      -77.694987     -161.061687
  BL        -149.302909      -76.428981     -159.524836
  B            4.977121     -217.178525      132.445512
  B            5.221040     -215.865393      133.934198
  B            5.464960     -214.552262      135.422885
  B            5.708880     -213.239130      136.911572
  B            5.952800     -211.925999      138.400259
  B            6.196720     -210.612867      139.888946
  B            6.440640     -209.299736      141.377633
  B            6.684559     -207.986604      142.866320
  B            6.928479     -206.673472      144.355007
  B            7.172399     -205.360341      145.843693
  B            7.416319     -204.047209      147.332380
  B            7.660239     -202.734078      148.821067
  B            7.904158     -201.420946      150.309754
  B            8.148078     -200.107815      151.798441
  B            8.391998     -198.794683      153.287128
  B            8.635918     -197.481552      154.775815
  B            8.879838     -196.168420      156.264502
  B            9.123758     -194.855288      157.753188
  B            9.367677     -193.542157      159.241875
  B            9.611597     -192.229025      160.730562
  BL           9.855517     -190.915894      162.219249
  BL          10.099437     -189.602762      163.707936
  BL          10.343357     -188.289631      165.196623
  BL          10.587277     -186.976499      166.685310
  BL          10.831196     -185.663368      168.173997
  BL          11.075116     -184.350236      169.662683
  BL          11.319036     -183.037104      171.151370
  BL          11.562956     -181.723973      172.640057
  BL          11.806876     -180.410841      174.128744
  BL          12.050795     -179.097710      175.617431
  BL          12.294715     -177.784578      177.106118
  BL          12.538635     -176.471447      178.594805
  BL          12.782555     -175.158315      180.083492
  BL          13.026475     -173.845183      181.572179
  BL          13.270395     -172.532052      183.060865
  BL          13.514314     -171.218920      184.549552
  BL          13.758234     -169.905789      186.038239
  BL          14.002154     -168.592657      187.526926
  BL          14.246074     -167.279526      189.015613
  BL          14.489994     -165.966394      190.504300
  BL          14.733914     -164.653263      191.992987
  BL          14.977833     -163.340131      193.481674
  BL          15.221753     -162.026999      194.970360
  BL          15.465673     -160.713868      196.459047
  BL          15.709593     -159.400736      197.947734
  BL          15.953513     -158.087605      199.436421
  BL          16.197432     -156.774473      200.925108
  BL          16.441352     -155.461342      202.413795
  BL          16.685272     -154.148210      203.902482
  BL          16.929192     -152.835078      205.391169
  BL          17.173112     -151.521947      206.879855
  BL          17.417032     -150.208815      208.368542
  BL          17.660951     -148.895684      209.857229
  BL          17.904871     -147.582552      211.345916
  BL          18.148791     -146.269421      212.834603
  BL          18.392711     -144.956289      214.323290
  BL          18.636631     -143.643158      215.811977
  BL          18.880551     -142.330026      217.300664
  BL          19.124470     -141.016894      218.789350
  BL          19.368390     -139.703763      220.278037
  BL          19.612310     -138.390631      221.766724
  BL          19.856230     -137.077500      223.255411
  BL          20.100150     -135.764368      224.744098
  BL          20.344069     -134.451237      226.232785
  BL          20.587989     -133.138105      227.721472
  BL          20.831909     -131.824973      229.210159
  BL          21.075829     -130.511842      230.698845
  BL          21.319749     -129.198710      232.187532
  BL          21.563669     -127.885579      233.676219
  BL          21.807588     -126.572447      235.164906
  B         -209.741222     -215.927106       27.444385
  B         -208.201470     -214.816604       28.073630
  B         -206.661718     -213.706102       28.702874
  B         -205.121966     -212.595600       29.332119
  B         -203.582214     -211.485098       29.961364
  B         -202.042462     -210.374596       30.590609
  B         -200.502710     -209.264094       31.219853
  B         -198.962958     -208.153592       31.849098
  B         -197.423206     -207.043090       32.478343
  B         -195.883454     -205.932588       33.107588
  B         -194.343702     -204.822086       33.736833
  B         -192.803950     -203.711584       34.366077
  B         -191.264198     -202.601082       34.995322
  B         -189.724446     -201.490580       35.624567
  B         -188.184694     -200.380078       36.253812
  B         -186.644942     -199.269576       36.883056
  B         -185.105190     -198.159074       37.512301
  B         -183.565438     -197.048571       38.141546
  B         -182.025686     -195.938069       38.770791
  B         -180.485934     -194.827567       39.400035
  BL        -178.946182     -193.717065       40.029280
  BL        -177.406430     -192.606563       40.658525
  BL        -175.866678     -191.496061       41.287770
  BL        -174.326925     -190.385559       41.917014
  BL        -172.787173     -189.275057       42.546259
  BL        -171.247421     -188.164555       43.175504
  BL        -169.707669     -187.054053       43.804749
  BL        -168.167917     -185.943551       44.433993
  BL        -166.628165     -184.833049       45.063238
  BL        -165.088413     -183.722547       45.692483
  BL        -163.548661     -182.612045       46.321728
  BL        -162.008909     -181.501543       46.950973
  BL        -160.469157     -180.391041       47.580217
  BL        -158.929405     -179.280539       48.209462
  BL        -157.389653     -178.170037       48.838707
  BL        -155.849901     -177.059535       49.467952
  BL        -154.310149     -175.949033       50.097196
  BL        -152.770397     -174.838531       50.726441
  BL        -151.230645     -173.728029       51.355686
  BL        -149.690893     -172.617527       51.984931
  BL        -148.151141     -171.507025       52.614175
  BL        -146.611389     -170.396523       53.243420
  BL        -145.071637     -169.286021       53.872665
  BL        -143.531885     -168.175519       54.501910
  BL        -141.992133     -167.065017       55.131154
  BL        -140.452381     -165.954515       55.760399
  BL        -138.912629     -164.844013       56.389644
  BL        -137.372877     -163.733511       57.018889
  BL        -135.833125     -162.623009       57.648134
  BL        -134.293373     -161.512507       58.277378
  BL        -132.753621     -160.402005       58.906623
  BL        -131.213869     -159.291503       59.535868
  BL        -129.674117     -158.181001       60.165113
  BL        -128.134365     -157.070499       60.794357
  BL        -126.594613     -155.959997       61.423602
  BL        -125.054861     -154.849495       62.052847
  BL        -123.515109     -153.738993       62.682092
  BL        -121.975357     -152.628491       63.311336
  BL        -120.435605     -151.517989       63.940581
  BL        -118.895853     -150.407487       64.569826
  BL        -117.356101     -149.296985       65.199071
  BL        -115.816349     -148.186483       65.828315
  BL        -114.276597     -147.075981       66.457560
  BL        -112.736845     -145.965479       67.086805
  BL        -111.197093     -144.854977       67.716050
  BL        -109.657341     -143.744475       68.345295
  BL        -108.117588     -142.633973       68.974539
  BL        -106.577836     -141.523471       69.603784
  BL        -105.038084     -140.412969       70.233029
  BL        -103.498332     -139.302466       70.862274
  B          192.072804      -65.567642     -194.977151
  B          191.339551      -63.863577     -194.229820
  B          190.606298      -62.159512     -193.482490
  B          189.873045      -60.455448     -192.735159
  B          189.139791      -58.751383     -191.987828
  B          188.406538      -57.047318     -191.240498
  B          187.673285      -55.343253     -190.493167
  B          186.940032      -53.639189     -189.745836
  B          186.206779      -51.935124     -188.998506
  B          185.473526      -50.231059     -188.251175
  B          184.740272      -48.526995     -187.503844
  B          184.007019      -46.822930     -186.756514
  B          183.273766      -45.118865     -186.009183
  B          182.540513      -43.414800     -185.261852
  B          181.807260      -41.710736     -184.514522
  B          181.074006      -40.006671     -183.767191
  B          180.340753      -38.302606     -183.019860
  B          179.607500      -36.598541     -182.272530
  B          178.874247      -34.894477     -181.525199
  B          178.140994      -33.190412     -180.777868
  BL         177.407740      -31.486347     -180.030538
  BL         176.674487      -29.782282     -179.283207
  BL         175.941234      -28.078218     -178.535876
  BL         175.207981      -26.374153     -177.788546
  BL         174.474728      -24.670088     -177.041215
  BL         173.741474      -22.966023     -176.293884
  BL         173.008221      -21.261959     -175.546554
  BL         172.274968      -19.557894     -174.799223
  BL         171.541715      -17.853829     -174.051892
  BL         170.808462      -16.149765     -173.304562
  BL         170.075208      -14.445700     -172.557231
  BL         169.341955      -12.741635     -171.809900
  BL         168.608702      -11.037570     -171.062570
  BL         167.875449       -9.333506     -170.315239
  BL         167.142196       -7.629441     -169.567908
  BL         166.408942       -5.925376     -168.820578
  BL         165.675689       -4.221311     -168.073247
  BL         164.942436       -2.517247     -167.325916
  BL         164.209183       -0.813182     -166.578586
  BL         163.475930        0.890883     -165.831255
  BL         162.742676        2.594948     -165.083924
  BL         162.009423        4.299012     -164.336594
  BL         161.276170        6.003077     -163.589263
  BL         160.542917        7.707142     -162.841932
  BL         159.809664        9.411207     -162.094602
  BL         159.076410       11.115271     -161.347271
  BL         158.343157       12.819336     -160.599940
  BL         157.609904       14.523401     -159.852610
  BL         156.876651       16.227465     -159.105279
  BL         156.143398       17.931530     -158.357948
  BL         155.410145       19.635595     -157.610618
  BL         154.676891       21.339660     -156.863287
  BL         153.943638       23.043724     -156.115956
  BL         153.210385       24.747789     -155.368626
  BL         152.477132       26.451854     -154.621295
  BL         151.743879       28.155919     -153.873964
  BL         151.010625       29.859983     -153.126634
  BL         150.277372       31.564048     -152.379303
  BL         149.544119       33.268113     -151.631972
  BL         148.810866       34.972178     -150.884642
  BL         148.077613       36.676242     -150.137311
  BL         147.344359       38.380307     -149.389980
  BL         146.611106       40.084372     -148.642650
  BL         145.877853       41.788436     -147.895319
  BL         145.144600       43.492501     -147.147988
  BL         144.411347       45.196566     -146.400658
  BL         143.678093       46.900631     -145.653327
  BL         142.944840       48.604695     -144.905996
  BL         142.211587       50.308760     -144.158666
  BL         141.478334       52.012825     -143.411335
  B          -62.559727     -193.777265       -9.048887
  B          -61.180513     -195.153353       -8.597056
  B          -59.801299     -196.529440       -8.145225
  B          -58.422085     -197.905528       -7.693394
  B          -57.042872     -199.281616       -7.241563
  B          -55.663658     -200.657704       -6.789732
  B          -54.284444     -202.033792       -6.337901
  B          -52.905230     -203.409880       -5.886070
  B          -51.526017     -204.785968       -5.434239
  B          -50.146803     -206.162056       -4.982407
  B          -48.767589     -207.538144       -4.530576
  B          -47.388375     -208.914232       -4.078745
  B          -46.009162     -210.290320       -3.626914
  B          -44.629948     -211.666408       -3.175083
  B          -43.250734     -213.042496       -2.723252
  B          -41.871520     -214.418584       -2.271421
  B          -40.492306     -215.794672       -1.819590
  B          -39.113093     -217.170760       -1.367759
  B          -37.733879     -218.546848       -0.915928
  B          -36.354665     -219.922936       -0.464097
  BL         -34.975451     -221.299023       -0.012265
  BL         -33.596238     -222.675111        0.439566
  BL         -32.217024     -224.051199        0.891397
  BL         -30.837810     -225.427287        1.343228
  BL         -29.458596     -226.803375        1.795059
  BL         -28.079382     -228.179463        2.246890
  BL         -26.700169     -229.555551        2.698721
  BL         -25.320955     -230.931639        3.150552
  BL         -23.941741     -232.307727        3.602383
  BL         -22.562527     -233.683815        4.054214
  BL         -21.183314     -235.059903        4.506045
  BL         -19.804100     -236.435991        4.957877
  BL         -18.424886     -237.812079        5.409708
  BL         -17.045672     -239.188167        5.861539
  BL         -15.666459     -240.564255        6.313370
  BL         -14.287245     -241.940343        6.765201
  BL         -12.908031     -243.316431        7.217032
  BL         -11.528817     -244.692519        7.668863
  BL         -10.149603     -246.068607        8.120694
  BL          -8.770390     -247.444694        8.572525
  BL          -7.391176     -248.820782        9.024356
  BL          -6.011962     -250.196870        9.476187
  BL          -4.632748     -251.572958        9.928019
  BL          -3.253535     -252.949046       10.379850
  BL          -1.874321     -254.325134       10.831681
  BL          -0.495107     -255.701222       11.283512
  BL           0.884107     -257.077310       11.735343
  BL           2.263321     -258.453398       12.187174
  BL           3.642534     -259.829486       12.639005
  BL           5.021748     -261.205574       13.090836
  BL           6.400962     -262.581662       13.542667
  BL           7.780176     -263.957750       13.994498
  BL           9.159389     -265.333838       14.446329
  BL          10.538603     -266.709926       14.898160
  BL          11.917817     -268.086014       15.349992
  BL          13.297031     -269.462102       15.801823
  BL          14.676244     -270.838190       16.253654
  BL          16.055458     -272.214278       16.705485
  BL          17.434672     -273.590365       17.157316
  BL          18.813886     -274.966453       17.609147
  BL          20.193100     -276.342541       18.060978
  BL          21.572313     -277.718629       18.512809
  BL          22.951527     -279.094717       18.964640
  BL          24.330741     -280.470805       19.416471
  BL          25.709955     -281.846893       19.868302
  BL          27.089168     -283.222981       20.320134
  BL          28.468382     -284.599069       20.771965
  BL          29.847596     -285.975157       21.223796
  BL          31.226810     -287.351245       21.675627
  BL          32.606024     -288.727333       22.127458
  B         -245.805086     -191.048622      173.546584
  B         -243.805625     -191.049596      173.500169
  B         -241.806164     -191.050569      173.453754
  B         -239.806702     -191.051542      173.407339
  B         -237.807241     -191.052516      173.360924
  B         -235.807780     -191.053489      173.314509
  B         -233.808319     -191.054462      173.268094
  B         -231.808858     -191.055435      173.221680
  B         -229.809397     -191.056409      173.175265
  B         -227.809936     -191.057382      173.128850
  B         -225.810475     -191.058355      173.082435
  B         -223.811014     -191.059329      173.036020
  B         -221.811553     -191.060302      172.989605
  B         -219.812091     -191.061275      172.943190
  B         -217.812630     -191.062248      172.896775
  B         -215.813169     -191.063222      172.850360
  B         -213.813708     -191.064195      172.803945
  B         -211.814247     -191.065168      172.757530
  B         -209.814786     -191.066142      172.711115
  B         -207.815325     -191.067115      172.664701
  BL        -205.815864     -191.068088      172.618286
  BL        -203.816403     -191.069062      172.571871
  BL        -201.816941     -191.070035      172.525456
  BL        -199.817480     -191.071008      172.479041
  BL        -197.818019     -191.071981      172.432626
  BL        -195.818558     -191.072955      172.386211
  BL        -193.819097     -191.073928      172.339796
  BL        -191.819636     -191.074901      172.293381
  BL        -189.820175     -191.075875      172.246966
  BL        -187.820714     -191.076848      172.200551
  BL        -185.821253     -191.077821      172.154136
  BL        -183.821792     -191.078794      172.107722
  BL        -181.822330     -191.079768      172.061307
  BL        -179.822869     -191.080741      172.014892
  BL        -177.823408     -191.081714      171.968477
  BL        -175.823947     -191.082688      171.922062
  BL        -173.824486     -191.083661      171.875647
  BL        -171.825025     -191.084634      171.829232
  BL        -169.825564     -191.085608      171.782817
  BL        -167.826103     -191.086581      171.736402
  BL        -165.826642     -191.087554      171.689987
  BL        -163.827180     -191.088527      171.643572
  BL        -161.827719     -191.089501      171.597157
  BL        -159.828258     -191.090474      171.550743
  BL        -157.828797     -191.091447      171.504328
  BL        -155.829336     -191.092421      171.457913
  BL        -153.829875     -191.093394      171.411498
  BL        -151.830414     -191.094367      171.365083
  BL        -149.830953     -191.095341      171.318668
  BL        -147.831492     -191.096314      171.272253
  BL        -145.832031     -191.097287      171.225838
  BL        -143.832569     -191.098260      171.179423
  BL        -141.833108     -191.099234      171.133008
  BL        -139.833647     -191.100207      171.086593
  BL        -137.834186     -191.101180      171.040178
  BL        -135.834725     -191.102154      170.993764
  BL        -133.835264     -191.103127      170.947349
  BL        -131.835803     -191.104100      170.900934
  BL        -129.836342     -191.105073      170.854519
  BL        -127.836881     -191.106047      170.808104
  BL        -125.837419     -191.107020      170.761689
  BL        -123.837958     -191.107993      170.715274
  BL        -121.838497     -191.108967      170.668859
  BL        -119.839036     -191.109940      170.622444
  BL        -117.839575     -191.110913      170.576029
  BL        -115.840114     -191.111887      170.529614
  BL        -113.840653     -191.112860      170.483199
  BL        -111.841192     -191.113833      170.436785
  BL        -109.841731     -191.114806      170.390370
  BL        -107.842270     -191.115780      170.343955
  B         -227.068436       39.076590       24.962988
  B         -227.356965       37.520134       26.185360
  B         -227.645494       35.963677       27.407732
  B         -227.934024       34.407220       28.630104
  B         -228.222553       32.850764       29.852476
  B         -228.511082       31.294307       31.074849
  B         -228.799612       29.737851       32.297221
  B         -229.088141       28.181394       33.519593
  B         -229.376670       26.624937       34.741965
  B         -229.665200       25.068481       35.964337
  B         -229.953729       23.512024       37.186709
  B         -230.242258       21.955567       38.409081
  B         -230.530787       20.399111       39.631454
  B         -230.819317       18.842654       40.853826
  B         -231.107846       17.286198       42.076198
  B         -231.396375       15.729741       43.298570
  B         -231.684905       14.173284       44.520942
  B         -231.973434       12.616828       45.743314
  B         -232.261963       11.060371       46.965686
  B         -232.550493        9.503915       48.188059
  BL        -232.839022        7.947458       49.410431
  BL        -233.127551        6.391001       50.632803
  BL        -233.416081        4.834545       51.855175
  BL        -233.704610        3.278088       53.077547
  BL        -233.993139        1.721631       54.299919
  BL        -234.281669        0.165175       55.522291
  BL        -234.570198       -1.391282       56.744664
  BL        -234.858727       -2.947738       57.967036
  BL        -235.147256       -4.504195       59.189408
  BL        -235.435786       -6.060652       60.411780
  BL        -235.724315       -7.617108       61.634152
  BL        -236.012844       -9.173565       62.856524
  BL        -236.301374      -10.730021       64.078896
  BL        -236.589903      -12.286478       65.301269
  BL        -236.878432      -13.842935       66.523641
  BL        -237.166962      -15.399391       67.746013
  BL        -237.455491      -16.955848       68.968385
  BL        -237.744020      -18.512304       70.190757
  BL        -238.032550      -20.068761       71.413129
  BL        -238.321079      -21.625218       72.635501
  BL        -238.609608      -23.181674       73.857874
  BL        -238.898138      -24.738131       75.080246
  BL        -239.186667      -26.294588       76.302618
  BL        -239.475196      -27.851044       77.524990
  BL        -239.763726      -29.407501       78.747362
  BL        -240.052255      -30.963957       79.969734
  BL        -240.340784      -32.520414       81.192106
  BL        -240.629313      -34.076871       82.414478
  BL        -240.917843      -35.633327       83.636851
  BL        -241.206372      -37.189784       84.859223
  BL        -241.494901      -38.746240       86.081595
  BL        -241.783431      -40.302697       87.303967
  BL        -242.071960      -41.859154       88.526339
  BL        -242.360489      -43.415610       89.748711
  BL        -242.649019      -44.972067       90.971083
  BL        -242.937548      -46.528523       92.193456
  BL        -243.226077      -48.084980       93.415828
  BL        -243.514607      -49.641437       94.638200
  BL        -243.803136      -51.197893       95.860572
  BL        -244.091665      -52.754350       97.082944
  BL        -244.380195      -54.310807       98.305316
  BL        -244.668724      -55.867263       99.527688
  BL        -244.957253      -57.423720      100.750061
  BL        -245.245782      -58.980176      101.972433
  BL        -245.534312      -60.536633      103.194805
  BL        -245.822841      -62.093090      104.417177
  BL        -246.111370      -63.649546      105.639549
  BL        -246.399900      -65.206003      106.861921
  BL        -246.688429      -66.762459      108.084293
  BL        -246.976958      -68.318916      109.306666
  B         -154.982816      -53.189553     -133.072048
  B         -154.246719      -54.777616     -132.104465
  B         -153.510622      -56.365679     -131.136881
  B         -152.774525      -57.953741     -130.169297
  B         -152.038428      -59.541804     -129.201713
  B         -151.302331      -61.129867     -128.234130
  B         -150.566234      -62.717929     -127.266546
  B         -149.830137      -64.305992     -126.298962
  B         -149.094040      -65.894054     -125.331379
  B         -148.357942      -67.482117     -124.363795
  B         -147.621845      -69.070180     -123.396211
  B         -146.885748      -70.658242     -122.428628
  B         -146.149651      -72.246305     -121.461044
  B         -145.413554      -73.834368     -120.493460
  B         -144.677457      -75.422430     -119.525876
  B         -143.941360      -77.010493     -118.558293
  B         -143.205263      -78.598555     -117.590709
  B         -142.469166      -80.186618     -116.623125
  B         -141.733069      -81.774681     -115.655542
  B         -140.996972      -83.362743     -114.687958
  BL        -140.260875      -84.950806     -113.720374
  BL        -139.524778      -86.538869     -112.752791
  BL        -138.788681      -88.126931     -111.785207
  BL        -138.052584      -89.714994     -110.817623
  BL        -137.316487      -91.303056     -109.850039
  BL        -136.580390      -92.891119     -108.882456
  BL        -135.844293      -94.479182     -107.914872
  BL        -135.108195      -96.067244     -106.947288
  BL        -134.372098      -97.655307     -105.979705
  BL        -133.636001      -99.243370     -105.012121
  BL        -132.899904     -100.831432     -104.044537
  BL        -132.163807     -102.419495     -103.076953
  BL        -131.427710     -104.007557     -102.109370
  BL        -130.691613     -105.595620     -101.141786
  BL        -129.955516     -107.183683     -100.174202
  BL        -129.219419     -108.771745      -99.206619
  BL        -128.483322     -110.359808      -98.239035
  BL        -127.747225     -111.947871      -97.271451
  BL        -127.011128     -113.535933      -96.303868
  BL        -126.275031     -115.123996      -95.336284
  BL        -125.538934     -116.712058      -94.368700
  BL        -124.802837     -118.300121      -93.401116
  BL        -124.066740     -119.888184      -92.433533
  BL        -123.330643     -121.476246      -91.465949
  BL        -122.594546     -123.064309      -90.498365
  BL        -121.858448     -124.652372      -89.530782
  BL        -121.122351     -126.240434      -88.563198
  BL        -120.386254     -127.828497      -87.595614
  BL        -119.650157     -129.416559      -86.628031
  BL        -118.914060     -131.004622      -85.660447
  BL        -118.177963     -132.592685      -84.692863
  BL        -117.441866     -134.180747      -83.725279
  BL        -116.705769     -135.768810      -82.757696
  BL        -115.969672     -137.356873      -81.790112
  BL        -115.233575     -138.944935      -80.822528
  BL        -114.497478     -140.532998      -79.854945
  BL        -113.761381     -142.121060      -78.887361
  BL        -113.025284     -143.709123      -77.919777
  BL        -112.289187     -145.297186      -76.952193
  BL        -111.553090     -146.885248      -75.984610
  BL        -110.816993     -148.473311      -75.017026
  BL        -110.080896     -150.061374      -74.049442
  BL        -109.344799     -151.649436      -73.081859
  BL        -108.608701     -153.237499      -72.114275
  BL        -107.872604     -154.825561      -71.146691
  BL        -107.136507     -156.413624      -70.179108
  BL        -106.400410     -158.001687      -69.211524
  BL        -105.664313     -159.589749      -68.243940
  BL        -104.928216     -161.177812      -67.276356
  BL        -104.192119     -162.765875      -66.308773
  B          140.902891     -174.627740      149.371512
  B          142.432640     -175.783587      148.802401
  B          143.962389     -176.939434      148.233290
  B          145.492138     -178.095280      147.664179
  B          147.021886     -179.251127      147.095068
  B          148.551635     -180.406974      146.525957
  B          150.081384     -181.562820      145.956846
  B          151.611133     -182.718667      145.387735
  B          153.140882     -183.874513      144.818624
  B          154.670630     -185.030360      144.249513
  B          156.200379     -186.186207      143.680402
  B          157.730128     -187.342053      143.111291
  B          159.259877     -188.497900      142.542180
  B          160.789625     -189.653747      141.973069
  B          162.319374     -190.809593      141.403958
  B          163.849123     -191.965440      140.834847
  B          165.378872     -193.121286      140.265736
  B          166.908620     -194.277133      139.696625
  B          168.438369     -195.432980      139.127514
  B          169.968118     -196.588826      138.558403
  BL         171.497867     -197.744673      137.989292
  BL         173.027616     -198.900519      137.420181
  BL         174.557364     -200.056366      136.851070
  BL         176.087113     -201.212213      136.281959
  BL         177.616862     -202.368059      135.712848
  BL         179.146611     -203.523906      135.143737
  BL         180.676359     -204.679753      134.574626
  BL         182.206108     -205.835599      134.005515
  BL         183.735857     -206.991446      133.436404
  BL         185.265606     -208.147292      132.867293
  BL         186.795354     -209.303139      132.298182
  BL         188.325103     -210.458986      131.729071
  BL         189.854852     -211.614832      131.159960
  BL         191.384601     -212.770679      130.590850
  BL         192.914350     -213.926526      130.021739
  BL         194.444098     -215.082372      129.452628
  BL         195.973847     -216.238219      128.883517
  BL         197.503596     -217.394065      128.314406
  BL         199.033345     -218.549912      127.745295
  BL         200.563093     -219.705759      127.176184
  BL         202.092842     -220.861605      126.607073
  BL         203.622591     -222.017452      126.037962
  BL         205.152340     -223.173299      125.468851
  BL         206.682088     -224.329145      124.899740
  BL         208.211837     -225.484992      124.330629
  BL         209.741586     -226.640838      123.761518
  BL         211.271335     -227.796685      123.192407
  BL         212.801083     -228.952532      122.623296
  BL         214.330832     -230.108378      122.054185
  BL         215.860581     -231.264225      121.485074
  BL         217.390330     -232.420071      120.915963
  BL         218.920079     -233.575918      120.346852
  BL         220.449827     -234.731765      119.777741
  BL         221.979576     -235.887611      119.208630
  BL         223.509325     -237.043458      118.639519
  BL         225.039074     -238.199305      118.070408
  BL         226.568822     -239.355151      117.501297
  BL         228.098571     -240.510998      116.932186
  BL         229.628320     -241.666844      116.363075
  BL         231.158069     -242.822691      115.793964
  BL         232.687817     -243.978538      115.224853
  BL         234.217566     -245.134384      114.655742
  BL         235.747315     -246.290231      114.086631
  BL         237.277064     -247.446078      113.517520
  BL         238.806813     -248.601924      112.948409
  BL         240.336561     -249.757771      112.379298
  BL         241.866310     -250.913617      111.810187
  BL         243.396059     -252.069464      111.241076
  BL         244.925808     -253.225311      110.671965
  BL         246.455556     -254.381157      110.102855
  B          107.093728      246.403122       31.584146
  B          108.709568      245.591429       32.438673
  B          110.325407      244.779736       33.293200
  B          111.941247      243.968043       34.147727
  B          113.557086      243.156349       35.002254
  B          115.172926      242.344656       35.856782
  B          116.788765      241.532963       36.711309
  B          118.404605      240.721269       37.565836
  B          120.020444      239.909576       38.420363
  B          121.636284      239.097883       39.274890
  B          123.252123      238.286190       40.129417
  B          124.867963      237.474496       40.983944
  B          126.483802      236.662803       41.838472
  B          128.099642      235.851110       42.692999
  B          129.715482      235.039416       43.547526
  B          131.331321      234.227723       44.402053
  B          132.947161      233.416030       45.256580
  B          134.563000      232.604336       46.111107
  B          136.178840      231.792643       46.965634
  B          137.794679      230.980950       47.820161
  BL         139.410519      230.169257       48.674689
  BL         141.026358      229.357563       49.529216
  BL         142.642198      228.545870       50.383743
  BL         144.258037      227.734177       51.238270
  BL         145.873877      226.922483       52.092797
  BL         147.489716      226.110790       52.947324
  BL         149.105556      225.299097       53.801851
  BL         150.721395      224.487404       54.656379
  BL         152.337235      223.675710       55.510906
  BL         153.953074      222.864017       56.365433
  BL         155.568914      222.052324       57.219960
  BL         157.184753      221.240630       58.074487
  BL         158.800593      220.428937       58.929014
  BL         160.416433      219.617244       59.783541
  BL         162.032272      218.805551       60.638069
  BL         163.648112      217.993857       61.492596
  BL         165.263951      217.182164       62.347123
  BL         166.879791      216.370471       63.201650
  BL         168.495630      215.558777       64.056177
  BL         170.111470      214.747084       64.910704
  BL         171.727309      213.935391       65.765231
  BL         173.343149      213.123698       66.619758
  BL         174.958988      212.312004       67.474286
  BL         176.574828      211.500311       68.328813
  BL         178.190667      210.688618       69.183340
  BL         179.806507      209.876924       70.037867
  BL         181.422346      209.065231       70.892394
  BL         183.038186      208.253538       71.746921
  BL         184.654025      207.441845       72.601448
  BL         186.269865      206.630151       73.455976
  BL         187.885705      205.818458       74.310503
  BL         189.501544      205.006765       75.165030
  BL         191.117384      204.195071       76.019557
  BL         192.733223      203.383378       76.874084
  BL         194.349063      202.571685       77.728611
  BL         195.964902      201.759992       78.583138
  BL         197.580742      200.948298       79.437665
  BL         199.196581      200.136605       80.292193
  BL         200.812421      199.324912       81.146720
  BL         202.428260      198.513218       82.001247
  BL         204.044100      197.701525       82.855774
  BL         205.659939      196.889832       83.710301
  BL         207.275779      196.078138       84.564828
  BL         208.891618      195.266445       85.419355
  BL         210.507458      194.454752       86.273883
  BL         212.123297      193.643059       87.128410
  BL         213.739137      192.831365       87.982937
  BL         215.354977      192.019672       88.837464
  BL         216.970816      191.207979       89.691991
  BL         218.586656      190.396285       90.546518
  B          -80.603344     -292.052794      235.145149
  B          -81.754511     -291.815618      233.526952
  B          -82.905679     -291.578443      231.908755
  B          -84.056846     -291.341267      230.290558
  B          -85.208013     -291.104091      228.672361
  B          -86.359181     -290.866915      227.054164
  B          -87.510348     -290.629739      225.435967
  B          -88.661515     -290.392563      223.817770
  B          -89.812682     -290.155388      222.199573
  B          -90.963850     -289.918212      220.581376
  B          -92.115017     -289.681036      218.963179
  B          -93.266184     -289.443860      217.344982
  B          -94.417352     -289.206684      215.726785
  B          -95.568519     -288.969508      214.108588
  B          -96.719686     -288.732333      212.490391
  B          -97.870854     -288.495157      210.872194
  B          -99.022021     -288.257981      209.253997
  B         -100.173188     -288.020805      207.635800
  B         -101.324355     -287.783629      206.017603
  B         -102.475523     -287.546453      204.399406
  BL        -103.626690     -287.309278      202.781209
  BL        -104.777857     -287.072102      201.163012
  BL        -105.929025     -286.834926      199.544815
  BL        -107.080192     -286.597750      197.926618
  BL        -108.231359     -286.360574      196.308421
  BL        -109.382527     -286.123398      194.690224
  BL        -110.533694     -285.886223      193.072027
  BL        -111.684861     -285.649047      191.453830
  BL        -112.836028     -285.411871      189.835633
  BL        -113.987196     -285.174695      188.217436
  BL        -115.138363     -284.937519      186.599239
  BL        -116.289530     -284.700343      184.981042
  BL        -117.440698     -284.463168      183.362845
  BL        -118.591865     -284.225992      181.744648
  BL        -119.743032     -283.988816      180.126451
  BL        -120.894200     -283.751640      178.508254
  BL        -122.045367     -283.514464      176.890057
  BL        -123.196534     -283.277288      175.271860
  BL        -124.347701     -283.040113      173.653663
  BL        -125.498869     -282.802937      172.035466
  BL        -126.650036     -282.565761      170.417269
  BL        -127.801203     -282.328585      168.799072
  BL        -128.952371     -282.091409      167.180875
  BL        -130.103538     -281.854233      165.562678
  BL        -131.254705     -281.617058      163.944481
  BL        -132.405873     -281.379882      162.326284
  BL        -133.557040     -281.142706      160.708087
  BL        -134.708207     -280.905530      159.089891
  BL        -135.859374     -280.668354      157.471694
  BL        -137.010542     -280.431178      155.853497
  BL        -138.161709     -280.194003      154.235300
  BL        -139.312876     -279.956827      152.617103
  BL        -140.464044     -279.719651      150.998906
  BL        -141.615211     -279.482475      149.380709
  BL        -142.766378     -279.245299      147.762512
  BL        -143.917546     -279.008123      146.144315
  BL        -145.068713     -278.770948      144.526118
  BL        -146.219880     -278.533772      142.907921
  BL        -147.371047     -278.296596      141.289724
  BL        -148.522215     -278.059420      139.671527
  BL        -149.673382     -277.822244      138.053330
  BL        -150.824549     -277.585068      136.435133
  BL        -151.975717     -277.347893      134.816936
  BL        -153.126884     -277.110717      133.198739
  BL        -154.278051     -276.873541      131.580542
  BL        -155.429219     -276.636365      129.962345
  BL        -156.580386     -276.399189      128.344148
  BL        -157.731553     -276.162013      126.725951
  BL        -158.882720     -275.924837      125.107754
  BL        -160.033888     -275.687662      123.489557
  B           85.259843      299.624226      -79.662323
  B           83.618777      298.967231      -80.597877
  B           81.977712      298.310237      -81.533431
  B           80.336646      297.653242      -82.468985
  B           78.695581      296.996247      -83.404539
  B           77.054515      296.339252      -84.340093
  B           75.413449      295.682257      -85.275647
  B           73.772384      295.025262      -86.211201
  B           72.131318      294.368268      -87.146755
  B           70.490252      293.711273      -88.082309
  B           68.849187      293.054278      -89.017863
  B           67.208121      292.397283      -89.953417
  B           65.567056      291.740288      -90.888971
  B           63.925990      291.083293      -91.824525
  B           62.284924      290.426299      -92.760079
  B           60.643859      289.769304      -93.695633
  B           59.002793      289.112309      -94.631188
  B           57.361727      288.455314      -95.566742
  B           55.720662      287.798319      -96.502296
  B           54.079596      287.141324      -97.437850
  BL          52.438531      286.484330      -98.373404
  BL          50.797465      285.827335      -99.308958
  BL          49.156399      285.170340     -100.244512
  BL          47.515334      284.513345     -101.180066
  BL          45.874268      283.856350     -102.115620
  BL          44.233202      283.199355     -103.051174
  BL          42.592137      282.542361     -103.986728
  BL          40.951071      281.885366     -104.922282
  BL          39.310006      281.228371     -105.857836
  BL          37.668940      280.571376     -106.793390
  BL          36.027874      279.914381     -107.728944
  BL          34.386809      279.257386     -108.664498
  BL          32.745743      278.600391     -109.600052
  BL          31.104677      277.943397     -110.535607
  BL          29.463612      277.286402     -111.471161
  BL          27.822546      276.629407     -112.406715
  BL          26.181481      275.972412     -113.342269
  BL          24.540415      275.315417     -114.277823
  BL          22.899349      274.658422     -115.213377
  BL          21.258284      274.001428     -116.148931
  BL          19.617218      273.344433     -117.084485
  BL          17.976152      272.687438     -118.020039
  BL          16.335087      272.030443     -118.955593
  BL          14.694021      271.373448     -119.891147
  BL          13.052956      270.716453     -120.826701
  BL          11.411890      270.059459     -121.762255
  BL           9.770824      269.402464     -122.697809
  BL           8.129759      268.745469     -123.633363
  BL           6.488693      268.088474     -124.568917
  BL           4.847627      267.431479     -125.504472
  BL           3.206562      266.774484     -126.440026
  BL           1.565496      266.117490     -127.375580
  BL          -0.075569      265.460495     -128.311134
  BL          -1.716635      264.803500     -129.246688
  BL          -3.357701      264.146505     -130.182242
  BL          -4.998766      263.489510     -131.117796
  BL          -6.639832      262.832515     -132.053350
  BL          -8.280898      262.175521     -132.988904
  BL          -9.921963      261.518526     -133.924458
  BL         -11.563029      260.861531     -134.860012
  BL         -13.204094      260.204536     -135.795566
  BL         -14.845160      259.547541     -136.731120
  BL         -16.486226      258.890546     -137.666674
  BL         -18.127291      258.233552     -138.602228
  BL         -19.768357      257.576557     -139.537782
  BL         -21.409422      256.919562     -140.473337
  BL         -23.050488      256.262567     -141.408891
  BL         -24.691554      255.605572     -142.344445
  BL         -26.332619      254.948577     -143.279999
  BL         -27.973685      254.291583     -144.215553
  B         -119.920405      202.141051     -246.950806
  B         -121.819346      201.519238     -247.036667
  B         -123.718287      200.897425     -247.122527
  B         -125.617228      200.275612     -247.208388
  B         -127.516169      199.653799     -247.294249
  B         -129.415110      199.031986     -247.380109
  B         -131.314050      198.410173     -247.465970
  B         -133.212991      197.788360     -247.551830
  B         -135.111932      197.166546     -247.637691
  B         -137.010873      196.544733     -247.723551
  B         -138.909814      195.922920     -247.809412
  B         -140.808755      195.301107     -247.895273
  B         -142.707696      194.679294     -247.981133
  B         -144.606636      194.057481     -248.066994
  B         -146.505577      193.435668     -248.152854
  B         -148.404518      192.813855     -248.238715
  B         -150.303459      192.192042     -248.324575
  B         -152.202400      191.570228     -248.410436
  B         -154.101341      190.948415     -248.496297
  B         -156.000282      190.326602     -248.582157
  BL        -157.899223      189.704789     -248.668018
  BL        -159.798163      189.082976     -248.753878
  BL        -161.697104      188.461163     -248.839739
  BL        -163.596045      187.839350     -248.925599
  BL        -165.494986      187.217537     -249.011460
  BL        -167.393927      186.595724     -249.097321
  BL        -169.292868      185.973910     -249.183181
  BL        -171.191809      185.352097     -249.269042
  BL        -173.090749      184.730284     -249.354902
  BL        -174.989690      184.108471     -249.440763
  BL        -176.888631      183.486658     -249.526623
  BL        -178.787572      182.864845     -249.612484
  BL        -180.686513      182.243032     -249.698345
  BL        -182.585454      181.621219     -249.784205
  BL        -184.484395      180.999406     -249.870066
  BL        -186.383336      180.377592     -249.955926
  BL        -188.282276      179.755779     -250.041787
  BL        -190.181217      179.133966     -250.127648
  BL        -192.080158      178.512153     -250.213508
  BL        -193.979099      177.890340     -250.299369
  BL        -195.878040      177.268527     -250.385229
  BL        -197.776981      176.646714     -250.471090
  BL        -199.675922      176.024901     -250.556950
  BL        -201.574862      175.403088     -250.642811
  BL        -203.473803      174.781274     -250.728672
  BL        -205.372744      174.159461     -250.814532
  BL        -207.271685      173.537648     -250.900393
  BL        -209.170626      172.915835     -250.986253
  BL        -211.069567      172.294022     -251.072114
  BL        -212.968508      171.672209     -251.157974
  BL        -214.867449      171.050396     -251.243835
  BL        -216.766389      170.428583     -251.329696
  BL        -218.665330      169.806770     -251.415556
  BL        -220.564271      169.184956     -251.501417
  BL        -222.463212      168.563143     -251.587277
  BL        -224.362153      167.941330     -251.673138
  BL        -226.261094      167.319517     -251.758998
  BL        -228.160035      166.697704     -251.844859
  BL        -230.058975      166.075891     -251.930720
  BL        -231.957916      165.454078     -252.016580
  BL        -233.856857      164.832265     -252.102441
  BL        -235.755798      164.210452     -252.188301
  BL        -237.654739      163.588638     -252.274162
  BL        -239.553680      162.966825     -252.360022
  BL        -241.452621      162.345012     -252.445883
  BL        -243.351562      161.723199     -252.531744
  BL        -245.250502      161.101386     -252.617604
  BL        -247.149443      160.479573     -252.703465
  BL        -249.048384      159.857760     -252.789325
  BL        -250.947325      159.235947     -252.875186
  B           57.778149     -130.603652       45.089093
  B           57.106152     -128.722233       44.995918
  B           56.434155     -126.840813       44.902743
  B           55.762158     -124.959394       44.809568
  B           55.090161     -123.077975       44.716393
  B           54.418164     -121.196556       44.623218
  B           53.746167     -119.315136       44.530043
  B           53.074170     -117.433717       44.436868
  B           52.402173     -115.552298       44.343693
  B           51.730176     -113.670879       44.250518
  B           51.058179     -111.789459       44.157343
  B           50.386182     -109.908040       44.064168
  B           49.714185     -108.026621       43.970993
  B           49.042188     -106.145202       43.877819
  B           48.370191     -104.263782       43.784644
  B           47.698194     -102.382363       43.691469
  B           47.026197     -100.500944       43.598294
  B           46.354200      -98.619525       43.505119
  B           45.682203      -96.738105       43.411944
  B           45.010206      -94.856686       43.318769
  BL          44.338209      -92.975267       43.225594
  BL          43.666212      -91.093847       43.132419
  BL          42.994215      -89.212428       43.039244
  BL          42.322218      -87.331009       42.946069
  BL          41.650221      -85.449590       42.852894
  BL          40.978224      -83.568170       42.759719
  BL          40.306227      -81.686751       42.666544
  BL          39.634230      -79.805332       42.573369
  BL          38.962233      -77.923913       42.480194
  BL          38.290236      -76.042493       42.387020
  BL          37.618238      -74.161074       42.293845
  BL          36.946241      -72.279655       42.200670
  BL          36.274244      -70.398236       42.107495
  BL          35.602247      -68.516816       42.014320
  BL          34.930250      -66.635397       41.921145
  BL          34.258253      -64.753978       41.827970
  BL          33.586256      -62.872559       41.734795
  BL          32.914259      -60.991139       41.641620
  BL          32.242262      -59.109720       41.548445
  BL          31.570265      -57.228301       41.455270
  BL          30.898268      -55.346881       41.362095
  BL          30.226271      -53.465462       41.268920
  BL          29.554274      -51.584043       41.175745
  BL          28.882277      -49.702624       41.082570
  BL          28.210280      -47.821204       40.989395
  BL          27.538283      -45.939785       40.896221
  BL          26.866286      -44.058366       40.803046
  BL          26.194289      -42.176947       40.709871
  BL          25.522292      -40.295527       40.616696
  BL          24.850295      -38.414108       40.523521
  BL          24.178298      -36.532689       40.430346
  BL          23.506301      -34.651270       40.337171
  BL          22.834304      -32.769850       40.243996
  BL          22.162307      -30.888431       40.150821
  BL          21.490310      -29.007012       40.057646
  BL          20.818313      -27.125593       39.964471
  BL          20.146316      -25.244173       39.871296
  BL          19.474319      -23.362754       39.778121
  BL          18.802322      -21.481335       39.684946
  BL          18.130325      -19.599915       39.591771
  BL          17.458328      -17.718496       39.498597
  BL          16.786331      -15.837077       39.405422
  BL          16.114334      -13.955658       39.312247
  BL          15.442337      -12.074238       39.219072
  BL          14.770340      -10.192819       39.125897
  BL          14.098343       -8.311400       39.032722
  BL          13.426346       -6.429981       38.939547
  BL          12.754349       -4.548561       38.846372
  BL          12.082352       -2.667142       38.753197
  BL          11.410355       -0.785723       38.660022
  B           54.705772      135.978749       69.500712
  B           55.456469      134.742508       68.119350
  B           56.207166      133.506268       66.737987
  B           56.957864      132.270027       65.356625
  B           57.708561      131.033786       63.975262
  B           58.459258      129.797545       62.593900
  B           59.209955      128.561304       61.212537
  B           59.960653      127.325063       59.831175
  B           60.711350      126.088823       58.449813
  B           61.462047      124.852582       57.068450
  B           62.212745      123.616341       55.687088
  B           62.963442      122.380100       54.305725
  B           63.714139      121.143859       52.924363
  B           64.464836      119.907619       51.543000
  B           65.215534      118.671378       50.161638
  B           65.966231      117.435137       48.780275
  B           66.716928      116.198896       47.398913
  B           67.467625      114.962655       46.017550
  B           68.218323      113.726414       44.636188
  B           68.969020      112.490174       43.254826
  BL          69.719717      111.253933       41.873463
  BL          70.470415      110.017692       40.492101
  BL          71.221112      108.781451       39.110738
  BL          71.971809      107.545210       37.729376
  BL          72.722506      106.308969       36.348013
  BL          73.473204      105.072729       34.966651
  BL          74.223901      103.836488       33.585288
  BL          74.974598      102.600247       32.203926
  BL          75.725295      101.364006       30.822564
  BL          76.475993      100.127765       29.441201
  BL          77.226690       98.891524       28.059839
  BL          77.977387       97.655284       26.678476
  BL          78.728085       96.419043       25.297114
  BL          79.478782       95.182802       23.915751
  BL          80.229479       93.946561       22.534389
  BL          80.980176       92.710320       21.153026
  BL          81.730874       91.474079       19.771664
  BL          82.481571       90.237839       18.390302
  BL          83.232268       89.001598       17.008939
  BL          83.982965       87.765357       15.627577
  BL          84.733663       86.529116       14.246214
  BL          85.484360       85.292875       12.864852
  BL          86.235057       84.056634       11.483489
  BL          86.985755       82.820394       10.102127
  BL          87.736452       81.584153        8.720764
  BL          88.487149       80.347912        7.339402
  BL          89.237846       79.111671        5.958039
  BL          89.988544       77.875430        4.576677
  BL          90.739241       76.639189        3.195315
  BL          91.489938       75.402949        1.813952
  BL          92.240635       74.166708        0.432590
  BL          92.991333       72.930467       -0.948773
  BL          93.742030       71.694226       -2.330135
  BL          94.492727       70.457985       -3.711498
  BL          95.243425       69.221744       -5.092860
  BL          95.994122       67.985504       -6.474223
  BL          96.744819       66.749263       -7.855585
  BL          97.495516       65.513022       -9.236947
  BL          98.246214       64.276781      -10.618310
  BL          98.996911       63.040540      -11.999672
  BL          99.747608       61.804299      -13.381035
  BL         100.498305       60.568059      -14.762397
  BL         101.249003       59.331818      -16.143760
  BL         101.999700       58.095577      -17.525122
  BL         102.750397       56.859336      -18.906485
  BL         103.501095       55.623095      -20.287847
  BL         104.251792       54.386854      -21.669209
  BL         105.002489       53.150614      -23.050572
  BL         105.753186       51.914373      -24.431934
  BL         106.503884       50.678132      -25.813297
  B          248.978643      213.791392       92.037035
  B          248.173304      211.992131       91.699267
  B          247.367965      210.192870       91.361499
  B          246.562625      208.393608       91.023730
  B          245.757286      206.594347       90.685962
  B          244.951947      204.795086       90.348194
  B          244.146608      202.995824       90.010426
  B          243.341268      201.196563       89.672658
  B          242.535929      199.397302       89.334890
  B          241.730590      197.598040       88.997121
  B          240.925251      195.798779       88.659353
  B          240.119911      193.999518       88.321585
  B          239.314572      192.200256       87.983817
  B          238.509233      190.400995       87.646049
  B          237.703894      188.601734       87.308280
  B          236.898554      186.802472       86.970512
  B          236.093215      185.003211       86.632744
  B          235.287876      183.203950       86.294976
  B          234.482537      181.404688       85.957208
  B          233.677197      179.605427       85.619439
  BL         232.871858      177.806166       85.281671
  BL         232.066519      176.006904       84.943903
  BL         231.261180      174.207643       84.606135
  BL         230.455840      172.408382       84.268367
  BL         229.650501      170.609120       83.930598
  BL         228.845162      168.809859       83.592830
  BL         228.039823      167.010598       83.255062
  BL         227.234483      165.211336       82.917294
  BL         226.429144      163.412075       82.579526
  BL         225.623805      161.612814       82.241757
  BL         224.818466      159.813552       81.903989
  BL         224.013126      158.014291       81.566221
  BL         223.207787      156.215030       81.228453
  BL         222.402448      154.415768       80.890685
  BL         221.597109      152.616507       80.552916
  BL         220.791769      150.817246       80.215148
  BL         219.986430      149.017984       79.877380
  BL         219.181091      147.218723       79.539612
  BL         218.375752      145.419462       79.201844
  BL         217.570412      143.620200       78.864076
  BL         216.765073      141.820939       78.526307
  BL         215.959734      140.021678       78.188539
  BL         215.154395      138.222416       77.850771
  BL         214.349055      136.423155       77.513003
  BL         213.543716      134.623894       77.175235
  BL         212.738377      132.824632       76.837466
  BL         211.933038      131.025371       76.499698
  BL         211.127698      129.226110       76.161930
  BL         210.322359      127.426848       75.824162
  BL         209.517020      125.627587       75.486394
  BL         208.711681      123.828326       75.148625
  BL         207.906341      122.029064       74.810857
  BL         207.101002      120.229803       74.473089
  BL         206.295663      118.430542       74.135321
  BL         205.490324      116.631280       73.797553
  BL         204.684984      114.832019       73.459784
  BL         203.879645      113.032758       73.122016
  BL         203.074306      111.233496       72.784248
  BL         202.268967      109.434235       72.446480
  BL         201.463627      107.634974       72.108712
  BL         200.658288      105.835712       71.770943
  BL         199.852949      104.036451       71.433175
  BL         199.047610      102.237190       71.095407
  BL         198.242270      100.437928       70.757639
  BL         197.436931       98.638667       70.419871
  BL         196.631592       96.839406       70.082103
  BL         195.826253       95.040144       69.744334
  BL         195.020913       93.240883       69.406566
  BL         194.215574       91.441622       69.068798
  BL         193.410235       89.642360       68.731030
  B          -14.213419     -155.768893     -148.344587
  B          -14.439709     -153.787406     -148.194584
  B          -14.665999     -151.805919     -148.044581
  B          -14.892289     -149.824431     -147.894578
  B          -15.118579     -147.842944     -147.744574
  B          -15.344870     -145.861457     -147.594571
  B          -15.571160     -143.879969     -147.444568
  B          -15.797450     -141.898482     -147.294565
  B          -16.023740     -139.916995     -147.144561
  B          -16.250030     -137.935508     -146.994558
  B          -16.476320     -135.954020     -146.844555
  B          -16.702610     -133.972533     -146.694552
  B          -16.928901     -131.991046     -146.544548
  B          -17.155191     -130.009559     -146.394545
  B          -17.381481     -128.028071     -146.244542
  B          -17.607771     -126.046584     -146.094539
  B          -17.834061     -124.065097     -145.944535
  B          -18.060351     -122.083610     -145.794532
  B          -18.286641     -120.102122     -145.644529
  B          -18.512932     -118.120635     -145.494526
  BL         -18.739222     -116.139148     -145.344522
  BL         -18.965512     -114.157660     -145.194519
  BL         -19.191802     -112.176173     -145.044516
  BL         -19.418092     -110.194686     -144.894512
  BL         -19.644382     -108.213199     -144.744509
  BL         -19.870672     -106.231711     -144.594506
  BL         -20.096963     -104.250224     -144.444503
  BL         -20.323253     -102.268737     -144.294499
  BL         -20.549543     -100.287250     -144.144496
  BL         -20.775833      -98.305762     -143.994493
  BL         -21.002123      -96.324275     -143.844490
  BL         -21.228413      -94.342788     -143.694486
  BL         -21.454704      -92.361300     -143.544483
  BL         -21.680994      -90.379813     -143.394480
  BL         -21.907284      -88.398326     -143.244477
  BL         -22.133574      -86.416839     -143.094473
  BL         -22.359864      -84.435351     -142.944470
  BL         -22.586154      -82.453864     -142.794467
  BL         -22.812444      -80.472377     -142.644464
  BL         -23.038735      -78.490890     -142.494460
  BL         -23.265025      -76.509402     -142.344457
  BL         -23.491315      -74.527915     -142.194454
  BL         -23.717605      -72.546428     -142.044451
  BL         -23.943895      -70.564941     -141.894447
  BL         -24.170185      -68.583453     -141.744444
  BL         -24.396475      -66.601966     -141.594441
  BL         -24.622766      -64.620479     -141.444437
  BL         -24.849056      -62.638991     -141.294434
  BL         -25.075346      -60.657504     -141.144431
  BL         -25.301636      -58.676017     -140.994428
  BL         -25.527926      -56.694530     -140.844424
  BL         -25.754216      -54.713042     -140.694421
  BL         -25.980507      -52.731555     -140.544418
  BL         -26.206797      -50.750068     -140.394415
  BL         -26.433087      -48.768581     -140.244411
  BL         -26.659377      -46.787093     -140.094408
  BL         -26.885667      -44.805606     -139.944405
  BL         -27.111957      -42.824119     -139.794402
  BL         -27.338247      -40.842632     -139.644398
  BL         -27.564538      -38.861144     -139.494395
  BL         -27.790828      -36.879657     -139.344392
  BL         -28.017118      -34.898170     -139.194389
  BL         -28.243408      -32.916682     -139.044385
  BL         -28.469698      -30.935195     -138.894382
  BL         -28.695988      -28.953708     -138.744379
  BL         -28.922278      -26.972221     -138.594376
  BL         -29.148569      -24.990733     -138.444372
  BL         -29.374859      -23.009246     -138.294369
  BL         -29.601149      -21.027759     -138.144366
  BL         -29.827439      -19.046272     -137.994363
  B          -94.642179      139.886990       -8.484629
  B          -95.479274      140.798871       -6.913723
  B          -96.316369      141.710753       -5.342817
  B          -97.153463      142.622634       -3.771912
  B          -97.990558      143.534516       -2.201006
  B          -98.827653      144.446397       -0.630101
  B          -99.664748      145.358279        0.940805
  B         -100.501843      146.270160        2.511711
  B         -101.338937      147.182042        4.082616
  B         -102.176032      148.093924        5.653522
  B         -103.013127      149.005805        7.224427
  B         -103.850222      149.917687        8.795333
  B         -104.687317      150.829568       10.366239
  B         -105.524411      151.741450       11.937144
  B         -106.361506      152.653331       13.508050
  B         -107.198601      153.565213       15.078955
  B         -108.035696      154.477094       16.649861
  B         -108.872791      155.388976       18.220767
  B         -109.709885      156.300857       19.791672
  B         -110.546980      157.212739       21.362578
  BL        -111.384075      158.124620       22.933483
  BL        -112.221170      159.036502       24.504389
  BL        -113.058265      159.948383       26.075295
  BL        -113.895359      160.860265       27.646200
  BL        -114.732454      161.772146       29.217106
  BL        -115.569549      162.684028       30.788011
  BL        -116.406644      163.595910       32.358917
  BL        -117.243739      164.507791       33.929823
  BL        -118.080833      165.419673       35.500728
  BL        -118.917928      166.331554       37.071634
  BL        -119.755023      167.243436       38.642539
  BL        -120.592118      168.155317       40.213445
  BL        -121.429212      169.067199       41.784350
  BL        -122.266307      169.979080       43.355256
  BL        -123.103402      170.890962       44.926162
  BL        -123.940497      171.802843       46.497067
  BL        -124.777592      172.714725       48.067973
  BL        -125.614686      173.626606       49.638878
  BL        -126.451781      174.538488       51.209784
  BL        -127.288876      175.450369       52.780690
  BL        -128.125971      176.362251       54.351595
  BL        -128.963066      177.274132       55.922501
  BL        -129.800160      178.186014       57.493406
  BL        -130.637255      179.097896       59.064312
  BL        -131.474350      180.009777       60.635218
  BL        -132.311445      180.921659       62.206123
  BL        -133.148540      181.833540       63.777029
  BL        -133.985634      182.745422       65.347934
  BL        -134.822729      183.657303       66.918840
  BL        -135.659824      184.569185       68.489746
  BL        -136.496919      185.481066       70.060651
  BL        -137.334014      186.392948       71.631557
  BL        -138.171108      187.304829       73.202462
  BL        -139.008203      188.216711       74.773368
  BL        -139.845298      189.128592       76.344274
  BL        -140.682393      190.040474       77.915179
  BL        -141.519488      190.952355       79.486085
  BL        -142.356582      191.864237       81.056990
  BL        -143.193677      192.776118       82.627896
  BL        -144.030772      193.688000       84.198801
  BL        -144.867867      194.599882       85.769707
  BL        -145.704962      195.511763       87.340613
  BL        -146.542056      196.423645       88.911518
  BL        -147.379151      197.335526       90.482424
  BL        -148.216246      198.247408       92.053329
  BL        -149.053341      199.159289       93.624235
  BL        -149.890435      200.071171       95.195141
  BL        -150.727530      200.983052       96.766046
  BL        -151.564625      201.894934       98.336952
  BL        -152.401720      202.806815       99.907857
  B         -109.466903     -208.049527     -139.386412
  B         -110.207236     -206.196493     -139.521211
  B         -110.947569     -204.343458     -139.656009
  B         -111.687901     -202.490424     -139.790807
  B         -112.428234     -200.637389     -139.925605
  B         -113.168567     -198.784355     -140.060403
  B         -113.908900     -196.931320     -140.195201
  B         -114.649233     -195.078286     -140.330000
  B         -115.389566     -193.225251     -140.464798
  B         -116.129898     -191.372217     -140.599596
  B         -116.870231     -189.519182     -140.734394
  B         -117.610564     -187.666148     -140.869192
  B         -118.350897     -185.813114     -141.003991
  B         -119.091230     -183.960079     -141.138789
  B         -119.831563     -182.107045     -141.273587
  B         -120.571895     -180.254010     -141.408385
  B         -121.312228     -178.400976     -141.543183
  B         -122.052561     -176.547941     -141.677981
  B         -122.792894     -174.694907     -141.812780
  B         -123.533227     -172.841872     -141.947578
  BL        -124.273560     -170.988838     -142.082376
  BL        -125.013892     -169.135803     -142.217174
  BL        -125.754225     -167.282769     -142.351972
  BL        -126.494558     -165.429734     -142.486770
  BL        -127.234891     -163.576700     -142.621569
  BL        -127.975224     -161.723665     -142.756367
  BL        -128.715557     -159.870631     -142.891165
  BL        -129.455889     -158.017596     -143.025963
  BL        -130.196222     -156.164562     -143.160761
  BL        -130.936555     -154.311527     -143.295560
  BL        -131.676888     -152.458493     -143.430358
  BL        -132.417221     -150.605459     -143.565156
  BL        -133.157554     -148.752424     -143.699954
  BL        -133.897886     -146.899390     -143.834752
  BL        -134.638219     -145.046355     -143.969550
  BL        -135.378552     -143.193321     -144.104349
  BL        -136.118885     -141.340286     -144.239147
  BL        -136.859218     -139.487252     -144.373945
  BL        -137.599551     -137.634217     -144.508743
  BL        -138.339883     -135.781183     -144.643541
  BL        -139.080216     -133.928148     -144.778340
  BL        -139.820549     -132.075114     -144.913138
  BL        -140.560882     -130.222079     -145.047936
  BL        -141.301215     -128.369045     -145.182734
  BL        -142.041547     -126.516010     -145.317532
  BL        -142.781880     -124.662976     -145.452330
  BL        -143.522213     -122.809941     -145.587129
  BL        -144.262546     -120.956907     -145.721927
  BL        -145.002879     -119.103873     -145.856725
  BL        -145.743212     -117.250838     -145.991523
  BL        -146.483544     -115.397804     -146.126321
  BL        -147.223877     -113.544769     -146.261120
  BL        -147.964210     -111.691735     -146.395918
  BL        -148.704543     -109.838700     -146.530716
  BL        -149.444876     -107.985666     -146.665514
  BL        -150.185209     -106.132631     -146.800312
  BL        -150.925541     -104.279597     -146.935110
  BL        -151.665874     -102.426562     -147.069909
  BL        -152.406207     -100.573528     -147.204707
  BL        -153.146540      -98.720493     -147.339505
  BL        -153.886873      -96.867459     -147.474303
  BL        -154.627206      -95.014424     -147.609101
  BL        -155.367538      -93.161390     -147.743899
  BL        -156.107871      -91.308355     -147.878698
  BL        -156.848204      -89.455321     -148.013496
  BL        -157.588537      -87.602287     -148.148294
  BL        -158.328870      -85.749252     -148.283092
  BL        -159.069203      -83.896218     -148.417890
  BL        -159.809535      -82.043183     -148.552689
  BL        -160.549868      -80.190149     -148.687487
  B          154.161891      -42.706829      227.505431
  B          155.109079      -41.729988      226.039615
  B          156.056267      -40.753147      224.573800
  B          157.003456      -39.776306      223.107984
  B          157.950644      -38.799465      221.642168
  B          158.897832      -37.822624      220.176352
  B          159.845021      -36.845783      218.710537
  B          160.792209      -35.868942      217.244721
  B          161.739397      -34.892101      215.778905
  B          162.686586      -33.915259      214.313089
  B          163.633774      -32.938418      212.847274
  B          164.580962      -31.961577      211.381458
  B          165.528151      -30.984736      209.915642
  B          166.475339      -30.007895      208.449826
  B          167.422527      -29.031054      206.984011
  B          168.369716      -28.054213      205.518195
  B          169.316904      -27.077372      204.052379
  B          170.264092      -26.100531      202.586563
  B          171.211281      -25.123690      201.120748
  B          172.158469      -24.146849      199.654932
  BL         173.105657      -23.170008      198.189116
  BL         174.052846      -22.193167      196.723300
  BL         175.000034      -21.216326      195.257485
  BL         175.947222      -20.239485      193.791669
  BL         176.894411      -19.262644      192.325853
  BL         177.841599      -18.285803      190.860037
  BL         178.788787      -17.308962      189.394221
  BL         179.735976      -16.332121      187.928406
  BL         180.683164      -15.355280      186.462590
  BL         181.630352      -14.378439      184.996774
  BL         182.577540      -13.401597      183.530958
  BL         183.524729      -12.424756      182.065143
  BL         184.471917      -11.447915      180.599327
  BL         185.419105      -10.471074      179.133511
  BL         186.366294       -9.494233      177.667695
  BL         187.313482       -8.517392      176.201880
  BL         188.260670       -7.540551      174.736064
  BL         189.207859       -6.563710      173.270248
  BL         190.155047       -5.586869      171.804432
  BL         191.102235       -4.610028      170.338617
  BL         192.049424       -3.633187      168.872801
  BL         192.996612       -2.656346      167.406985
  BL         193.943800       -1.679505      165.941169
  BL         194.890989       -0.702664      164.475354
  BL         195.838177        0.274177      163.009538
  BL         196.785365        1.251018      161.543722
  BL         197.732554        2.227859      160.077906
  BL         198.679742        3.204700      158.612091
  BL         199.626930        4.181541      157.146275
  BL         200.574119        5.158382      155.680459
  BL         201.521307        6.135223      154.214643
  BL         202.468495        7.112065      152.748828
  BL         203.415684        8.088906      151.283012
  BL         204.362872        9.065747      149.817196
  BL         205.310060       10.042588      148.351380
  BL         206.257249       11.019429      146.885564
  BL         207.204437       11.996270      145.419749
  BL         208.151625       12.973111      143.953933
  BL         209.098814       13.949952      142.488117
  BL         210.046002       14.926793      141.022301
  BL         210.993190       15.903634      139.556486
  BL         211.940379       16.880475      138.090670
  BL         212.887567       17.857316      136.624854
  BL         213.834755       18.834157      135.159038
  BL         214.781944       19.810998      133.693223
  BL         215.729132       20.787839      132.227407
  BL         216.676320       21.764680      130.761591
  BL         217.623509       22.741521      129.295775
  BL         218.570697       23.718362      127.829960
  BL         219.517885       24.695203      126.364144
  B          260.503198      110.629376     -285.519262
  B          260.722824      112.184058     -284.280421
  B          260.942451      113.738740     -283.041580
  B          261.162077      115.293423     -281.802739
  B          261.381704      116.848105     -280.563898
  B          261.601331      118.402787     -279.325056
  B          261.820957      119.957469     -278.086215
  B          262.040584      121.512152     -276.847374
  B          262.260211      123.066834     -275.608533
  B          262.479837      124.621516     -274.369692
  B          262.699464      126.176199     -273.130851
  B          262.919091      127.730881     -271.892010
  B          263.138717      129.285563     -270.653169
  B          263.358344      130.840245     -269.414328
  B          263.577971      132.394928     -268.175487
  B          263.797597      133.949610     -266.936646
  B          264.017224      135.504292     -265.697805
  B          264.236850      137.058974     -264.458964
  B          264.456477      138.613657     -263.220123
  B          264.676104      140.168339     -261.981281
  BL         264.895730      141.723021     -260.742440
  BL         265.115357      143.277703     -259.503599
  BL         265.334984      144.832386     -258.264758
  BL         265.554610      146.387068     -257.025917
  BL         265.774237      147.941750     -255.787076
  BL         265.993864      149.496432     -254.548235
  BL         266.213490      151.051115     -253.309394
  BL         266.433117      152.605797     -252.070553
  BL         266.652744      154.160479     -250.831712
  BL         266.872370      155.715162     -249.592871
  BL         267.091997      157.269844     -248.354030
  BL         267.311623      158.824526     -247.115189
  BL         267.531250      160.379208     -245.876348
  BL         267.750877      161.933891     -244.637506
  BL         267.970503      163.488573     -243.398665
  BL         268.190130      165.043255     -242.159824
  BL         268.409757      166.597937     -240.920983
  BL         268.629383      168.152620     -239.682142
  BL         268.849010      169.707302     -238.443301
  BL         269.068637      171.261984     -237.204460
  BL         269.288263      172.816666     -235.965619
  BL         269.507890      174.371349     -234.726778
  BL         269.727517      175.926031     -233.487937
  BL         269.947143      177.480713     -232.249096
  BL         270.166770      179.035395     -231.010255
  BL         270.386396      180.590078     -229.771414
  BL         270.606023      182.144760     -228.532573
  BL         270.825650      183.699442     -227.293731
  BL         271.045276      185.254125     -226.054890
  BL         271.264903      186.808807     -224.816049
  BL         271.484530      188.363489     -223.577208
  BL         271.704156      189.918171     -222.338367
  BL         271.923783      191.472854     -221.099526
  BL         272.143410      193.027536     -219.860685
  BL         272.363036      194.582218     -218.621844
  BL         272.582663      196.136900     -217.383003
  BL         272.802290      197.691583     -216.144162
  BL         273.021916      199.246265     -214.905321
  BL         273.241543      200.800947     -213.666480
  BL         273.461169      202.355629     -212.427639
  BL         273.680796      203.910312     -211.188798
  BL         273.900423      205.464994     -209.949956
  BL         274.120049      207.019676     -208.711115
  BL         274.339676      208.574358     -207.472274
  BL         274.559303      210.129041     -206.233433
  BL         274.778929      211.683723     -204.994592
  BL         274.998556      213.238405     -203.755751
  BL         275.218183      214.793088     -202.516910
  BL         275.437809      216.347770     -201.278069
  BL         275.657436      217.902452     -200.039228
  B          -34.435697      181.723792     -262.176305
  B          -35.309960      183.437639     -262.722558
  B          -36.184224      185.151486     -263.268810
  B          -37.058488      186.865333     -263.815062
  B          -37.932751      188.579180     -264.361315
  B          -38.807015      190.293027     -264.907567
  B          -39.681278      192.006874     -265.453820
  B          -40.555542      193.720721     -266.000072
  B          -41.429806      195.434568     -266.546324
  B          -42.304069      197.148415     -267.092577
  B          -43.178333      198.862262     -267.638829
  B          -44.052597      200.576109     -268.185081
  B          -44.926860      202.289956     -268.731334
  B          -45.801124      204.003803     -269.277586
  B          -46.675388      205.717650     -269.823839
  B          -47.549651      207.431496     -270.370091
  B          -48.423915      209.145343     -270.916343
  B          -49.298178      210.859190     -271.462596
  B          -50.172442      212.573037     -272.008848
  B          -51.046706      214.286884     -272.555100
  BL         -51.920969      216.000731     -273.101353
  BL         -52.795233      217.714578     -273.647605
  BL         -53.669497      219.428425     -274.193857
  BL         -54.543760      221.142272     -274.740110
  BL         -55.418024      222.856119     -275.286362
  BL         -56.292288      224.569966     -275.832615
  BL         -57.166551      226.283813     -276.378867
  BL         -58.040815      227.997660     -276.925119
  BL         -58.915078      229.711507     -277.471372
  BL         -59.789342      231.425354     -278.017624
  BL         -60.663606      233.139201     -278.563876
  BL         -61.537869      234.853048     -279.110129
  BL         -62.412133      236.566895     -279.656381
  BL         -63.286397      238.280742     -280.202634
  BL         -64.160660      239.994589     -280.748886
  BL         -65.034924      241.708436     -281.295138
  BL         -65.909188      243.422283     -281.841391
  BL         -66.783451      245.136130     -282.387643
  BL         -67.657715      246.849977     -282.933895
  BL         -68.531979      248.563824     -283.480148
  BL         -69.406242      250.277671     -284.026400
  BL         -70.280506      251.991518     -284.572653
  BL         -71.154769      253.705365     -285.118905
  BL         -72.029033      255.419212     -285.665157
  BL         -72.903297      257.133059     -286.211410
  BL         -73.777560      258.846906     -286.757662
  BL         -74.651824      260.560753     -287.303914
  BL         -75.526088      262.274600     -287.850167
  BL         -76.400351      263.988447     -288.396419
  BL         -77.274615      265.702293     -288.942672
  BL         -78.148879      267.416140     -289.488924
  BL         -79.023142      269.129987     -290.035176
  BL         -79.897406      270.843834     -290.581429
  BL         -80.771669      272.557681     -291.127681
  BL         -81.645933      274.271528     -291.673933
  BL         -82.520197      275.985375     -292.220186
  BL         -83.394460      277.699222     -292.766438
  BL         -84.268724      279.413069     -293.312690
  BL         -85.142988      281.126916     -293.858943
  BL         -86.017251      282.840763     -294.405195
  BL         -86.891515      284.554610     -294.951448
  BL         -87.765779      286.268457     -295.497700
  BL         -88.640042      287.982304     -296.043952
  BL         -89.514306      289.696151     -296.590205
  BL         -90.388569      291.409998     -297.136457
  BL         -91.262833      293.123845     -297.682709
  BL         -92.137097      294.837692     -298.228962
  BL         -93.011360      296.551539     -298.775214
  BL         -93.885624      298.265386     -299.321467
  BL         -94.759888      299.979233     -299.867719
  B           54.583828     -267.415049      110.820654
  B           53.665928     -266.118469      112.035701
  B           52.748027     -264.821889      113.250748
  B           51.830127     -263.525309      114.465795
  B           50.912226     -262.228729      115.680842
  B           49.994326     -260.932149      116.895889
  B           49.076426     -259.635569      118.110936
  B           48.158525     -258.338989      119.325983
  B           47.240625     -257.042409      120.541030
  B           46.322724     -255.745830      121.756077
  B           45.404824     -254.449250      122.971124
  B           44.486923     -253.152670      124.186171
  B           43.569023     -251.856090      125.401219
  B           42.651123     -250.559510      126.616266
  B           41.733222     -249.262930      127.831313
  B           40.815322     -247.966350      129.046360
  B           39.897421     -246.669770      130.261407
  B           38.979521     -245.373190      131.476454
  B           38.061621     -244.076610      132.691501
  B           37.143720     -242.780030      133.906548
  BL          36.225820     -241.483450      135.121595
  BL          35.307919     -240.186870      136.336642
  BL          34.390019     -238.890291      137.551689
  BL          33.472118     -237.593711      138.766736
  BL          32.554218     -236.297131      139.981783
  BL          31.636318     -235.000551      141.196830
  BL          30.718417     -233.703971      142.411877
  BL          29.800517     -232.407391      143.626924
  BL          28.882616     -231.110811      144.841971
  BL          27.964716     -229.814231      146.057018
  BL          27.046816     -228.517651      147.272065
  BL          26.128915     -227.221071      148.487112
  BL          25.211015     -225.924491      149.702159
  BL          24.293114     -224.627911      150.917206
  BL          23.375214     -223.331331      152.132254
  BL          22.457314     -222.034751      153.347301
  BL          21.539413     -220.738172      154.562348
  BL          20.621513     -219.441592      155.777395
  BL          19.703612     -218.145012      156.992442
  BL          18.785712     -216.848432      158.207489
  BL          17.867811     -215.551852      159.422536
  BL          16.949911     -214.255272      160.637583
  BL          16.032011     -212.958692      161.852630
  BL          15.114110     -211.662112      163.067677
  BL          14.196210     -210.365532      164.282724
  BL          13.278309     -209.068952      165.497771
  BL          12.360409     -207.772372      166.712818
  BL          11.442509     -206.475792      167.927865
  BL          10.524608     -205.179212      169.142912
  BL           9.606708     -203.882632      170.357959
  BL           8.688807     -202.586053      171.573006
  BL           7.770907     -201.289473      172.788053
  BL           6.853006     -199.992893      174.003100
  BL           5.935106     -198.696313      175.218147
  BL           5.017206     -197.399733      176.433194
  BL           4.099305     -196.103153      177.648241
  BL           3.181405     -194.806573      178.863288
  BL           2.263504     -193.509993      180.078336
  BL           1.345604     -192.213413      181.293383
  BL           0.427704     -190.916833      182.508430
  BL          -0.490197     -189.620253      183.723477
  BL          -1.408097     -188.323673      184.938524
  BL          -2.325998     -187.027093      186.153571
  BL          -3.243898     -185.730513      187.368618
  BL          -4.161799     -184.433934      188.583665
  BL          -5.079699     -183.137354      189.798712
  BL          -5.997599     -181.840774      191.013759
  BL          -6.915500     -180.544194      192.228806
  BL          -7.833400     -179.247614      193.443853
  BL          -8.751301     -177.951034      194.658900
  B          -19.452239      -55.194914     -256.034831
  B          -19.079282      -53.300789     -255.512152
  B          -18.706325      -51.406664     -254.989473
  B          -18.333368      -49.512539     -254.466794
  B          -17.960410      -47.618414     -253.944115
  B          -17.587453      -45.724289     -253.421436
  B          -17.214496      -43.830164     -252.898757
  B          -16.841539      -41.936039     -252.376078
  B          -16.468582      -40.041914     -251.853398
  B          -16.095625      -38.147789     -251.330719
  B          -15.722668      -36.253664     -250.808040
  B          -15.349711      -34.359539     -250.285361
  B          -14.976754      -32.465414     -249.762682
  B          -14.603796      -30.571289     -249.240003
  B          -14.230839      -28.677164     -248.717324
  B          -13.857882      -26.783039     -248.194645
  B          -13.484925      -24.888914     -247.671965
  B          -13.111968      -22.994789     -247.149286
  B          -12.739011      -21.100664     -246.626607
  B          -12.366054      -19.206539     -246.103928
  BL         -11.993097      -17.312414     -245.581249
  BL         -11.620139      -15.418289     -245.058570
  BL         -11.247182      -13.524164     -244.535891
  BL         -10.874225      -11.630039     -244.013212
  BL         -10.501268       -9.735914     -243.490532
  BL         -10.128311       -7.841789     -242.967853
  BL          -9.755354       -5.947664     -242.445174
  BL          -9.382397       -4.053539     -241.922495
  BL          -9.009440       -2.159414     -241.399816
  BL          -8.636483       -0.265289     -240.877137
  BL          -8.263525        1.628836     -240.354458
  BL          -7.890568        3.522961     -239.831779
  BL          -7.517611        5.417086     -239.309099
  BL          -7.144654        7.311211     -238.786420
  BL          -6.771697        9.205336     -238.263741
  BL          -6.398740       11.099461     -237.741062
  BL          -6.025783       12.993586     -237.218383
  BL          -5.652826       14.887711     -236.695704
  BL          -5.279868       16.781836     -236.173025
  BL          -4.906911       18.675961     -235.650346
  BL          -4.533954       20.570086     -235.127666
  BL          -4.160997       22.464211     -234.604987
  BL          -3.788040       24.358336     -234.082308
  BL          -3.415083       26.252461     -233.559629
  BL          -3.042126       28.146586     -233.036950
  BL          -2.669169       30.040711     -232.514271
  BL          -2.296212       31.934836     -231.991592
  BL          -1.923254       33.828961     -231.468912
  BL          -1.550297       35.723086     -230.946233
  BL          -1.177340       37.617211     -230.423554
  BL          -0.804383       39.511336     -229.900875
  BL          -0.431426       41.405461     -229.378196
  BL          -0.058469       43.299586     -228.855517
  BL           0.314488       45.193711     -228.332838
  BL           0.687445       47.087836     -227.810159
  BL           1.060403       48.981961     -227.287479
  BL           1.433360       50.876086     -226.764800
  BL           1.806317       52.770211     -226.242121
  BL           2.179274       54.664336     -225.719442
  BL           2.552231       56.558461     -225.196763
  BL           2.925188       58.452586     -224.674084
  BL           3.298145       60.346711     -224.151405
  BL           3.671102       62.240836     -223.628726
  BL           4.044059       64.134961     -223.106046
  BL           4.417017       66.029086     -222.583367
  BL           4.789974       67.923211     -222.060688
  BL           5.162931       69.817336     -221.538009
  BL           5.535888       71.711461     -221.015330
  BL           5.908845       73.605586     -220.492651
  BL           6.281802       75.499711     -219.969972
  B         -256.168428     -123.203460      -77.273924
  B         -254.340696     -122.403788      -77.415068
  B         -252.512964     -121.604117      -77.556213
  B         -250.685232     -120.804446      -77.697357
  B         -248.857500     -120.004775      -77.838502
  B         -247.029768     -119.205103      -77.979646
  B         -245.202036     -118.405432      -78.120791
  B         -243.374304     -117.605761      -78.261936
  B         -241.546572     -116.806089      -78.403080
  B         -239.718840     -116.006418      -78.544225
  B         -237.891108     -115.206747      -78.685369
  B         -236.063376     -114.407076      -78.826514
  B         -234.235645     -113.607404      -78.967658
  B         -232.407913     -112.807733      -79.108803
  B         -230.580181     -112.008062      -79.249947
  B         -228.752449     -111.208390      -79.391092
  B         -226.924717     -110.408719      -79.532236
  B         -225.096985     -109.609048      -79.673381
  B         -223.269253     -108.809377      -79.814525
  B         -221.441521     -108.009705      -79.955670
  BL        -219.613789     -107.210034      -80.096815
  BL        -217.786057     -106.410363      -80.237959
  BL        -215.958325     -105.610692      -80.379104
  BL        -214.130593     -104.811020      -80.520248
  BL        -212.302861     -104.011349      -80.661393
  BL        -210.475129     -103.211678      -80.802537
  BL        -208.647397     -102.412006      -80.943682
  BL        -206.819665     -101.612335      -81.084826
  BL        -204.991933     -100.812664      -81.225971
  BL        -203.164201     -100.012993      -81.367115
  BL        -201.336469      -99.213321      -81.508260
  BL        -199.508738      -98.413650      -81.649404
  BL        -197.681006      -97.613979      -81.790549
  BL        -195.853274      -96.814307      -81.931694
  BL        -194.025542      -96.014636      -82.072838
  BL        -192.197810      -95.214965      -82.213983
  BL        -190.370078      -94.415294      -82.355127
  BL        -188.542346      -93.615622      -82.496272
  BL        -186.714614      -92.815951      -82.637416
  BL        -184.886882      -92.016280      -82.778561
  BL        -183.059150      -91.216608      -82.919705
  BL        -181.231418      -90.416937      -83.060850
  BL        -179.403686      -89.617266      -83.201994
  BL        -177.575954      -88.817595      -83.343139
  BL        -175.748222      -88.017923      -83.484283
  BL        -173.920490      -87.218252      -83.625428
  BL        -172.092758      -86.418581      -83.766572
  BL        -170.265026      -85.618910      -83.907717
  BL        -168.437294      -84.819238      -84.048862
  BL        -166.609563      -84.019567      -84.190006
  BL        -164.781831      -83.219896      -84.331151
  BL        -162.954099      -82.420224      -84.472295
  BL        -161.126367      -81.620553      -84.613440
  BL        -159.298635      -80.820882      -84.754584
  BL        -157.470903      -80.021211      -84.895729
  BL        -155.643171      -79.221539      -85.036873
  BL        -153.815439      -78.421868      -85.178018
  BL        -151.987707      -77.622197      -85.319162
  BL        -150.159975      -76.822525      -85.460307
  BL        -148.332243      -76.022854      -85.601451
  BL        -146.504511      -75.223183      -85.742596
  BL        -144.676779      -74.423512      -85.883741
  BL        -142.849047      -73.623840      -86.024885
  BL        -141.021315      -72.824169      -86.166030
  BL        -139.193583      -72.024498      -86.307174
  BL        -137.365851      -71.224827      -86.448319
  BL        -135.538119      -70.425155      -86.589463
  BL        -133.710388      -69.625484      -86.730608
  BL        -131.882656      -68.825813      -86.871752
  BL        -130.054924      -68.026141      -87.012897
  B         -220.416552       76.124428     -138.540096
  B         -219.171542       77.679962     -138.366126
  B         -217.926532       79.235496     -138.192156
  B         -216.681523       80.791030     -138.018186
  B         -215.436513       82.346563     -137.844216
  B         -214.191503       83.902097     -137.670246
  B         -212.946493       85.457631     -137.496277
  B         -211.701484       87.013165     -137.322307
  B         -210.456474       88.568698     -137.148337
  B         -209.211464       90.124232     -136.974367
  B         -207.966455       91.679766     -136.800397
  B         -206.721445       93.235300     -136.626427
  B         -205.476435       94.790834     -136.452457
  B         -204.231426       96.346367     -136.278488
  B         -202.986416       97.901901     -136.104518
  B         -201.741406       99.457435     -135.930548
  B         -200.496396      101.012969     -135.756578
  B         -199.251387      102.568502     -135.582608
  B         -198.006377      104.124036     -135.408638
  B         -196.761367      105.679570     -135.234669
  BL        -195.516358      107.235104     -135.060699
  BL        -194.271348      108.790638     -134.886729
  BL        -193.026338      110.346171     -134.712759
  BL        -191.781329      111.901705     -134.538789
  BL        -190.536319      113.457239     -134.364819
  BL        -189.291309      115.012773     -134.190849
  BL        -188.046299      116.568306     -134.016880
  BL        -186.801290      118.123840     -133.842910
  BL        -185.556280      119.679374     -133.668940
  BL        -184.311270      121.234908     -133.494970
  BL        -183.066261      122.790442     -133.321000
  BL        -181.821251      124.345975     -133.147030
  BL        -180.576241      125.901509     -132.973061
  BL        -179.331232      127.457043     -132.799091
  BL        -178.086222      129.012577     -132.625121
  BL        -176.841212      130.568110     -132.451151
  BL        -175.596202      132.123644     -132.277181
  BL        -174.351193      133.679178     -132.103211
  BL        -173.106183      135.234712     -131.929242
  BL        -171.861173      136.790246     -131.755272
  BL        -170.616164      138.345779     -131.581302
  BL        -169.371154      139.901313     -131.407332
  BL        -168.126144      141.456847     -131.233362
  BL        -166.881135      143.012381     -131.059392
  BL        -165.636125      144.567915     -130.885422
  BL        -164.391115      146.123448     -130.711453
  BL        -163.146105      147.678982     -130.537483
  BL        -161.901096      149.234516     -130.363513
  BL        -160.656086      150.790050     -130.189543
  BL        -159.411076      152.345583     -130.015573
  BL        -158.166067      153.901117     -129.841603
  BL        -156.921057      155.456651     -129.667634
  BL        -155.676047      157.012185     -129.493664
  BL        -154.431038      158.567719     -129.319694
  BL        -153.186028      160.123252     -129.145724
  BL        -151.941018      161.678786     -128.971754
  BL        -150.696008      163.234320     -128.797784
  BL        -149.450999      164.789854     -128.623815
  BL        -148.205989      166.345387     -128.449845
  BL        -146.960979      167.900921     -128.275875
  BL        -145.715970      169.456455     -128.101905
  BL        -144.470960      171.011989     -127.927935
  BL        -143.225950      172.567523     -127.753965
  BL        -141.980941      174.123056     -127.579995
  BL        -140.735931      175.678590     -127.406026
  BL        -139.490921      177.234124     -127.232056
  BL        -138.245911      178.789658     -127.058086
  BL        -137.000902      180.345191     -126.884116
  BL        -135.755892      181.900725     -126.710146
  BL        -134.510882      183.456259     -126.536176
  B          -38.403423      210.566627       -4.405916
  B          -40.279226      209.872888       -4.396577
  B          -42.155030      209.179149       -4.387239
  B          -44.030834      208.485410       -4.377900
  B          -45.906637      207.791672       -4.368562
  B          -47.782441      207.097933       -4.359223
  B          -49.658245      206.404194       -4.349884
  B          -51.534048      205.710455       -4.340546
  B          -53.409852      205.016717       -4.331207
  B          -55.285656      204.322978       -4.321868
  B          -57.161459      203.629239       -4.312530
  B          -59.037263      202.935500       -4.303191
  B          -60.913067      202.241761       -4.293853
  B          -62.788870      201.548023       -4.284514
  B          -64.664674      200.854284       -4.275175
  B          -66.540477      200.160545       -4.265837
  B          -68.416281      199.466806       -4.256498
  B          -70.292085      198.773068       -4.247160
  B          -72.167888      198.079329       -4.237821
  B          -74.043692      197.385590       -4.228482
  BL         -75.919496      196.691851       -4.219144
  BL         -77.795299      195.998112       -4.209805
  BL         -79.671103      195.304374       -4.200467
  BL         -81.546907      194.610635       -4.191128
  BL         -83.422710      193.916896       -4.181789
  BL         -85.298514      193.223157       -4.172451
  BL         -87.174317      192.529419       -4.163112
  BL         -89.050121      191.835680       -4.153774
  BL         -90.925925      191.141941       -4.144435
  BL         -92.801728      190.448202       -4.135096
  BL         -94.677532      189.754463       -4.125758
  BL         -96.553336      189.060725       -4.116419
  BL         -98.429139      188.366986       -4.107081
  BL        -100.304943      187.673247       -4.097742
  BL        -102.180747      186.979508       -4.088403
  BL        -104.056550      186.285770       -4.079065
  BL        -105.932354      185.592031       -4.069726
  BL        -107.808158      184.898292       -4.060388
  BL        -109.683961      184.204553       -4.051049
  BL        -111.559765      183.510815       -4.041710
  BL        -113.435568      182.817076       -4.032372
  BL        -115.311372      182.123337       -4.023033
  BL        -117.187176      181.429598       -4.013695
  BL        -119.062979      180.735859       -4.004356
  BL        -120.938783      180.042121       -3.995017
  BL        -122.814587      179.348382       -3.985679
  BL        -124.690390      178.654643       -3.976340
  BL        -126.566194      177.960904       -3.967002
  BL        -128.441998      177.267166       -3.957663
  BL        -130.317801      176.573427       -3.948324
  BL        -132.193605      175.879688       -3.938986
  BL        -134.069409      175.185949       -3.929647
  BL        -135.945212      174.492210       -3.920309
  BL        -137.821016      173.798472       -3.910970
  BL        -139.696819      173.104733       -3.901631
  BL        -141.572623      172.410994       -3.892293
  BL        -143.448427      171.717255       -3.882954
  BL        -145.324230      171.023517       -3.873615
  BL        -147.200034      170.329778       -3.864277
  BL        -149.075838      169.636039       -3.854938
  BL        -150.951641      168.942300       -3.845600
  BL        -152.827445      168.248561       -3.836261
  BL        -154.703249      167.554823       -3.826922
  BL        -156.579052      166.861084       -3.817584
  BL        -158.454856      166.167345       -3.808245
  BL        -160.330660      165.473606       -3.798907
  BL        -162.206463      164.779868       -3.789568
  BL        -164.082267      164.086129       -3.780229
  BL        -165.958070      163.392390       -3.770891
  BL        -167.833874      162.698651       -3.761552
  B          -19.463417      201.629123     -111.234590
  B          -20.407997      202.470977     -109.685703
  B          -21.352578      203.312830     -108.136817
  B          -22.297159      204.154684     -106.587930
  B          -23.241740      204.996537     -105.039044
  B          -24.186321      205.838391     -103.490157
  B          -25.130902      206.680244     -101.941270
  B          -26.075483      207.522098     -100.392384
  B          -27.020064      208.363951      -98.843497
  B          -27.964644      209.205805      -97.294611
  B          -28.909225      210.047658      -95.745724
  B          -29.853806      210.889512      -94.196838
  B          -30.798387      211.731365      -92.647951
  B          -31.742968      212.573219      -91.099065
  B          -32.687549      213.415073      -89.550178
  B          -33.632130      214.256926      -88.001291
  B          -34.576711      215.098780      -86.452405
  B          -35.521291      215.940633      -84.903518
  B          -36.465872      216.782487      -83.354632
  B          -37.410453      217.624340      -81.805745
  BL         -38.355034      218.466194      -80.256859
  BL         -39.299615      219.308047      -78.707972
  BL         -40.244196      220.149901      -77.159085
  BL         -41.188777      220.991754      -75.610199
  BL         -42.133358      221.833608      -74.061312
  BL         -43.077938      222.675461      -72.512426
  BL         -44.022519      223.517315      -70.963539
  BL         -44.967100      224.359169      -69.414653
  BL         -45.911681      225.201022      -67.865766
  BL         -46.856262      226.042876      -66.316880
  BL         -47.800843      226.884729      -64.767993
  BL         -48.745424      227.726583      -63.219106
  BL         -49.690005      228.568436      -61.670220
  BL         -50.634586      229.410290      -60.121333
  BL         -51.579166      230.252143      -58.572447
  BL         -52.523747      231.093997      -57.023560
  BL         -53.468328      231.935850      -55.474674
  BL         -54.412909      232.777704      -53.925787
  BL         -55.357490      233.619557      -52.376900
  BL         -56.302071      234.461411      -50.828014
  BL         -57.246652      235.303265      -49.279127
  BL         -58.191233      236.145118      -47.730241
  BL         -59.135813      236.986972      -46.181354
  BL         -60.080394      237.828825      -44.632468
  BL         -61.024975      238.670679      -43.083581
  BL         -61.969556      239.512532      -41.534695
  BL         -62.914137      240.354386      -39.985808
  BL         -63.858718      241.196239      -38.436921
  BL         -64.803299      242.038093      -36.888035
  BL         -65.747880      242.879946      -35.339148
  BL         -66.692460      243.721800      -33.790262
  BL         -67.637041      244.563654      -32.241375
  BL         -68.581622      245.405507      -30.692489
  BL         -69.526203      246.247361      -29.143602
  BL         -70.470784      247.089214      -27.594716
  BL         -71.415365      247.931068      -26.045829
  BL         -72.359946      248.772921      -24.496942
  BL         -73.304527      249.614775      -22.948056
  BL         -74.249107      250.456628      -21.399169
  BL         -75.193688      251.298482      -19.850283
  BL         -76.138269      252.140335      -18.301396
  BL         -77.082850      252.982189      -16.752510
  BL         -78.027431      253.824042      -15.203623
  BL         -78.972012      254.665896      -13.654736
  BL         -79.916593      255.507750      -12.105850
  BL         -80.861174      256.349603      -10.556963
  BL         -81.805755      257.191457       -9.008077
  BL         -82.750335      258.033310       -7.459190
  BL         -83.694916      258.875164       -5.910304
  BL         -84.639497      259.717017       -4.361417
  B         -196.756181      110.089788      -70.554194
  B         -197.515545      111.917352      -70.265443
  B         -198.274908      113.744916      -69.976692
  B         -199.034272      115.572479      -69.687941
  B         -199.793635      117.400043      -69.399189
  B         -200.552999      119.227607      -69.110438
  B         -201.312362      121.055171      -68.821687
  B         -202.071726      122.882735      -68.532936
  B         -202.831089      124.710299      -68.244185
  B         -203.590453      126.537863      -67.955434
  B         -204.349816      128.365427      -67.666683
  B         -205.109180      130.192991      -67.377932
  B         -205.868543      132.020555      -67.089181
  B         -206.627907      133.848119      -66.800430
  B         -207.387270      135.675683      -66.511679
  B         -208.146634      137.503247      -66.222927
  B         -208.905997      139.330811      -65.934176
  B         -209.665361      141.158374      -65.645425
  B         -210.424724      142.985938      -65.356674
  B         -211.184088      144.813502      -65.067923
  BL        -211.943451      146.641066      -64.779172
  BL        -212.702814      148.468630      -64.490421
  BL        -213.462178      150.296194      -64.201670
  BL        -214.221541      152.123758      -63.912919
  BL        -214.980905      153.951322      -63.624168
  BL        -215.740268      155.778886      -63.335417
  BL        -216.499632      157.606450      -63.046665
  BL        -217.258995      159.434014      -62.757914
  BL        -218.018359      161.261578      -62.469163
  BL        -218.777722      163.089142      -62.180412
  BL        -219.537086      164.916705      -61.891661
  BL        -220.296449      166.744269      -61.602910
  BL        -221.055813      168.571833      -61.314159
  BL        -221.815176      170.399397      -61.025408
  BL        -222.574540      172.226961      -60.736657
  BL        -223.333903      174.054525      -60.447906
  BL        -224.093267      175.882089      -60.159155
  BL        -224.852630      177.709653      -59.870403
  BL        -225.611994      179.537217      -59.581652
  BL        -226.371357      181.364781      -59.292901
  BL        -227.130721      183.192345      -59.004150
  BL        -227.890084      185.019909      -58.715399
  BL        -228.649448      186.847473      -58.426648
  BL        -229.408811      188.675037      -58.137897
  BL        -230.168175      190.502600      -57.849146
  BL        -230.927538      192.330164      -57.560395
  BL        -231.686902      194.157728      -57.271644
  BL        -232.446265      195.985292      -56.982892
  BL        -233.205629      197.812856      -56.694141
  BL        -233.964992      199.640420      -56.405390
  BL        -234.724356      201.467984      -56.116639
  BL        -235.483719      203.295548      -55.827888
  BL        -236.243083      205.123112      -55.539137
  BL        -237.002446      206.950676      -55.250386
  BL        -237.761810      208.778240      -54.961635
  BL        -238.521173      210.605804      -54.672884
  BL        -239.280537      212.433368      -54.384133
  BL        -240.039900      214.260931      -54.095382
  BL        -240.799263      216.088495      -53.806630
  BL        -241.558627      217.916059      -53.517879
  BL        -242.317990      219.743623      -53.229128
  BL        -243.077354      221.571187      -52.940377
  BL        -243.836717      223.398751      -52.651626
  BL        -244.596081      225.226315      -52.362875
  BL        -245.355444      227.053879      -52.074124
  BL        -246.114808      228.881443      -51.785373
  BL        -246.874171      230.709007      -51.496622
  BL        -247.633535      232.536571      -51.207871
  BL        -248.392898      234.364135      -50.919120
  BL        -249.152262      236.191699      -50.630368
  B         -238.256548      107.905768       19.759403
  B         -236.642848      107.807569       18.581978
  B         -235.029149      107.709370       17.404552
  B         -233.415450      107.611171       16.227126
  B         -231.801750      107.512971       15.049701
  B         -230.188051      107.414772       13.872275
  B         -228.574352      107.316573       12.694849
  B         -226.960652      107.218374       11.517423
  B         -225.346953      107.120175       10.339998
  B         -223.733253      107.021975        9.162572
  B         -222.119554      106.923776        7.985146
  B         -220.505855      106.825577        6.807720
  B         -218.892155      106.727378        5.630295
  B         -217.278456      106.629179        4.452869
  B         -215.664757      106.530980        3.275443
  B         -214.051057      106.432780        2.098018
  B         -212.437358      106.334581        0.920592
  B         -210.823659      106.236382       -0.256834
  B         -209.209959      106.138183       -1.434260
  B         -207.596260      106.039984       -2.611685
  BL        -205.982561      105.941784       -3.789111
  BL        -204.368861      105.843585       -4.966537
  BL        -202.755162      105.745386       -6.143963
  BL        -201.141463      105.647187       -7.321388
  BL        -199.527763      105.548988       -8.498814
  BL        -197.914064      105.450788       -9.676240
  BL        -196.300365      105.352589      -10.853665
  BL        -194.686665      105.254390      -12.031091
  BL        -193.072966      105.156191      -13.208517
  BL        -191.459267      105.057992      -14.385943
  BL        -189.845567      104.959793      -15.563368
  BL        -188.231868      104.861593      -16.740794
  BL        -186.618169      104.763394      -17.918220
  BL        -185.004469      104.665195      -19.095646
  BL        -183.390770      104.566996      -20.273071
  BL        -181.777071      104.468797      -21.450497
  BL        -180.163371      104.370597      -22.627923
  BL        -178.549672      104.272398      -23.805348
  BL        -176.935972      104.174199      -24.982774
  BL        -175.322273      104.076000      -26.160200
  BL        -173.708574      103.977801      -27.337626
  BL        -172.094874      103.879601      -28.515051
  BL        -170.481175      103.781402      -29.692477
  BL        -168.867476      103.683203      -30.869903
  BL        -167.253776      103.585004      -32.047329
  BL        -165.640077      103.486805      -33.224754
  BL        -164.026378      103.388606      -34.402180
  BL        -162.412678      103.290406      -35.579606
  BL        -160.798979      103.192207      -36.757031
  BL        -159.185280      103.094008      -37.934457
  BL        -157.571580      102.995809      -39.111883
  BL        -155.957881      102.897610      -40.289309
  BL        -154.344182      102.799410      -41.466734
  BL        -152.730482      102.701211      -42.644160
  BL        -151.116783      102.603012      -43.821586
  BL        -149.503084      102.504813      -44.999012
  BL        -147.889384      102.406614      -46.176437
  BL        -146.275685      102.308415      -47.353863
  BL        -144.661986      102.210215      -48.531289
  BL        -143.048286      102.112016      -49.708714
  BL        -141.434587      102.013817      -50.886140
  BL        -139.820888      101.915618      -52.063566
  BL        -138.207188      101.817419      -53.240992
  BL        -136.593489      101.719219      -54.418417
  BL        -134.979790      101.621020      -55.595843
  BL        -133.366090      101.522821      -56.773269
  BL        -131.752391      101.424622      -57.950695
  BL        -130.138691      101.326423      -59.128120
  BL        -128.524992      101.228223      -60.305546
  BL        -126.911293      101.130024      -61.482972
  B          122.122263     -228.350382       45.282386
  B          122.078155     -227.745442       43.376578
  B          122.034047     -227.140502       41.470771
  B          121.989939     -226.535562       39.564964
  B          121.945831     -225.930622       37.659156
  B          121.901723     -225.325682       35.753349
  B          121.857615     -224.720742       33.847541
  B          121.813507     -224.115802       31.941734
  B          121.769399     -223.510862       30.035926
  B          121.725292     -222.905922       28.130119
  B          121.681184     -222.300982       26.224312
  B          121.637076     -221.696042       24.318504
  B          121.592968     -221.091102       22.412697
  B          121.548860     -220.486161       20.506889
  B          121.504752     -219.881221       18.601082
  B          121.460644     -219.276281       16.695274
  B          121.416536     -218.671341       14.789467
  B          121.372428     -218.066401       12.883659
  B          121.328320     -217.461461       10.977852
  B          121.284212     -216.856521        9.072045
  BL         121.240104     -216.251581        7.166237
  BL         121.195996     -215.646641        5.260430
  BL         121.151888     -215.041701        3.354622
  BL         121.107780     -214.436761        1.448815
  BL         121.063672     -213.831821       -0.456993
  BL         121.019564     -213.226881       -2.362800
  BL         120.975456     -212.621941       -4.268608
  BL         120.931349     -212.017001       -6.174415
  BL         120.887241     -211.412060       -8.080222
  BL         120.843133     -210.807120       -9.986030
  BL         120.799025     -210.202180      -11.891837
  BL         120.754917     -209.597240      -13.797645
  BL         120.710809     -208.992300      -15.703452
  BL         120.666701     -208.387360      -17.609260
  BL         120.622593     -207.782420      -19.515067
  BL         120.578485     -207.177480      -21.420875
  BL         120.534377     -206.572540      -23.326682
  BL         120.490269     -205.967600      -25.232489
  BL         120.446161     -205.362660      -27.138297
  BL         120.402053     -204.757720      -29.044104
  BL         120.357945     -204.152780      -30.949912
  BL         120.313837     -203.547840      -32.855719
  BL         120.269729     -202.942900      -34.761527
  BL         120.225621     -202.337959      -36.667334
  BL         120.181514     -201.733019      -38.573142
  BL         120.137406     -201.128079      -40.478949
  BL         120.093298     -200.523139      -42.384756
  BL         120.049190     -199.918199      -44.290564
  BL         120.005082     -199.313259      -46.196371
  BL         119.960974     -198.708319      -48.102179
  BL         119.916866     -198.103379      -50.007986
  BL         119.872758     -197.498439      -51.913794
  BL         119.828650     -196.893499      -53.819601
  BL         119.784542     -196.288559      -55.725408
  BL         119.740434     -195.683619      -57.631216
  BL         119.696326     -195.078679      -59.537023
  BL         119.652218     -194.473739      -61.442831
  BL         119.608110     -193.868799      -63.348638
  BL         119.564002     -193.263858      -65.254446
  BL         119.519894     -192.658918      -67.160253
  BL         119.475786     -192.053978      -69.066061
  BL         119.431678     -191.449038      -70.971868
  BL         119.387571     -190.844098      -72.877675
  BL         119.343463     -190.239158      -74.783483
  BL         119.299355     -189.634218      -76.689290
  BL         119.255247     -189.029278      -78.595098
  BL         119.211139     -188.424338      -80.500905
  BL         119.167031     -187.819398      -82.406713
  BL         119.122923     -187.214458      -84.312520
  BL         119.078815     -186.609518      -86.218328
  B          108.053009     -143.032909     -155.284813
  B          107.827852     -144.106017     -156.957459
  B          107.602695     -145.179125     -158.630104
  B          107.377538     -146.252233     -160.302750
  B          107.152381     -147.325341     -161.975396
  B          106.927224     -148.398449     -163.648041
  B          106.702066     -149.471557     -165.320687
  B          106.476909     -150.544665     -166.993333
  B          106.251752     -151.617773     -168.665978
  B          106.026595     -152.690881     -170.338624
  B          105.801438     -153.763989     -172.011270
  B          105.576281     -154.837097     -173.683915
  B          105.351123     -155.910205     -175.356561
  B          105.125966     -156.983313     -177.029207
  B          104.900809     -158.056421     -178.701852
  B          104.675652     -159.129529     -180.374498
  B          104.450495     -160.202637     -182.047144
  B          104.225338     -161.275744     -183.719789
  B          104.000180     -162.348852     -185.392435
  B          103.775023     -163.421960     -187.065081
  BL         103.549866     -164.495068     -188.737726
  BL         103.324709     -165.568176     -190.410372
  BL         103.099552     -166.641284     -192.083018
  BL         102.874395     -167.714392     -193.755663
  BL         102.649237     -168.787500     -195.428309
  BL         102.424080     -169.860608     -197.100955
  BL         102.198923     -170.933716     -198.773600
  BL         101.973766     -172.006824     -200.446246
  BL         101.748609     -173.079932     -202.118892
  BL         101.523451     -174.153040     -203.791537
  BL         101.298294     -175.226148     -205.464183
  BL         101.073137     -176.299256     -207.136829
  BL         100.847980     -177.372364     -208.809474
  BL         100.622823     -178.445472     -210.482120
  BL         100.397666     -179.518580     -212.154766
  BL         100.172508     -180.591688     -213.827411
  BL          99.947351     -181.664796     -215.500057
  BL          99.722194     -182.737904     -217.172703
  BL          99.497037     -183.811012     -218.845348
  BL          99.271880     -184.884120     -220.517994
  BL          99.046723     -185.957228     -222.190640
  BL          98.821565     -187.030336     -223.863285
  BL          98.596408     -188.103444     -225.535931
  BL          98.371251     -189.176552     -227.208577
  BL          98.146094     -190.249660     -228.881222
  BL          97.920937     -191.322768     -230.553868
  BL          97.695780     -192.395876     -232.226514
  BL          97.470622     -193.468984     -233.899159
  BL          97.245465     -194.542092     -235.571805
  BL          97.020308     -195.615200     -237.244451
  BL          96.795151     -196.688308     -238.917096
  BL          96.569994     -197.761416     -240.589742
  BL          96.344837     -198.834524     -242.262388
  BL          96.119679     -199.907632     -243.935033
  BL          95.894522     -200.980740     -245.607679
  BL          95.669365     -202.053848     -247.280325
  BL          95.444208     -203.126956     -248.952970
  BL          95.219051     -204.200064     -250.625616
  BL          94.993894     -205.273172     -252.298262
  BL          94.768736     -206.346280     -253.970907
  BL          94.543579     -207.419388     -255.643553
  BL          94.318422     -208.492495     -257.316199
  BL          94.093265     -209.565603     -258.988844
  BL          93.868108     -210.638711     -260.661490
  BL          93.642951     -211.711819     -262.334136
  BL          93.417793     -212.784927     -264.006781
  BL          93.192636     -213.858035     -265.679427
  BL          92.967479     -214.931143     -267.352072
  BL          92.742322     -216.004251     -269.024718
  BL          92.517165     -217.077359     -270.697364
  B          -86.014704      -10.542198     -235.853145
  B          -84.160587       -9.911712     -236.259023
  B          -82.306469       -9.281227     -236.664901
  B          -80.452352       -8.650741     -237.070779
  B          -78.598235       -8.020256     -237.476657
  B          -76.744118       -7.389770     -237.882535
  B          -74.890000       -6.759284     -238.288413
  B          -73.035883       -6.128799     -238.694291
  B          -71.181766       -5.498313     -239.100170
  B          -69.327648       -4.867828     -239.506048
  B          -67.473531       -4.237342     -239.911926
  B          -65.619414       -3.606856     -240.317804
  B          -63.765297       -2.976371     -240.723682
  B          -61.911179       -2.345885     -241.129560
  B          -60.057062       -1.715400     -241.535438
  B          -58.202945       -1.084914     -241.941316
  B          -56.348827       -0.454429     -242.347194
  B          -54.494710        0.176057     -242.753072
  B          -52.640593        0.806543     -243.158950
  B          -50.786476        1.437028     -243.564828
  BL         -48.932358        2.067514     -243.970706
  BL         -47.078241        2.697999     -244.376584
  BL         -45.224124        3.328485     -244.782462
  BL         -43.370006        3.958971     -245.188340
  BL         -41.515889        4.589456     -245.594218
  BL         -39.661772        5.219942     -246.000096
  BL         -37.807654        5.850427     -246.405974
  BL         -35.953537        6.480913     -246.811852
  BL         -34.099420        7.111399     -247.217731
  BL         -32.245303        7.741884     -247.623609
  BL         -30.391185        8.372370     -248.029487
  BL         -28.537068        9.002855     -248.435365
  BL         -26.682951        9.633341     -248.841243
  BL         -24.828833       10.263827     -249.247121
  BL         -22.974716       10.894312     -249.652999
  BL         -21.120599       11.524798     -250.058877
  BL         -19.266482       12.155283     -250.464755
  BL         -17.412364       12.785769     -250.870633
  BL         -15.558247       13.416254     -251.276511
  BL         -13.704130       14.046740     -251.682389
  BL         -11.850012       14.677226     -252.088267
  BL          -9.995895       15.307711     -252.494145
  BL          -8.141778       15.938197     -252.900023
  BL          -6.287661       16.568682     -253.305901
  BL          -4.433543       17.199168     -253.711779
  BL          -2.579426       17.829654     -254.117657
  BL          -0.725309       18.460139     -254.523535
  BL           1.128809       19.090625     -254.929413
  BL           2.982926       19.721110     -255.335291
  BL           4.837043       20.351596     -255.741170
  BL           6.691160       20.982082     -256.147048
  BL           8.545278       21.612567     -256.552926
  BL          10.399395       22.243053     -256.958804
  BL          12.253512       22.873538     -257.364682
  BL          14.107630       23.504024     -257.770560
  BL          15.961747       24.134510     -258.176438
  BL          17.815864       24.764995     -258.582316
  BL          19.669982       25.395481     -258.988194
  BL          21.524099       26.025966     -259.394072
  BL          23.378216       26.656452     -259.799950
  BL          25.232333       27.286937     -260.205828
  BL          27.086451       27.917423     -260.611706
  BL          28.940568       28.547909     -261.017584
  BL          30.794685       29.178394     -261.423462
  BL          32.648803       29.808880     -261.829340
  BL          34.502920       30.439365     -262.235218
  BL          36.357037       31.069851     -262.641096
  BL          38.211154       31.700337     -263.046974
  BL          40.065272       32.330822     -263.452852
  BL          41.919389       32.961308     -263.858731
  B           12.932455      167.597382      -81.413937
  B           12.321572      169.311795      -80.584713
  B           11.710690      171.026208      -79.755490
  B           11.099807      172.740620      -78.926266
  B           10.488925      174.455033      -78.097042
  B            9.878043      176.169446      -77.267819
  B            9.267160      177.883858      -76.438595
  B            8.656278      179.598271      -75.609371
  B            8.045396      181.312684      -74.780147
  B            7.434513      183.027096      -73.950924
  B            6.823631      184.741509      -73.121700
  B            6.212749      186.455922      -72.292476
  B            5.601866      188.170334      -71.463252
  B            4.990984      189.884747      -70.634029
  B            4.380102      191.599160      -69.804805
  B            3.769219      193.313572      -68.975581
  B            3.158337      195.027985      -68.146358
  B            2.547455      196.742397      -67.317134
  B            1.936572      198.456810      -66.487910
  B            1.325690      200.171223      -65.658686
  BL           0.714807      201.885635      -64.829463
  BL           0.103925      203.600048      -64.000239
  BL          -0.506957      205.314461      -63.171015
  BL          -1.117840      207.028873      -62.341791
  BL          -1.728722      208.743286      -61.512568
  BL          -2.339604      210.457699      -60.683344
  BL          -2.950487      212.172111      -59.854120
  BL          -3.561369      213.886524      -59.024897
  BL          -4.172251      215.600937      -58.195673
  BL          -4.783134      217.315349      -57.366449
  BL          -5.394016      219.029762      -56.537225
  BL          -6.004898      220.744175      -55.708002
  BL          -6.615781      222.458587      -54.878778
  BL          -7.226663      224.173000      -54.049554
  BL          -7.837546      225.887413      -53.220330
  BL          -8.448428      227.601825      -52.391107
  BL          -9.059310      229.316238      -51.561883
  BL          -9.670193      231.030651      -50.732659
  BL         -10.281075      232.745063      -49.903436
  BL         -10.891957      234.459476      -49.074212
  BL         -11.502840      236.173889      -48.244988
  BL         -12.113722      237.888301      -47.415764
  BL         -12.724604      239.602714      -46.586541
  BL         -13.335487      241.317127      -45.757317
  BL         -13.946369      243.031539      -44.928093
  BL         -14.557251      244.745952      -44.098869
  BL         -15.168134      246.460365      -43.269646
  BL         -15.779016      248.174777      -42.440422
  BL         -16.389898      249.889190      -41.611198
  BL         -17.000781      251.603603      -40.781975
  BL         -17.611663      253.318015      -39.952751
  BL         -18.222546      255.032428      -39.123527
  BL         -18.833428      256.746841      -38.294303
  BL         -19.444310      258.461253      -37.465080
  BL         -20.055193      260.175666      -36.635856
  BL         -20.666075      261.890078      -35.806632
  BL         -21.276957      263.604491      -34.977409
  BL         -21.887840      265.318904      -34.148185
  BL         -22.498722      267.033316      -33.318961
  BL         -23.109604      268.747729      -32.489737
  BL         -23.720487      270.462142      -31.660514
  BL         -24.331369      272.176554      -30.831290
  BL         -24.942251      273.890967      -30.002066
  BL         -25.553134      275.605380      -29.172842
  BL         -26.164016      277.319792      -28.343619
  BL         -26.774899      279.034205      -27.514395
  BL         -27.385781      280.748618      -26.685171
  BL         -27.996663      282.463030      -25.855948
  BL         -28.607546      284.177443      -25.026724
  BL         -29.218428      285.891856      -24.197500
  B         -137.285279      137.700104      138.621052
  B         -137.851003      136.032926      139.569986
  B         -138.416728      134.365749      140.518920
  B         -138.982453      132.698572      141.467854
  B         -139.548178      131.031395      142.416788
  B         -140.113902      129.364217      143.365722
  B         -140.679627      127.697040      144.314656
  B         -141.245352      126.029863      145.263590
  B         -141.811076      124.362685      146.212523
  B         -142.376801      122.695508      147.161457
  B         -142.942526      121.028331      148.110391
  B         -143.508251      119.361154      149.059325
  B         -144.073975      117.693976      150.008259
  B         -144.639700      116.026799      150.957193
  B         -145.205425      114.359622      151.906127
  B         -145.771150      112.692445      152.855060
  B         -146.336874      111.025267      153.803994
  B         -146.902599      109.358090      154.752928
  B         -147.468324      107.690913      155.701862
  B         -148.034049      106.023735      156.650796
  BL        -148.599773      104.356558      157.599730
  BL        -149.165498      102.689381      158.548664
  BL        -149.731223      101.022204      159.497598
  BL        -150.296947       99.355026      160.446531
  BL        -150.862672       97.687849      161.395465
  BL        -151.428397       96.020672      162.344399
  BL        -151.994122       94.353495      163.293333
  BL        -152.559846       92.686317      164.242267
  BL        -153.125571       91.019140      165.191201
  BL        -153.691296       89.351963      166.140135
  BL        -154.257021       87.684786      167.089068
  BL        -154.822745       86.017608      168.038002
  BL        -155.388470       84.350431      168.986936
  BL        -155.954195       82.683254      169.935870
  BL        -156.519920       81.016076      170.884804
  BL        -157.085644       79.348899      171.833738
  BL        -157.651369       77.681722      172.782672
  BL        -158.217094       76.014545      173.731606
  BL        -158.782819       74.347367      174.680539
  BL        -159.348543       72.680190      175.629473
  BL        -159.914268       71.013013      176.578407
  BL        -160.479993       69.345836      177.527341
  BL        -161.045717       67.678658      178.476275
  BL        -161.611442       66.011481      179.425209
  BL        -162.177167       64.344304      180.374143
  BL        -162.742892       62.677127      181.323076
  BL        -163.308616       61.009949      182.272010
  BL        -163.874341       59.342772      183.220944
  BL        -164.440066       57.675595      184.169878
  BL        -165.005791       56.008417      185.118812
  BL        -165.571515       54.341240      186.067746
  BL        -166.137240       52.674063      187.016680
  BL        -166.702965       51.006886      187.965614
  BL        -167.268690       49.339708      188.914547
  BL        -167.834414       47.672531      189.863481
  BL        -168.400139       46.005354      190.812415
  BL        -168.965864       44.338177      191.761349
  BL        -169.531588       42.670999      192.710283
  BL        -170.097313       41.003822      193.659217
  BL        -170.663038       39.336645      194.608151
  BL        -171.228763       37.669467      195.557084
  BL        -171.794487       36.002290      196.506018
  BL        -172.360212       34.335113      197.454952
  BL        -172.925937       32.667936      198.403886
  BL        -173.491662       31.000758      199.352820
  BL        -174.057386       29.333581      200.301754
  BL        -174.623111       27.666404      201.250688
  BL        -175.188836       25.999227      202.199621
  BL        -175.754561       24.332049      203.148555
  BL        -176.320285       22.664872      204.097489
  B          148.425166     -234.895702       91.923476
  B          146.693356     -233.898140       91.998978
  B          144.961545     -232.900577       92.074480
  B          143.229734     -231.903014       92.149982
  B          141.497924     -230.905451       92.225484
  B          139.766113     -229.907888       92.300986
  B          138.034303     -228.910325       92.376488
  B          136.302492     -227.912763       92.451990
  B          134.570682     -226.915200       92.527492
  B          132.838871     -225.917637       92.602994
  B          131.107060     -224.920074       92.678496
  B          129.375250     -223.922511       92.753998
  B          127.643439     -222.924949       92.829500
  B          125.911629     -221.927386       92.905002
  B          124.179818     -220.929823       92.980503
  B          122.448008     -219.932260       93.056005
  B          120.716197     -218.934697       93.131507
  B          118.984386     -217.937134       93.207009
  B          117.252576     -216.939572       93.282511
  B          115.520765     -215.942009       93.358013
  BL         113.788955     -214.944446       93.433515
  BL         112.057144     -213.946883       93.509017
  BL         110.325333     -212.949320       93.584519
  BL         108.593523     -211.951757       93.660021
  BL         106.861712     -210.954195       93.735523
  BL         105.129902     -209.956632       93.811025
  BL         103.398091     -208.959069       93.886527
  BL         101.666281     -207.961506       93.962029
  BL          99.934470     -206.963943       94.037531
  BL          98.202659     -205.966381       94.113033
  BL          96.470849     -204.968818       94.188535
  BL          94.739038     -203.971255       94.264037
  BL          93.007228     -202.973692       94.339539
  BL          91.275417     -201.976129       94.415041
  BL          89.543607     -200.978566       94.490542
  BL          87.811796     -199.981004       94.566044
  BL          86.079985     -198.983441       94.641546
  BL          84.348175     -197.985878       94.717048
  BL          82.616364     -196.988315       94.792550
  BL          80.884554     -195.990752       94.868052
  BL          79.152743     -194.993189       94.943554
  BL          77.420933     -193.995627       95.019056
  BL          75.689122     -192.998064       95.094558
  BL          73.957311     -192.000501       95.170060
  BL          72.225501     -191.002938       95.245562
  BL          70.493690     -190.005375       95.321064
  BL          68.761880     -189.007813       95.396566
  BL          67.030069     -188.010250       95.472068
  BL          65.298259     -187.012687       95.547570
  BL          63.566448     -186.015124       95.623072
  BL          61.834637     -185.017561       95.698574
  BL          60.102827     -184.019998       95.774076
  BL          58.371016     -183.022436       95.849578
  BL          56.639206     -182.024873       95.925080
  BL          54.907395     -181.027310       96.000582
  BL          53.175584     -180.029747       96.076083
  BL          51.443774     -179.032184       96.151585
  BL          49.711963     -178.034621       96.227087
  BL          47.980153     -177.037059       96.302589
  BL          46.248342     -176.039496       96.378091
  BL          44.516532     -175.041933       96.453593
  BL          42.784721     -174.044370       96.529095
  BL          41.052910     -173.046807       96.604597
  BL          39.321100     -172.049245       96.680099
  BL          37.589289     -171.051682       96.755601
  BL          35.857479     -170.054119       96.831103
  BL          34.125668     -169.056556       96.906605
  BL          32.393858     -168.058993       96.982107
  BL          30.662047     -167.061430       97.057609
  BL          28.930236     -166.063868       97.133111
  B          -51.005760       58.615251     -108.331377
  B          -51.316660       60.379111     -109.221400
  B          -51.627559       62.142970     -110.111423
  B          -51.938458       63.906830     -111.001446
  B          -52.249358       65.670689     -111.891470
  B          -52.560257       67.434549     -112.781493
  B          -52.871157       69.198408     -113.671516
  B          -53.182056       70.962268     -114.561539
  B          -53.492955       72.726127     -115.451562
  B          -53.803855       74.489987     -116.341586
  B          -54.114754       76.253846     -117.231609
  B          -54.425653       78.017706     -118.121632
  B          -54.736553       79.781565     -119.011655
  B          -55.047452       81.545424     -119.901679
  B          -55.358352       83.309284     -120.791702
  B          -55.669251       85.073143     -121.681725
  B          -55.980150       86.837003     -122.571748
  B          -56.291050       88.600862     -123.461772
  B          -56.601949       90.364722     -124.351795
  B          -56.912848       92.128581     -125.241818
  BL         -57.223748       93.892441     -126.131841
  BL         -57.534647       95.656300     -127.021865
  BL         -57.845547       97.420160     -127.911888
  BL         -58.156446       99.184019     -128.801911
  BL         -58.467345      100.947879     -129.691934
  BL         -58.778245      102.711738     -130.581958
  BL         -59.089144      104.475598     -131.471981
  BL         -59.400044      106.239457     -132.362004
  BL         -59.710943      108.003316     -133.252027
  BL         -60.021842      109.767176     -134.142050
  BL         -60.332742      111.531035     -135.032074
  BL         -60.643641      113.294895     -135.922097
  BL         -60.954540      115.058754     -136.812120
  BL         -61.265440      116.822614     -137.702143
  BL         -61.576339      118.586473     -138.592167
  BL         -61.887239      120.350333     -139.482190
  BL         -62.198138      122.114192     -140.372213
  BL         -62.509037      123.878052     -141.262236
  BL         -62.819937      125.641911     -142.152260
  BL         -63.130836      127.405771     -143.042283
  BL         -63.441735      129.169630     -143.932306
  BL         -63.752635      130.933490     -144.822329
  BL         -64.063534      132.697349     -145.712353
  BL         -64.374434      134.461208     -146.602376
  BL         -64.685333      136.225068     -147.492399
  BL         -64.996232      137.988927     -148.382422
  BL         -65.307132      139.752787     -149.272445
  BL         -65.618031      141.516646     -150.162469
  BL         -65.928930      143.280506     -151.052492
  BL         -66.239830      145.044365     -151.942515
  BL         -66.550729      146.808225     -152.832538
  BL         -66.861629      148.572084     -153.722562
  BL         -67.172528      150.335944     -154.612585
  BL         -67.483427      152.099803     -155.502608
  BL         -67.794327      153.863663     -156.392631
  BL         -68.105226      155.627522     -157.282655
  BL         -68.416126      157.391381     -158.172678
  BL         -68.727025      159.155241     -159.062701
  BL         -69.037924      160.919100     -159.952724
  BL         -69.348824      162.682960     -160.842748
  BL         -69.659723      164.446819     -161.732771
  BL         -69.970622      166.210679     -162.622794
  BL         -70.281522      167.974538     -163.512817
  BL         -70.592421      169.738398     -164.402841
  BL         -70.903321      171.502257     -165.292864
  BL         -71.214220      173.266117     -166.182887
  BL         -71.525119      175.029976     -167.072910
  BL         -71.836019      176.793836     -167.962933
  BL         -72.146918      178.557695     -168.852957
  BL         -72.457817      180.321555     -169.742980
  B          223.157381      259.312331     -168.531161
  B          223.969318      259.126718     -170.349486
  B          224.781256      258.941105     -172.167810
  B          225.593194      258.755492     -173.986135
  B          226.405132      258.569879     -175.804460
  B          227.217070      258.384266     -177.622785
  B          228.029007      258.198653     -179.441109
  B          228.840945      258.013040     -181.259434
  B          229.652883      257.827427     -183.077759
  B          230.464821      257.641815     -184.896083
  B          231.276759      257.456202     -186.714408
  B          232.088696      257.270589     -188.532733
  B          232.900634      257.084976     -190.351058
  B          233.712572      256.899363     -192.169382
  B          234.524510      256.713750     -193.987707
  B          235.336448      256.528137     -195.806032
  B          236.148385      256.342524     -197.624357
  B          236.960323      256.156911     -199.442681
  B          237.772261      255.971298     -201.261006
  B          238.584199      255.785686     -203.079331
  BL         239.396137      255.600073     -204.897656
  BL         240.208074      255.414460     -206.715980
  BL         241.020012      255.228847     -208.534305
  BL         241.831950      255.043234     -210.352630
  BL         242.643888      254.857621     -212.170955
  BL         243.455826      254.672008     -213.989279
  BL         244.267763      254.486395     -215.807604
  BL         245.079701      254.300782     -217.625929
  BL         245.891639      254.115169     -219.444254
  BL         246.703577      253.929557     -221.262578
  BL         247.515515      253.743944     -223.080903
  BL         248.327452      253.558331     -224.899228
  BL         249.139390      253.372718     -226.717553
  BL         249.951328      253.187105     -228.535877
  BL         250.763266      253.001492     -230.354202
  BL         251.575204      252.815879     -232.172527
  BL         252.387141      252.630266     -233.990851
  BL         253.199079      252.444653     -235.809176
  BL         254.011017      252.259040     -237.627501
  BL         254.822955      252.073427     -239.445826
  BL         255.634893      251.887815     -241.264150
  BL         256.446830      251.702202     -243.082475
  BL         257.258768      251.516589     -244.900800
  BL         258.070706      251.330976     -246.719125
  BL         258.882644      251.145363     -248.537449
  BL         259.694582      250.959750     -250.355774
  BL         260.506519      250.774137     -252.174099
  BL         261.318457      250.588524     -253.992424
  BL         262.130395      250.402911     -255.810748
  BL         262.942333      250.217298     -257.629073
  BL         263.754271      250.031686     -259.447398
  BL         264.566208      249.846073     -261.265723
  BL         265.378146      249.660460     -263.084047
  BL         266.190084      249.474847     -264.902372
  BL         267.002022      249.289234     -266.720697
  BL         267.813960      249.103621     -268.539022
  BL         268.625897      248.918008     -270.357346
  BL         269.437835      248.732395     -272.175671
  BL         270.249773      248.546782     -273.993996
  BL         271.061711      248.361169     -275.812321
  BL         271.873649      248.175557     -277.630645
  BL         272.685586      247.989944     -279.448970
  BL         273.497524      247.804331     -281.267295
  BL         274.309462      247.618718     -283.085619
  BL         275.121400      247.433105     -284.903944
  BL         275.933337      247.247492     -286.722269
  BL         276.745275      247.061879     -288.540594
  BL         277.557213      246.876266     -290.358918
  BL         278.369151      246.690653     -292.177243
  BL         279.181089      246.505040     -293.995568
  B          238.696873     -121.294430      125.737393
  B          238.161828     -121.358332      123.811349
  B          237.626784     -121.422233      121.885306
  B          237.091739     -121.486134      119.959262
  B          236.556695     -121.550035      118.033218
  B          236.021650     -121.613936      116.107175
  B          235.486606     -121.677838      114.181131
  B          234.951561     -121.741739      112.255087
  B          234.416517     -121.805640      110.329044
  B          233.881472     -121.869541      108.403000
  B          233.346428     -121.933443      106.476956
  B          232.811384     -121.997344      104.550913
  B          232.276339     -122.061245      102.624869
  B          231.741295     -122.125146      100.698826
  B          231.206250     -122.189047       98.772782
  B          230.671206     -122.252949       96.846738
  B          230.136161     -122.316850       94.920695
  B          229.601117     -122.380751       92.994651
  B          229.066072     -122.444652       91.068607
  B          228.531028     -122.508553       89.142564
  BL         227.995984     -122.572455       87.216520
  BL         227.460939     -122.636356       85.290476
  BL         226.925895     -122.700257       83.364433
  BL         226.390850     -122.764158       81.438389
  BL         225.855806     -122.828060       79.512346
  BL         225.320761     -122.891961       77.586302
  BL         224.785717     -122.955862       75.660258
  BL         224.250672     -123.019763       73.734215
  BL         223.715628     -123.083664       71.808171
  BL         223.180583     -123.147566       69.882127
  BL         222.645539     -123.211467       67.956084
  BL         222.110495     -123.275368       66.030040
  BL         221.575450     -123.339269       64.103997
  BL         221.040406     -123.403171       62.177953
  BL         220.505361     -123.467072       60.251909
  BL         219.970317     -123.530973       58.325866
  BL         219.435272     -123.594874       56.399822
  BL         218.900228     -123.658775       54.473778
  BL         218.365183     -123.722677       52.547735
  BL         217.830139     -123.786578       50.621691
  BL         217.295095     -123.850479       48.695647
  BL         216.760050     -123.914380       46.769604
  BL         216.225006     -123.978281       44.843560
  BL         215.689961     -124.042183       42.917517
  BL         215.154917     -124.106084       40.991473
  BL         214.619872     -124.169985       39.065429
  BL         214.084828     -124.233886       37.139386
  BL         213.549783     -124.297788       35.213342
  BL         213.014739     -124.361689       33.287298
  BL         212.479694     -124.425590       31.361255
  BL         211.944650     -124.489491       29.435211
  BL         211.409606     -124.553392       27.509168
  BL         210.874561     -124.617294       25.583124
  BL         210.339517     -124.681195       23.657080
  BL         209.804472     -124.745096       21.731037
  BL         209.269428     -124.808997       19.804993
  BL         208.734383     -124.872899       17.878949
  BL         208.199339     -124.936800       15.952906
  BL         207.664294     -125.000701       14.026862
  BL         207.129250     -125.064602       12.100818
  BL         206.594206     -125.128503       10.174775
  BL         206.059161     -125.192405        8.248731
  BL         205.524117     -125.256306        6.322688
  BL         204.989072     -125.320207        4.396644
  BL         204.454028     -125.384108        2.470600
  BL         203.918983     -125.448009        0.544557
  BL         203.383939     -125.511911       -1.381487
  BL         202.848894     -125.575812       -3.307531
  BL         202.313850     -125.639713       -5.233574
  BL         201.778805     -125.703614       -7.159618
  B         -192.422355      206.095352      -97.991755
  B         -190.759496      205.041599      -98.344609
  B         -189.096638      203.987845      -98.697463
  B         -187.433780      202.934091      -99.050318
  B         -185.770922      201.880338      -99.403172
  B         -184.108064      200.826584      -99.756026
  B         -182.445205      199.772831     -100.108880
  B         -180.782347      198.719077     -100.461735
  B         -179.119489      197.665324     -100.814589
  B         -177.456631      196.611570     -101.167443
  B         -175.793773      195.557817     -101.520297
  B         -174.130914      194.504063     -101.873152
  B         -172.468056      193.450310     -102.226006
  B         -170.805198      192.396556     -102.578860
  B         -169.142340      191.342802     -102.931714
  B         -167.479482      190.289049     -103.284569
  B         -165.816623      189.235295     -103.637423
  B         -164.153765      188.181542     -103.990277
  B         -162.490907      187.127788     -104.343131
  B         -160.828049      186.074035     -104.695986
  BL        -159.165191      185.020281     -105.048840
  BL        -157.502333      183.966528     -105.401694
  BL        -155.839474      182.912774     -105.754548
  BL        -154.176616      181.859021     -106.107402
  BL        -152.513758      180.805267     -106.460257
  BL        -150.850900      179.751514     -106.813111
  BL        -149.188042      178.697760     -107.165965
  BL        -147.525183      177.644006     -107.518819
  BL        -145.862325      176.590253     -107.871674
  BL        -144.199467      175.536499     -108.224528
  BL        -142.536609      174.482746     -108.577382
  BL        -140.873751      173.428992     -108.930236
  BL        -139.210892      172.375239     -109.283091
  BL        -137.548034      171.321485     -109.635945
  BL        -135.885176      170.267732     -109.988799
  BL        -134.222318      169.213978     -110.341653
  BL        -132.559460      168.160225     -110.694508
  BL        -130.896601      167.106471     -111.047362
  BL        -129.233743      166.052718     -111.400216
  BL        -127.570885      164.998964     -111.753070
  BL        -125.908027      163.945210     -112.105925
  BL        -124.245169      162.891457     -112.458779
  BL        -122.582311      161.837703     -112.811633
  BL        -120.919452      160.783950     -113.164487
  BL        -119.256594      159.730196     -113.517341
  BL        -117.593736      158.676443     -113.870196
  BL        -115.930878      157.622689     -114.223050
  BL        -114.268020      156.568936     -114.575904
  BL        -112.605161      155.515182     -114.928758
  BL        -110.942303      154.461429     -115.281613
  BL        -109.279445      153.407675     -115.634467
  BL        -107.616587      152.353921     -115.987321
  BL        -105.953729      151.300168     -116.340175
  BL        -104.290870      150.246414     -116.693030
  BL        -102.628012      149.192661     -117.045884
  BL        -100.965154      148.138907     -117.398738
  BL         -99.302296      147.085154     -117.751592
  BL         -97.639438      146.031400     -118.104447
  BL         -95.976579      144.977647     -118.457301
  BL         -94.313721      143.923893     -118.810155
  BL         -92.650863      142.870140     -119.163009
  BL         -90.988005      141.816386     -119.515864
  BL         -89.325147      140.762633     -119.868718
  BL         -87.662289      139.708879     -120.221572
  BL         -85.999430      138.655125     -120.574426
  BL         -84.336572      137.601372     -120.927281
  BL         -82.673714      136.547618     -121.280135
  BL         -81.010856      135.493865     -121.632989
  BL         -79.347998      134.440111     -121.985843
  BL         -77.685139      133.386358     -122.338697
  B          229.412644       40.314555     -185.272530
  B          227.499262       39.740923     -185.172946
  B          225.585881       39.167292     -185.073361
  B          223.672499       38.593660     -184.973777
  B          221.759117       38.020029     -184.874192
  B          219.845735       37.446397     -184.774608
  B          217.932354       36.872766     -184.675023
  B          216.018972       36.299134     -184.575439
  B          214.105590       35.725502     -184.475854
  B          212.192208       35.151871     -184.376270
  B          210.278826       34.578239     -184.276685
  B          208.365445       34.004608     -184.177101
  B          206.452063       33.430976     -184.077516
  B          204.538681       32.857345     -183.977932
  B          202.625299       32.283713     -183.878347
  B          200.711918       31.710081     -183.778763
  B          198.798536       31.136450     -183.679178
  B          196.885154       30.562818     -183.579594
  B          194.971772       29.989187     -183.480009
  B          193.058391       29.415555     -183.380425
  BL         191.145009       28.841924     -183.280840
  BL         189.231627       28.268292     -183.181256
  BL         187.318245       27.694660     -183.081671
  BL         185.404864       27.121029     -182.982086
  BL         183.491482       26.547397     -182.882502
  BL         181.578100       25.973766     -182.782917
  BL         179.664718       25.400134     -182.683333
  BL         177.751337       24.826503     -182.583748
  BL         175.837955       24.252871     -182.484164
  BL         173.924573       23.679239     -182.384579
  BL         172.011191       23.105608     -182.284995
  BL         170.097810       22.531976     -182.185410
  BL         168.184428       21.958345     -182.085826
  BL         166.271046       21.384713     -181.986241
  BL         164.357664       20.811082     -181.886657
  BL         162.444283       20.237450     -181.787072
  BL         160.530901       19.663818     -181.687488
  BL         158.617519       19.090187     -181.587903
  BL         156.704137       18.516555     -181.488319
  BL         154.790756       17.942924     -181.388734
  BL         152.877374       17.369292     -181.289150
  BL         150.963992       16.795661     -181.189565
  BL         149.050610       16.222029     -181.089981
  BL         147.137229       15.648397     -180.990396
  BL         145.223847       15.074766     -180.890811
  BL         143.310465       14.501134     -180.791227
  BL         141.397083       13.927503     -180.691642
  BL         139.483701       13.353871     -180.592058
  BL         137.570320       12.780240     -180.492473
  BL         135.656938       12.206608     -180.392889
  BL         133.743556       11.632976     -180.293304
  BL         131.830174       11.059345     -180.193720
  BL         129.916793       10.485713     -180.094135
  BL         128.003411        9.912082     -179.994551
  BL         126.090029        9.338450     -179.894966
  BL         124.176647        8.764819     -179.795382
  BL         122.263266        8.191187     -179.695797
  BL         120.349884        7.617555     -179.596213
  BL         118.436502        7.043924     -179.496628
  BL         116.523120        6.470292     -179.397044
  BL         114.609739        5.896661     -179.297459
  BL         112.696357        5.323029     -179.197875
  BL         110.782975        4.749398     -179.098290
  BL         108.869593        4.175766     -178.998706
  BL         106.956212        3.602135     -178.899121
  BL         105.042830        3.028503     -178.799537
  BL         103.129448        2.454871     -178.699952
  BL         101.216066        1.881240     -178.600367
  BL          99.302685        1.307608     -178.500783
  BL          97.389303        0.733977     -178.401198
  B          -47.113995     -135.886968      229.216848
  B          -47.366718     -133.903527      229.262585
  B          -47.619440     -131.920085      229.308322
  B          -47.872163     -129.936644      229.354059
  B          -48.124885     -127.953203      229.399797
  B          -48.377608     -125.969761      229.445534
  B          -48.630331     -123.986320      229.491271
  B          -48.883053     -122.002879      229.537009
  B          -49.135776     -120.019437      229.582746
  B          -49.388498     -118.035996      229.628483
  B          -49.641221     -116.052555      229.674220
  B          -49.893944     -114.069114      229.719958
  B          -50.146666     -112.085672      229.765695
  B          -50.399389     -110.102231      229.811432
  B          -50.652112     -108.118790      229.857169
  B          -50.904834     -106.135348      229.902907
  B          -51.157557     -104.151907      229.948644
  B          -51.410279     -102.168466      229.994381
  B          -51.663002     -100.185024      230.040119
  B          -51.915725      -98.201583      230.085856
  BL         -52.168447      -96.218142      230.131593
  BL         -52.421170      -94.234701      230.177330
  BL         -52.673892      -92.251259      230.223068
  BL         -52.926615      -90.267818      230.268805
  BL         -53.179338      -88.284377      230.314542
  BL         -53.432060      -86.300935      230.360279
  BL         -53.684783      -84.317494      230.406017
  BL         -53.937505      -82.334053      230.451754
  BL         -54.190228      -80.350611      230.497491
  BL         -54.442951      -78.367170      230.543229
  BL         -54.695673      -76.383729      230.588966
  BL         -54.948396      -74.400288      230.634703
  BL         -55.201118      -72.416846      230.680440
  BL         -55.453841      -70.433405      230.726178
  BL         -55.706564      -68.449964      230.771915
  BL         -55.959286      -66.466522      230.817652
  BL         -56.212009      -64.483081      230.863389
  BL         -56.464731      -62.499640      230.909127
  BL         -56.717454      -60.516198      230.954864
  BL         -56.970177      -58.532757      231.000601
  BL         -57.222899      -56.549316      231.046338
  BL         -57.475622      -54.565875      231.092076
  BL         -57.728344      -52.582433      231.137813
  BL         -57.981067      -50.598992      231.183550
  BL         -58.233790      -48.615551      231.229288
  BL         -58.486512      -46.632109      231.275025
  BL         -58.739235      -44.648668      231.320762
  BL         -58.991957      -42.665227      231.366499
  BL         -59.244680      -40.681785      231.412237
  BL         -59.497403      -38.698344      231.457974
  BL         -59.750125      -36.714903      231.503711
  BL         -60.002848      -34.731462      231.549448
  BL         -60.255571      -32.748020      231.595186
  BL         -60.508293      -30.764579      231.640923
  BL         -60.761016      -28.781138      231.686660
  BL         -61.013738      -26.797696      231.732398
  BL         -61.266461      -24.814255      231.778135
  BL         -61.519184      -22.830814      231.823872
  BL         -61.771906      -20.847372      231.869609
  BL         -62.024629      -18.863931      231.915347
  BL         -62.277351      -16.880490      231.961084
  BL         -62.530074      -14.897049      232.006821
  BL         -62.782797      -12.913607      232.052558
  BL         -63.035519      -10.930166      232.098296
  BL         -63.288242       -8.946725      232.144033
  BL         -63.540964       -6.963283      232.189770
  BL         -63.793687       -4.979842      232.235508
  BL         -64.046410       -2.996401      232.281245
  BL         -64.299132       -1.012959      232.326982
  BL         -64.551855        0.970482      232.372719
  B         -190.725752      -90.868401     -183.867622
  B         -191.643351      -92.067548     -182.556112
  B         -192.560950      -93.266695     -181.244602
  B         -193.478550      -94.465841     -179.933092
  B         -194.396149      -95.664988     -178.621582
  B         -195.313748      -96.864135     -177.310072
  B         -196.231348      -98.063282     -175.998562
  B         -197.148947      -99.262428     -174.687052
  B         -198.066547     -100.461575     -173.375542
  B         -198.984146     -101.660722     -172.064032
  B         -199.901745     -102.859868     -170.752521
  B         -200.819345     -104.059015     -169.441011
  B         -201.736944     -105.258162     -168.129501
  B         -202.654543     -106.457308     -166.817991
  B         -203.572143     -107.656455     -165.506481
  B         -204.489742     -108.855602     -164.194971
  B         -205.407342     -110.054748     -162.883461
  B         -206.324941     -111.253895     -161.571951
  B         -207.242540     -112.453042     -160.260441
  B         -208.160140     -113.652188     -158.948931
  BL        -209.077739     -114.851335     -157.637421
  BL        -209.995338     -116.050482     -156.325911
  BL        -210.912938     -117.249628     -155.014401
  BL        -211.830537     -118.448775     -153.702891
  BL        -212.748137     -119.647922     -152.391381
  BL        -213.665736     -120.847068     -151.079871
  BL        -214.583335     -122.046215     -149.768360
  BL        -215.500935     -123.245362     -148.456850
  BL        -216.418534     -124.444508     -147.145340
  BL        -217.336133     -125.643655     -145.833830
  BL        -218.253733     -126.842802     -144.522320
  BL        -219.171332     -128.041948     -143.210810
  BL        -220.088932     -129.241095     -141.899300
  BL        -221.006531     -130.440242     -140.587790
  BL        -221.924130     -131.639388     -139.276280
  BL        -222.841730     -132.838535     -137.964770
  BL        -223.759329     -134.037682     -136.653260
  BL        -224.676928     -135.236828     -135.341750
  BL        -225.594528     -136.435975     -134.030240
  BL        -226.512127     -137.635122     -132.718730
  BL        -227.429727     -138.834268     -131.407220
  BL        -228.347326     -140.033415     -130.095710
  BL        -229.264925     -141.232562     -128.784199
  BL        -230.182525     -142.431708     -127.472689
  BL        -231.100124     -143.630855     -126.161179
  BL        -232.017723     -144.830002     -124.849669
  BL        -232.935323     -146.029148     -123.538159
  BL        -233.852922     -147.228295     -122.226649
  BL        -234.770521     -148.427442     -120.915139
  BL        -235.688121     -149.626589     -119.603629
  BL        -236.605720     -150.825735     -118.292119
  BL        -237.523320     -152.024882     -116.980609
  BL        -238.440919     -153.224029     -115.669099
  BL        -239.358518     -154.423175     -114.357589
  BL        -240.276118     -155.622322     -113.046079
  BL        -241.193717     -156.821469     -111.734569
  BL        -242.111316     -158.020615     -110.423059
  BL        -243.028916     -159.219762     -109.111549
  BL        -243.946515     -160.418909     -107.800038
  BL        -244.864115     -161.618055     -106.488528
  BL        -245.781714     -162.817202     -105.177018
  BL        -246.699313     -164.016349     -103.865508
  BL        -247.616913     -165.215495     -102.553998
  BL        -248.534512     -166.414642     -101.242488
  BL        -249.452111     -167.613789      -99.930978
  BL        -250.369711     -168.812935      -98.619468
  BL        -251.287310     -170.012082      -97.307958
  BL        -252.204910     -171.211229      -95.996448
  BL        -253.122509     -172.410375      -94.684938
  BL        -254.040108     -173.609522      -93.373428
  B           89.548150      238.008621     -229.366953
  B           90.663470      236.396678     -229.764069
  B           91.778791      234.784735     -230.161185
  B           92.894112      233.172793     -230.558300
  B           94.009432      231.560850     -230.955416
  B           95.124753      229.948908     -231.352532
  B           96.240074      228.336965     -231.749647
  B           97.355394      226.725022     -232.146763
  B           98.470715      225.113080     -232.543879
  B           99.586035      223.501137     -232.940995
  B          100.701356      221.889195     -233.338110
  B          101.816677      220.277252     -233.735226
  B          102.931997      218.665309     -234.132342
  B          104.047318      217.053367     -234.529457
  B          105.162639      215.441424     -234.926573
  B          106.277959      213.829481     -235.323689
  B          107.393280      212.217539     -235.720805
  B          108.508601      210.605596     -236.117920
  B          109.623921      208.993654     -236.515036
  B          110.739242      207.381711     -236.912152
  BL         111.854563      205.769768     -237.309267
  BL         112.969883      204.157826     -237.706383
  BL         114.085204      202.545883     -238.103499
  BL         115.200524      200.933941     -238.500615
  BL         116.315845      199.321998     -238.897730
  BL         117.431166      197.710055     -239.294846
  BL         118.546486      196.098113     -239.691962
  BL         119.661807      194.486170     -240.089077
  BL         120.777128      192.874228     -240.486193
  BL         121.892448      191.262285     -240.883309
  BL         123.007769      189.650342     -241.280424
  BL         124.123090      188.038400     -241.677540
  BL         125.238410      186.426457     -242.074656
  BL         126.353731      184.814515     -242.471772
  BL         127.469052      183.202572     -242.868887
  BL         128.584372      181.590629     -243.266003
  BL         129.699693      179.978687     -243.663119
  BL         130.815014      178.366744     -244.060234
  BL         131.930334      176.754801     -244.457350
  BL         133.045655      175.142859     -244.854466
  BL         134.160975      173.530916     -245.251582
  BL         135.276296      171.918974     -245.648697
  BL         136.391617      170.307031     -246.045813
  BL         137.506937      168.695088     -246.442929
  BL         138.622258      167.083146     -246.840044
  BL         139.737579      165.471203     -247.237160
  BL         140.852899      163.859261     -247.634276
  BL         141.968220      162.247318     -248.031392
  BL         143.083541      160.635375     -248.428507
  BL         144.198861      159.023433     -248.825623
  BL         145.314182      157.411490     -249.222739
  BL         146.429503      155.799548     -249.619854
  BL         147.544823      154.187605     -250.016970
  BL         148.660144      152.575662     -250.414086
  BL         149.775464      150.963720     -250.811202
  BL         150.890785      149.351777     -251.208317
  BL         152.006106      147.739835     -251.605433
  BL         153.121426      146.127892     -252.002549
  BL         154.236747      144.515949     -252.399664
  BL         155.352068      142.904007     -252.796780
  BL         156.467388      141.292064     -253.193896
  BL         157.582709      139.680121     -253.591011
  BL         158.698030      138.068179     -253.988127
  BL         159.813350      136.456236     -254.385243
  BL         160.928671      134.844294     -254.782359
  BL         162.043992      133.232351     -255.179474
  BL         163.159312      131.620408     -255.576590
  BL         164.274633      130.008466     -255.973706
  BL         165.389953      128.396523     -256.370821
  BL         166.505274      126.784581     -256.767937
  B          193.225337      248.469008      -35.684460
  B          193.436445      247.398116      -34.008565
  B          193.647553      246.327225      -32.332670
  B          193.858660      245.256333      -30.656775
  B          194.069768      244.185442      -28.980879
  B          194.280876      243.114550      -27.304984
  B          194.491983      242.043659      -25.629089
  B          194.703091      240.972767      -23.953194
  B          194.914199      239.901875      -22.277299
  B          195.125306      238.830984      -20.601403
  B          195.336414      237.760092      -18.925508
  B          195.547522      236.689201      -17.249613
  B          195.758629      235.618309      -15.573718
  B          195.969737      234.547418      -13.897822
  B          196.180844      233.476526      -12.221927
  B          196.391952      232.405635      -10.546032
  B          196.603060      231.334743       -8.870137
  B          196.814167      230.263851       -7.194241
  B          197.025275      229.192960       -5.518346
  B          197.236383      228.122068       -3.842451
  BL         197.447490      227.051177       -2.166556
  BL         197.658598      225.980285       -0.490661
  BL         197.869706      224.909394        1.185235
  BL         198.080813      223.838502        2.861130
  BL         198.291921      222.767610        4.537025
  BL         198.503029      221.696719        6.212920
  BL         198.714136      220.625827        7.888816
  BL         198.925244      219.554936        9.564711
  BL         199.136352      218.484044       11.240606
  BL         199.347459      217.413153       12.916501
  BL         199.558567      216.342261       14.592397
  BL         199.769675      215.271370       16.268292
  BL         199.980782      214.200478       17.944187
  BL         200.191890      213.129586       19.620082
  BL         200.402998      212.058695       21.295977
  BL         200.614105      210.987803       22.971873
  BL         200.825213      209.916912       24.647768
  BL         201.036320      208.846020       26.323663
  BL         201.247428      207.775129       27.999558
  BL         201.458536      206.704237       29.675454
  BL         201.669643      205.633346       31.351349
  BL         201.880751      204.562454       33.027244
  BL         202.091859      203.491562       34.703139
  BL         202.302966      202.420671       36.379035
  BL         202.514074      201.349779       38.054930
  BL         202.725182      200.278888       39.730825
  BL         202.936289      199.207996       41.406720
  BL         203.147397      198.137105       43.082615
  BL         203.358505      197.066213       44.758511
  BL         203.569612      195.995322       46.434406
  BL         203.780720      194.924430       48.110301
  BL         203.991828      193.853538       49.786196
  BL         204.202935      192.782647       51.462092
  BL         204.414043      191.711755       53.137987
  BL         204.625151      190.640864       54.813882
  BL         204.836258      189.569972       56.489777
  BL         205.047366      188.499081       58.165673
  BL         205.258474      187.428189       59.841568
  BL         205.469581      186.357298       61.517463
  BL         205.680689      185.286406       63.193358
  BL         205.891796      184.215514       64.869254
  BL         206.102904      183.144623       66.545149
  BL         206.314012      182.073731       68.221044
  BL         206.525119      181.002840       69.896939
  BL         206.736227      179.931948       71.572834
  BL         206.947335      178.861057       73.248730
  BL         207.158442      177.790165       74.924625
  BL         207.369550      176.719273       76.600520
  BL         207.580658      175.648382       78.276415
  BL         207.791765      174.577490       79.952311
  B          117.243635     -246.784408      191.546999
  B          115.301210     -246.745956      191.072123
  B          113.358785     -246.707504      190.597247
  B          111.416361     -246.669052      190.122370
  B          109.473936     -246.630600      189.647494
  B          107.531511     -246.592149      189.172618
  B          105.589086     -246.553697      188.697741
  B          103.646662     -246.515245      188.222865
  B          101.704237     -246.476793      187.747989
  B           99.761812     -246.438341      187.273112
  B           97.819387     -246.399889      186.798236
  B           95.876963     -246.361437      186.323360
  B           93.934538     -246.322986      185.848483
  B           91.992113     -246.284534      185.373607
  B           90.049688     -246.246082      184.898730
  B           88.107264     -246.207630      184.423854
  B           86.164839     -246.169178      183.948978
  B           84.222414     -246.130726      183.474101
  B           82.279989     -246.092274      182.999225
  B           80.337565     -246.053823      182.524349
  BL          78.395140     -246.015371      182.049472
  BL          76.452715     -245.976919      181.574596
  BL          74.510290     -245.938467      181.099720
  BL          72.567866     -245.900015      180.624843
  BL          70.625441     -245.861563      180.149967
  BL          68.683016     -245.823111      179.675091
  BL          66.740591     -245.784659      179.200214
  BL          64.798167     -245.746208      178.725338
  BL          62.855742     -245.707756      178.250461
  BL          60.913317     -245.669304      177.775585
  BL          58.970892     -245.630852      177.300709
  BL          57.028468     -245.592400      176.825832
  BL          55.086043     -245.553948      176.350956
  BL          53.143618     -245.515496      175.876080
  BL          51.201194     -245.477045      175.401203
  BL          49.258769     -245.438593      174.926327
  BL          47.316344     -245.400141      174.451451
  BL          45.373919     -245.361689      173.976574
  BL          43.431495     -245.323237      173.501698
  BL          41.489070     -245.284785      173.026822
  BL          39.546645     -245.246333      172.551945
  BL          37.604220     -245.207882      172.077069
  BL          35.661796     -245.169430      171.602193
  BL          33.719371     -245.130978      171.127316
  BL          31.776946     -245.092526      170.652440
  BL          29.834521     -245.054074      170.177563
  BL          27.892097     -245.015622      169.702687
  BL          25.949672     -244.977170      169.227811
  BL          24.007247     -244.938719      168.752934
  BL          22.064822     -244.900267      168.278058
  BL          20.122398     -244.861815      167.803182
  BL          18.179973     -244.823363      167.328305
  BL          16.237548     -244.784911      166.853429
  BL          14.295123     -244.746459      166.378553
  BL          12.352699     -244.708007      165.903676
  BL          10.410274     -244.669555      165.428800
  BL           8.467849     -244.631104      164.953924
  BL           6.525424     -244.592652      164.479047
  BL           4.583000     -244.554200      164.004171
  BL           2.640575     -244.515748      163.529294
  BL           0.698150     -244.477296      163.054418
  BL          -1.244275     -244.438844      162.579542
  BL          -3.186699     -244.400392      162.104665
  BL          -5.129124     -244.361941      161.629789
  BL          -7.071549     -244.323489      161.154913
  BL          -9.013974     -244.285037      160.680036
  BL         -10.956398     -244.246585      160.205160
  BL         -12.898823     -244.208133      159.730284
  BL         -14.841248     -244.169681      159.255407
  BL         -16.783673     -244.131229      158.780531
