70
polyB_n1
B      5      0     0
B      7      0     0
B      9      0     0
B      11      0     0
B      13      0     0
B      15      0     0
B      17      0     0
B      19      0     0
B      21      0     0
B      23      0     0
B      25      0     0
B      27      0     0
B      29      0     0
B      31      0     0
B      33      0     0
B      35      0     0
B      37      0     0
B      39      0     0
B      41      0     0
B      43      0     0
BL      45      0     0
BL      47      0     0
BL      49      0     0
BL      51      0     0
BL      53      0     0
BL      55      0     0
BL      57      0     0
BL      59      0     0
BL      61      0     0
BL      63      0     0
BL      65      0     0
BL      67      0     0
BL      69      0     0
BL      71      0     0
BL      73      0     0
BL      75      0     0
BL      77      0     0
BL      79      0     0
BL      81      0     0
BL      83      0     0
BL      85      0     0
BL      87      0     0
BL      89      0     0
BL      91      0     0
BL      93      0     0
BL      95      0     0
BL      97      0     0
BL      99      0     0
BL      101      0     0
BL      103      0     0
BL      105      0     0
BL      107      0     0
BL      109      0     0
BL      111      0     0
BL      113      0     0
BL      115      0     0
BL      117      0     0
BL      119      0     0
BL      121      0     0
BL      123      0     0
BL      125      0     0
BL      127      0     0
BL      129      0     0
BL      131      0     0
BL      133      0     0
BL      135      0     0
BL      137      0     0
BL      139      0     0
BL      141      0     0
BL      143      0     0
