70
polyA_n1
A      5      0     0
A      7      0     0
A      9      0     0
A      11      0     0
A      13      0     0
A      15      0     0
A      17      0     0
A      19      0     0
A      21      0     0
A      23      0     0
A      25      0     0
A      27      0     0
A      29      0     0
A      31      0     0
A      33      0     0
A      35      0     0
A      37      0     0
A      39      0     0
A      41      0     0
A      43      0     0
AL      45      0     0
AL      47      0     0
AL      49      0     0
AL      51      0     0
AL      53      0     0
AL      55      0     0
AL      57      0     0
AL      59      0     0
AL      61      0     0
AL      63      0     0
AL      65      0     0
AL      67      0     0
AL      69      0     0
AL      71      0     0
AL      73      0     0
AL      75      0     0
AL      77      0     0
AL      79      0     0
AL      81      0     0
AL      83      0     0
AL      85      0     0
AL      87      0     0
AL      89      0     0
AL      91      0     0
AL      93      0     0
AL      95      0     0
AL      97      0     0
AL      99      0     0
AL      101      0     0
AL      103      0     0
AL      105      0     0
AL      107      0     0
AL      109      0     0
AL      111      0     0
AL      113      0     0
AL      115      0     0
AL      117      0     0
AL      119      0     0
AL      121      0     0
AL      123      0     0
AL      125      0     0
AL      127      0     0
AL      129      0     0
AL      131      0     0
AL      133      0     0
AL      135      0     0
AL      137      0     0
AL      139      0     0
AL      141      0     0
AL      143      0     0
