LAMMPS (5 Jun 2019)
Reading data file ...
  orthogonal box = (-420 -420 -420) to (420 420 420)
  2 by 2 by 7 MPI processor grid
  reading atoms ...
  14000 atoms
  scanning bonds ...
  51 = max bonds/atom
  scanning angles ...
  1 = max angles/atom
  reading bonds ...
  13800 bonds
  reading angles ...
  13600 angles
Finding 1-2 1-3 1-4 neighbors ...
  special bond factors lj:   0          0          0         
  special bond factors coul: 0          0          0         
  2 = max # of 1-2 neighbors
  2 = max # of 1-3 neighbors
  4 = max # of 1-4 neighbors
  56 = max # of special neighbors
  special bonds CPU = 0.659584 secs
  read_data CPU = 0.708905 secs
Finding 1-2 1-3 1-4 neighbors ...
  special bond factors lj:   1          1          1         
  special bond factors coul: 0          0          0         
  2 = max # of 1-2 neighbors
  2 = max # of 1-3 neighbors
  4 = max # of 1-4 neighbors
  56 = max # of special neighbors
  special bonds CPU = 0.000608432 secs
WARNING: Using 'neigh_modify every 1 delay 0 check yes' setting during minimization (../min.cpp:168)
Neighbor list info ...
  update every 1 steps, delay 0 steps, check yes
  max neighbors/atom: 2000, page size: 100000
  master list distance cutoff = 26.9
  ghost atom cutoff = 26.9
  binsize = 13.45, bins = 63 63 63
  1 neighbor lists, perpetual/occasional/extra = 1 0 0
  (1) pair lj/cut, perpetual
      attributes: half, newton on
      pair build: half/bin/newton
      stencil: half/bin/3d/newton
      bin: standard
Setting up cg style minimization ...
  Unit style    : real
  Current step  : 0
Per MPI rank memory allocation (min/avg/max) = 1.165 | 13.79 | 17.67 Mbytes
Step Temp E_pair E_mol TotEng Press 
       0            0 1.5959422e+12      2649600 1.5959449e+12 7.3854599e+08 
    2872            0   -1769.6168    5348.8369    3579.2201  0.031182827 
Loop time of 0.854235 on 28 procs for 2872 steps with 14000 atoms

99.3% CPU use with 28 MPI tasks x no OpenMP threads

Minimization stats:
  Stopping criterion = energy tolerance
  Energy initial, next-to-last, final = 
     1.59594489115e+12      3579.56365059      3579.22009235
  Force two-norm initial, final = 4.92929e+10 2.03587
  Force max component initial, final = 1.05441e+09 0.154693
  Final line search alpha, max atom move = 0.461827 0.0714414
  Iterations, force evaluations = 2872 3119

MPI task timing breakdown:
Section |  min time  |  avg time  |  max time  |%varavg| %total
---------------------------------------------------------------
Pair    | 0.04268    | 0.14314    | 0.26726    |  17.6 | 16.76
Bond    | 0.014091   | 0.039289   | 0.070866   |   8.1 |  4.60
Neigh   | 0.090871   | 0.09199    | 0.093306   |   0.2 | 10.77
Comm    | 0.14088    | 0.27921    | 0.42818    |  14.7 | 32.69
Output  | 0          | 0          | 0          |   0.0 |  0.00
Modify  | 0          | 0          | 0          |   0.0 |  0.00
Other   |            | 0.3006     |            |       | 35.19

Nlocal:    500 ave 911 max 179 min
Histogram: 3 3 4 4 5 0 2 3 2 2
Nghost:    314.393 ave 518 max 130 min
Histogram: 3 2 3 3 4 4 3 3 2 1
Neighs:    3173.18 ave 5987 max 902 min
Histogram: 3 2 6 3 5 0 1 3 3 2

Total # of neighbors = 88849
Ave neighs/atom = 6.34636
Ave special neighs/atom = 5.82857
Neighbor list builds = 199
Dangerous builds = 0
Setting up Verlet run ...
  Unit style    : real
  Current step  : 2872
  Time step     : 0.1
Per MPI rank memory allocation (min/avg/max) = 1.127 | 13.42 | 16.54 Mbytes
Step Temp E_pair E_mol TotEng Press 
    2872            0   -1769.6168    5348.8369    3579.2201  0.031182827 
   12872    221.82462   -1491.2279    9145.8582    16911.008   -1.7332193 
Loop time of 1.52368 on 28 procs for 10000 steps with 14000 atoms

Performance: 56.705 ns/day, 0.423 hours/ns, 6563.048 timesteps/s
99.3% CPU use with 28 MPI tasks x no OpenMP threads

MPI task timing breakdown:
Section |  min time  |  avg time  |  max time  |%varavg| %total
---------------------------------------------------------------
Pair    | 0.045569   | 0.1688     | 0.36192    |  21.4 | 11.08
Bond    | 0.037043   | 0.10614    | 0.19435    |  13.5 |  6.97
Neigh   | 0.0018356  | 0.0018687  | 0.0019041  |   0.0 |  0.12
Comm    | 0.42037    | 0.6377     | 0.8372     |  15.5 | 41.85
Output  | 7.0425e-05 | 9.6029e-05 | 0.00011306 |   0.0 |  0.01
Modify  | 0.089957   | 0.24966    | 0.46161    |  20.5 | 16.39
Other   |            | 0.3594     |            |       | 23.59

Nlocal:    500 ave 909 max 180 min
Histogram: 3 3 4 4 5 0 2 3 2 2
Nghost:    314.714 ave 512 max 133 min
Histogram: 3 2 3 3 4 3 4 3 2 1
Neighs:    3180.96 ave 5966 max 934 min
Histogram: 3 2 6 4 4 0 1 3 3 2

Total # of neighbors = 89067
Ave neighs/atom = 6.36193
Ave special neighs/atom = 5.82857
Neighbor list builds = 4
Dangerous builds = 0
4000 atoms in group rxnSites
Neighbor list info ...
  update every 1 steps, delay 1 steps, check yes
  max neighbors/atom: 2000, page size: 100000
  master list distance cutoff = 26.9
  ghost atom cutoff = 26.9
  binsize = 13.45, bins = 63 63 63
  2 neighbor lists, perpetual/occasional/extra = 1 1 0
  (1) pair lj/cut, perpetual
      attributes: half, newton on
      pair build: half/bin/newton
      stencil: half/bin/3d/newton
      bin: standard
  (2) fix bond/create/random, occasional, copy from (1)
      attributes: half, newton on
      pair build: copy
      stencil: none
      bin: none
Setting up Verlet run ...
  Unit style    : real
  Current step  : 0
  Time step     : 25
Per MPI rank memory allocation (min/avg/max) = 17.76 | 18.29 | 18.84 Mbytes
Step E_pair PotEng KinEng E_bond E_angle Temp Bonds 
       0   -1491.2279    7654.6303    9256.3778    3067.2004    6078.6578    221.82462    13800 
 1000000   -302.04682    10711.554    12847.452    2935.4665    8078.1348    307.88299    14382 
 2000000   -291.88182    10826.405     12856.38    2904.1165      8214.17    308.09694    14410 
 3000000   -263.54146    10633.448    12891.711    2710.1921    8186.7974    308.94364    14487 
 4000000   -262.30609    10686.446    12857.617    2773.3615     8175.391    308.12659    14481 
 5000000   -271.67465    10477.826    12915.942    2678.7421    8070.7581    309.52432    14519 
 6000000    -279.1888    10612.978    12938.976    2763.0994    8129.0674    310.07632    14470 
 7000000   -260.56814    10355.342     12775.03     2580.623    8035.2871    306.14743    14533 
 8000000   -272.34972    10525.759    12772.081    2683.7788      8114.33    306.07676    14525 
 9000000   -261.65164    10298.074    12879.885    2541.3838    8018.3421    308.66023    14598 
10000000   -301.30616    10281.246    13018.413    2433.6366    8148.9154    311.97999    14601 
11000000   -283.28411    10333.383    13027.937    2478.5053    8138.1621    312.20823    14611 
12000000   -274.69919    10382.644    13020.729    2497.1083    8160.2352    312.03549    14594 
13000000   -289.72462    10498.229    12919.228    2578.2456     8209.708    309.60307    14542 
14000000   -308.93104    10331.354    12777.283    2576.0812    8064.2035    306.20141    14571 
15000000   -271.38774    10300.305    12948.403    2442.4218    8129.2712    310.30223    14617 
16000000     -262.202    10403.073    12911.652    2616.4431    8048.8316     309.4215    14553 
17000000   -265.33436    10284.559    12862.088    2463.2266    8086.6663    308.23374    14619 
18000000   -279.20899    10148.136    12847.617    2342.6958    8084.6489    307.88695    14636 
19000000   -274.71923     10528.51    12983.234    2595.7965    8207.4325    311.13692    14556 
20000000   -255.20157    10547.066     12901.67     2555.792    8246.4755    309.18229    14567 
21000000   -274.68663    10241.089    12874.931    2373.4076    8142.3683     308.5415    14589 
22000000   -256.98536    10422.504    13027.688    2481.8281    8197.6611    312.20226    14584 
23000000   -275.12652    10357.209    12938.236    2492.2329    8140.1026    310.05858    14593 
24000000   -259.14267    10500.896    12948.758    2583.9173     8176.121    310.31073    14585 
25000000   -287.88284    10353.856     12960.53     2538.314    8103.4248    310.59284    14578 
26000000   -250.61356    10495.753    13038.891    2581.3789    8164.9881    312.47073    14591 
27000000   -286.39879    10430.245    13016.001    2590.1978    8126.4464    311.92218    14575 
28000000   -272.10519    10339.693    13010.045    2536.8242    8074.9742    311.77944    14590 
29000000   -279.42716    10261.807    12850.662    2434.8159    8106.4185    307.95992    14606 
30000000   -268.49851    10316.906     13024.54    2548.9627    8036.4421    312.12682    14592 
31000000   -285.20473    10421.326    12887.095    2582.8927    8123.6378    308.83301    14564 
32000000   -292.41939    10410.307    12900.207    2616.7789    8085.9471    309.14724    14531 
33000000   -275.14837    10268.479    12991.524    2485.0984    8058.5288     311.3356    14595 
34000000   -262.90832     10291.73    13018.466    2525.8924    8028.7454    311.98125    14556 
35000000   -282.13487    10459.377    12982.787    2523.5381    8217.9737    311.12623    14580 
36000000   -274.96067    10473.772    12791.958    2595.5758    8153.1567    306.55309    14551 
37000000   -275.13421     10495.76    12975.087    2630.8823    8140.0122     310.9417    14542 
38000000   -273.27547    10410.637    12955.242    2568.8921    8115.0208    310.46612    14590 
39000000   -275.37884    10416.224    13056.302    2564.4401     8127.163    312.88798    14563 
40000000   -270.14061    10299.642    13039.574    2486.9774    8082.8055     312.4871    14570 
41000000   -275.27786    10249.761    12837.765    2528.2816    7996.7574    307.65083    14573 
42000000   -306.19592    10265.712    12849.837    2478.6125    8093.2953    307.94013    14561 
43000000   -272.32339    10229.739     12974.37    2404.9056    8097.1564    310.92451    14605 
44000000     -296.017    10396.951    12845.879    2546.6135     8146.354     307.8453    14594 
45000000   -271.59044    10271.464    12917.979    2475.8644    8067.1905    309.57313    14568 
46000000   -295.78843    10377.937    12802.901     2531.549    8142.1762    306.81534    14566 
47000000   -305.03863    10634.273    12898.375    2744.6947    8194.6172    309.10333    14530 
48000000   -251.15814    10502.243    13025.923     2666.605    8086.7964    312.15997    14556 
49000000   -300.03924    10444.335    13142.727    2516.0862    8228.2875     314.9591    14591 
50000000   -273.61546    10443.681    12855.553    2594.8243    8122.4723    308.07712    14553 
51000000   -271.45219    10322.253    12944.876    2471.6715     8122.034     310.2177    14576 
52000000   -259.01557    10335.058    12936.178    2460.0295    8134.0443    310.00927    14582 
53000000   -281.72927    10597.663    12880.539    2546.6912    8332.7005    308.67589    14557 
54000000   -290.62892    10277.742    12863.123    2501.8295     8066.541    308.25852    14549 
55000000   -278.15434    10391.116    12953.426    2449.8548    8219.4153    310.42261    14582 
56000000   -251.90713    10357.373    12880.991    2542.5357     8066.744    308.68673    14569 
57000000   -250.63316    10332.968    12862.776    2484.1383    8099.4633    308.25021    14602 
58000000   -259.66493    10313.615    12916.171    2478.6825    8094.5971     309.5298    14564 
59000000   -281.79982    10592.162    12934.653    2606.6331    8267.3288     309.9727    14542 
60000000   -277.93619    10419.996    12912.676    2594.1927    8103.7395    309.44604    14562 
61000000   -263.17356     10371.36    12866.282    2513.6009    8120.9326    308.33423    14557 
62000000   -293.20677    10395.109    12902.537    2600.0619     8088.254    309.20308    14543 
63000000   -295.94663    10156.556    12856.959    2351.6105    8100.8921    308.11081    14596 
64000000   -262.99268     10513.85    12752.027    2579.0962    8197.7469    305.59616    14552 
65000000   -286.29914    10513.443    12871.621    2630.3512    8169.3906    308.46219    14553 
66000000   -265.49031    10403.498    13068.461    2458.6292    8210.3588    313.17935    14560 
67000000   -259.96817    10276.908    12879.342    2489.0566    8047.8198    308.64721    14599 
68000000   -264.10912    10373.563    12926.355     2492.849    8144.8236    309.77386    14602 
69000000   -291.61995     10284.44    13138.831    2513.8911    8062.1684    314.86573    14581 
70000000    -274.2526    10439.984    12813.752    2556.6059    8157.6311    307.07538    14586 
71000000   -256.10392    10255.425    12822.606    2470.3446    8041.1842    307.28757    14617 
72000000   -294.84024    10141.126    13027.084    2276.8932    8159.0726    312.18777    14662 
73000000   -305.14535    10229.353    12947.862    2454.9108    8079.5879    310.28927    14612 
74000000   -248.23476    10227.653    12824.354    2430.9534    8044.9348    307.32945    14636 
75000000   -289.31433    10224.269    12865.204    2388.1676    8125.4153     308.3084    14656 
76000000   -282.75898    10167.505    12797.635    2516.5534    7933.7107    306.68914    14626 
77000000   -293.50577    10312.728    12930.005    2424.6737    8181.5601    309.86133    14611 
78000000   -292.03336    10225.475     12842.13    2437.9784    8079.5299    307.75546    14635 
79000000   -273.67087    10376.078    13121.508    2566.3931    8083.3559     314.4506    14566 
80000000   -306.26404    10265.402    12754.275    2472.6418    8099.0243    305.65005    14624 
81000000   -285.84168    10264.005    12857.731    2476.5971      8073.25     308.1293    14607 
82000000   -259.48454    10183.618    12805.309    2394.6322    8048.4699    306.87305    14657 
83000000   -270.68011    10404.595     12769.25    2541.6042    8133.6712    306.00891    14634 
84000000    -283.5177    10322.109    12913.748    2439.1933    8166.4332    309.47175    14637 
85000000   -301.90423    10075.601     12879.02    2385.2797    7992.2252     308.6395    14668 
86000000   -282.34214    10255.779    12910.503    2440.9759    8097.1451    309.39398    14629 
87000000    -263.8925    10228.702    13045.038    2360.4053    8132.1892    312.61804    14650 
88000000   -299.05721    10117.385     12991.69    2290.9458    8125.4968    311.33958    14652 
89000000   -301.74447    10301.414    12967.767     2428.362    8174.7961    310.76628    14655 
90000000   -274.97642    10295.402    12961.576    2390.6923    8179.6861    310.61792    14672 
91000000   -310.36728     10275.67    13086.047    2507.1672    8078.8702     313.6008    14614 
92000000   -270.49835    10370.506    12959.824    2533.9222    8107.0824    310.57593    14602 
93000000   -313.05113    10091.761     12964.98    2405.4146    7999.3973    310.69949    14617 
94000000   -278.94442    10314.968    12747.779    2402.0133    8191.8993    305.49437    14604 
95000000   -248.27676    10196.452     13007.23    2365.4007    8079.3282    311.71199    14637 
96000000   -316.60574    10310.708    12929.532     2451.404    8175.9094    309.84999    14587 
97000000   -277.26921    10236.116    12813.787    2425.8561    8087.5293    307.07621    14585 
98000000    -279.0859    10495.631    12931.671    2535.7725    8238.9447    309.90124    14613 
99000000   -262.20466    10333.135    13027.152    2465.0806    8130.2595     312.1894    14619 
100000000    -266.1928    10273.472    12980.115    2449.0545    8090.6101    311.06219    14623 
101000000   -266.52889    10219.358    12961.313     2495.469    7990.4178     310.6116    14588 
102000000    -274.1137    10219.384    13018.607    2492.3652    8001.1321    311.98462    14587 
103000000   -300.86285    10465.562    12976.664    2594.1257    8172.2987    310.97949    14584 
104000000   -296.79334    10147.499    12868.245    2378.2235    8066.0692    308.38128    14646 
105000000   -308.10811    10169.094    12929.727    2384.4203    8092.7819    309.85466    14636 
106000000   -285.15442     10371.53    12939.636    2514.9462    8141.7381    310.09212    14575 
107000000   -241.14361    10304.558    12840.106    2507.5022    8038.1993    307.70693    14602 
108000000   -297.51047    10278.883    12860.031    2468.9532    8107.4407    308.18443    14628 
109000000   -263.50117     10246.68    12929.039    2469.8501    8040.3308    309.83817    14589 
110000000   -310.59258    10355.976    13016.474    2536.9724    8129.5961    311.93352    14603 
111000000   -273.61372    10347.337    12923.652    2560.6403    8060.3108    309.70907    14584 
112000000   -294.88878    10271.924    12891.584    2377.7649    8189.0476    308.94059    14602 
113000000   -297.08844    10220.517     13133.09    2467.8867    8049.7185    314.72817    14611 
114000000   -282.49257    10429.941    12896.922    2545.7551     8166.678    309.06851    14589 
115000000   -284.69611     10330.34    12948.597    2547.0979    8067.9385    310.30687    14578 
116000000   -307.19844    10284.447    12986.544    2436.5989    8155.0469    311.21625    14633 
117000000   -304.29948    10398.141    12946.102    2525.9093    8176.5309    310.24707    14535 
118000000   -296.38807    10267.192    13019.527    2469.5752    8094.0047    312.00669    14598 
119000000   -299.52055    10416.017    13043.797    2571.5022    8144.0349    312.58829    14567 
120000000   -285.87099    10251.387    12874.778    2490.6695     8046.589    308.53784    14604 
121000000   -268.54471    10221.144    12785.114    2475.9878    8013.7007    306.38908    14607 
122000000   -286.23352    10323.912    13001.349    2565.0349    8045.1106    311.57105    14559 
123000000   -314.81052    10379.426     12956.73    2526.9677    8167.2686    310.50177    14591 
124000000   -276.38362    10321.684    12806.884    2476.4718    8121.5958    306.91078    14607 
125000000   -275.69456    10169.757     12811.93    2357.4932    8087.9579    307.03172    14606 
126000000   -271.82892    10334.331    12936.085    2467.9284    8138.2315    310.00703    14605 
127000000   -302.81184    10368.473    12796.418    2594.4428    8076.8418    306.65998    14582 
128000000   -272.10911    10312.751    13036.293    2495.3382    8089.5219    312.40846    14593 
129000000   -268.86806     10378.31     12938.48    2446.5572    8200.6204    310.06443    14565 
130000000   -275.51505    10383.589    12951.681    2572.1296    8086.9742    310.38079    14574 
131000000   -298.59917    10394.875    13015.823    2597.7098    8095.7639    311.91791    14579 
132000000   -264.06507    10262.534    13018.086    2368.7046     8157.894    311.97216    14618 
133000000   -284.38289    10352.764    12889.661    2459.1711    8177.9762     308.8945    14593 
134000000   -317.89909    10295.357    12953.415    2500.6027     8112.653    310.42235    14581 
135000000   -273.87103    10535.229     12787.66    2738.4954    8070.6047    306.45009    14525 
136000000   -269.35204    10427.766    13094.727    2640.0499    8057.0677    313.80881    14551 
137000000   -266.03879    10569.319     12956.78    2573.8579    8261.5004    310.50297    14574 
138000000   -278.64755    10336.449    12847.858    2444.1448    8170.9518    307.89272    14605 
139000000   -287.74581    10389.106    13014.844      2441.79    8235.0619    311.89445    14620 
140000000   -306.98975    10372.083    12943.519    2481.8851     8197.188    310.18518    14597 
141000000   -268.77406    10306.503    12925.673    2508.6936    8066.5831     309.7575    14579 
142000000   -272.53263    10293.884    12958.691    2567.4595    7998.9575    310.54877    14586 
143000000   -284.01568    10365.509    13018.411    2474.2945    8175.2299    311.97994    14593 
144000000   -302.50711    10474.046    12941.683    2600.3859    8176.1672    310.14119    14574 
145000000   -289.22815    10253.432     12899.17    2432.6831    8109.9772    309.12238    14615 
146000000   -267.88106    10415.582    12902.101    2565.2662    8118.1964    309.19263    14572 
147000000   -259.80506    10214.797    13042.647    2391.8759    8082.7262    312.56074    14602 
148000000   -261.19478    10331.487    12862.788    2500.7853    8091.8968    308.25051    14586 
149000000   -253.59468    10293.287    12864.891    2480.0316    8066.8503    308.30091    14578 
150000000   -287.20631    10410.644    12675.375    2555.0724    8142.7781    303.75925    14603 
151000000   -300.73329    10483.365    12854.065     2538.915    8245.1835    308.04147    14601 
152000000   -301.07613    10370.172    12971.384     2502.644    8168.6039    310.85296    14589 
153000000   -302.36917    10418.907    13139.889    2525.7101    8195.5658     314.8911    14599 
154000000   -283.80289    10260.598     12826.33    2322.7094    8221.6916    307.37681    14630 
155000000   -288.59525    10434.509      12896.9    2501.4634    8221.6405    309.06799    14594 
156000000   -284.03289    10354.966    12880.148    2532.4764     8106.522    308.66652    14597 
157000000   -276.47991    10292.932     12946.08    2407.0436    8162.3681    310.24655    14634 
158000000   -277.07923    10447.352    13095.843    2550.2959    8174.1351    313.83557    14589 
159000000   -296.01631    10230.155    13000.519    2387.6052    8138.5659    311.55115    14604 
160000000   -288.11842    10484.879    13023.649     2572.056    8200.9412    312.10545    14582 
161000000   -254.85804    10368.264     12881.01    2482.6036    8140.5187    308.68719    14574 
162000000   -288.48539    10356.634    12881.486    2475.2387    8169.8812    308.69859    14598 
163000000   -301.82532    10305.584    12872.755    2447.5009    8159.9081    308.48935    14602 
164000000   -285.93051    10267.102    12943.201    2393.4222    8159.6107    310.17756    14673 
165000000   -302.35931    10559.209    12977.041    2653.4854    8208.0831    310.98852    14539 
166000000    -281.0174    10391.577    12983.812     2505.294    8167.3006    311.15078    14597 
167000000   -291.17891    10488.062    12844.554    2609.9508    8169.2904    307.81353    14569 
168000000   -286.30619    10328.924    13049.749    2504.5222     8110.708    312.73093    14565 
169000000     -284.842     10491.23    13182.662    2662.5201    8113.5515    315.91614    14563 
170000000   -282.81433    10479.217    12840.723    2535.1352    8226.8964    307.72173    14589 
171000000   -257.18617    10402.806    12914.122    2487.8187    8172.1739    309.48071    14616 
172000000   -281.41627      10361.2    12947.013    2482.5842    8160.0325    310.26892    14597 
173000000    -268.4042    10350.449    12975.608    2467.4711     8151.382    310.95419    14558 
174000000   -301.76664    10240.159    12892.833    2412.8646    8129.0615    308.97052    14636 
175000000    -271.3899    10375.142    12879.633    2515.6182    8130.9133    308.65418    14618 
176000000   -280.75669    10198.246    13082.176    2414.4144    8064.5886    313.50804    14594 
177000000   -266.55851    10500.079    12936.692    2497.7595    8268.8778    310.02159    14627 
178000000   -256.75955    10439.001    12884.568    2560.8203    8134.9406    308.77245    14594 
179000000   -284.85438    10480.638    12910.991    2614.0089    8151.4837    309.40566    14559 
180000000   -315.87177    10304.052    12930.433    2529.9126     8090.011    309.87158    14596 
181000000   -286.64071    10189.776     12779.93    2349.5075    8126.9089    306.26486    14638 
182000000   -286.67059    10434.578    12987.275    2464.0839    8257.1647    311.23376    14624 
183000000    -285.2854    10494.949    12918.381    2694.6381    8085.5968    309.58277    14553 
184000000   -271.26054     10434.24    12964.261    2514.6653    8190.8356    310.68225    14581 
185000000   -264.12413    10445.996    13013.232    2558.2539    8151.8666    311.85582    14581 
186000000   -258.98765    10379.098    13066.561    2526.3483    8111.7371    313.13382    14594 
187000000   -295.28658    10162.492    12868.616    2407.7895    8049.9896    308.39018    14626 
188000000   -293.02499    10437.288    12921.862    2665.5332    8064.7794     309.6662    14525 
189000000   -254.58933    10373.331    13043.037    2488.6613    8139.2592    312.57009    14570 
190000000   -288.09106    10383.637    12869.578     2531.818    8139.9103    308.41323    14553 
191000000   -274.43901    10603.073    12885.604    2637.3156    8240.1962    308.79729    14523 
192000000   -285.90994    10415.765    12956.093    2706.1441    7995.5313    310.48652    14576 
193000000   -262.00465    10200.962    13014.302    2448.5461    8014.4205    311.88147    14612 
194000000   -263.83015     10229.51    12967.288    2504.7841    7988.5561    310.75479    14601 
195000000   -290.73102    10293.576    12910.162    2507.2908     8077.016     309.3858    14561 
196000000   -270.27172    10442.876    13022.554    2569.7762    8143.3719    312.07921    14558 
197000000   -291.20418    10225.088    12987.603    2452.2716    8064.0205    311.24163    14584 
198000000   -292.71136    10296.367    12826.876     2571.847    8017.2313     307.3899    14549 
199000000   -274.51107    10437.941     12770.25    2572.7371    8139.7154    306.03289    14576 
200000000   -263.92833    10598.742    12914.951    2666.2635     8196.407    309.50057    14524 
201000000   -285.29664    10239.237     13108.93    2446.4277    8078.1059    314.14918    14618 
202000000   -279.55841     10223.21    12948.871    2291.4197    8211.3483    310.31343    14657 
203000000    -272.5945    10551.101    12989.907    2649.1989    8174.4964    311.29686    14527 
204000000   -280.38155    10363.305    12919.871    2550.2864    8093.4004    309.61848    14570 
205000000   -294.32785     10415.28    12875.872    2575.0053    8134.6024    308.56405    14570 
206000000   -269.56107    10442.766     12921.49    2583.9847    8128.3421    309.65727    14569 
207000000   -294.23404    10279.511     12989.86    2482.7463    8090.9987    311.29572    14613 
208000000    -275.5775    10368.521    12846.796    2456.0866    8188.0122    307.86725    14573 
209000000   -282.62723    10267.803    13091.564    2575.0255    7975.4046    313.73301    14593 
210000000   -285.48106     10280.65    12926.258    2458.3192    8107.8115    309.77153    14585 
211000000   -278.82851    10380.063    12843.357    2549.9514    8108.9397    307.78485    14612 
212000000   -268.62638    10404.931    12929.067    2493.9622    8179.5947    309.83885    14586 
213000000   -278.84752    10331.808    12947.307    2411.9674    8198.6881    310.27596    14597 
214000000   -311.56101    10385.105    12885.531    2491.9913    8204.6751    308.79552    14629 
215000000    -264.8573    10414.494    12958.668    2553.3834    8125.9683    310.54822    14598 
216000000   -303.10153    10327.027     13107.01    2536.7826    8093.3464    314.10318    14597 
217000000    -250.9786    10451.049    12845.305    2537.7106     8164.317    307.83152    14593 
218000000   -298.35498    10294.312    12876.471    2488.1557    8104.5112    308.57841    14584 
219000000   -288.36857    10327.334    12982.498    2444.4269    8171.2754    311.11929    14602 
220000000   -293.43573    10266.512     12791.28    2479.7812     8080.167    306.53685    14580 
221000000   -267.29625    10427.176     12995.54    2613.9865    8080.4859    311.43183    14550 
222000000   -259.35965    10427.599    12957.185    2534.3526    8152.6058    310.51269    14591 
223000000   -264.87696    10515.766    12853.695    2581.9751    8198.6678     308.0326    14565 
224000000   -288.81649    10298.885    13036.403    2503.1139    8084.5874     312.4111    14599 
225000000   -271.56512    10174.804    12899.177    2436.5734    8009.7954    309.12254    14604 
226000000   -280.51687    10442.336    12938.478    2632.8912    8089.9619    310.06437    14557 
227000000    -293.7749    10413.705    12844.398    2425.7547    8281.7248    307.80979    14632 
228000000   -259.69698    10440.497    12859.263    2587.5815    8112.6121    308.16604    14580 
229000000   -284.58029    10325.269    12826.737    2420.7145    8189.1343    307.38656    14603 
230000000   -247.82338    10476.238    12888.119    2544.2308    8179.8303    308.85754    14576 
231000000   -296.53834    10464.585    12759.652    2534.8991    8226.2239     305.7789    14555 
232000000    -283.8699    10403.843     12899.86    2550.0123     8137.701    309.13892    14590 
233000000   -264.61248    10510.794    12876.134    2636.0429    8139.3636    308.57034    14564 
234000000   -234.76935     10404.96    12831.539    2546.8642    8092.8646    307.50165    14586 
235000000   -293.41119    10373.553    12972.864    2537.5632    8129.4014    310.88842    14608 
236000000   -268.66343    10375.375    13066.931    2651.0258    7993.0125     313.1427    14536 
237000000    -289.5319    10438.337    12800.938    2513.7083    8214.1609    306.76831    14613 
238000000   -292.70838     10305.67    12922.206    2364.4597    8233.9184    309.67443    14640 
239000000   -286.71988    10333.782    12961.669    2551.5247    8068.9775    310.62015    14563 
240000000   -259.43475    10334.231    12950.236    2481.0329    8112.6331    310.34616    14605 
241000000   -276.65751    10336.857    12916.061    2512.6041    8100.9101    309.52717    14579 
242000000   -261.71676    10159.706    12982.456    2307.7786    8113.6446    311.11829    14626 
243000000   -260.76888    10332.619    12989.971    2508.2421    8085.1454    311.29839    14590 
244000000   -282.27393    10375.552    12856.833    2518.8358    8138.9902     308.1078    14594 
245000000   -309.96784    10348.199      12985.2    2502.3257    8155.8414    311.18404    14613 
246000000    -280.5171    10295.584    12747.408     2516.485    8059.6164    305.48548    14587 
247000000   -280.68393    10425.233     13023.59     2614.452    8091.4648    312.10404    14552 
248000000   -280.89815    10400.112    12994.593    2498.7275    8182.2825    311.40915    14587 
249000000   -275.62732    10315.608    12955.819    2476.2184    8115.0169    310.47994    14607 
250000000   -256.58907    10417.224    13030.076    2560.3519    8113.4608    312.25948    14565 
251000000   -266.11633    10303.464    12786.794    2522.4433    8047.1373    306.42934    14575 
252000000   -271.59197    10262.908    12936.188    2511.6673    8022.8331     310.0095    14569 
253000000   -251.90813    10205.874    13006.197    2340.3079    8117.4737    311.68724    14640 
254000000   -297.34956    10268.587    12743.257    2448.4528    8117.4834    305.38601    14617 
255000000    -262.0322    10305.254    12848.319    2443.8907    8123.3958    307.90377    14580 
256000000   -279.83358    10414.048    12856.811    2595.9867    8097.8946    308.10727    14582 
257000000   -288.31376    10416.806    13047.832    2567.4385    8137.6809    312.68501    14597 
258000000   -280.47796    10239.943    12943.026    2334.8175    8185.6032    310.17337    14630 
259000000   -287.57581    10361.162    13021.088    2567.8623    8080.8751    312.04409    14588 
260000000   -277.47174    10314.686    12819.656     2501.335    8090.8224    307.21687    14613 
261000000   -273.30923    10055.534    12917.382    2285.7964    8043.0464    309.55882    14655 
262000000   -292.59784    10327.047    12764.593    2513.8012     8105.844    305.89731    14563 
263000000   -295.52326    10294.782    12881.337    2472.0613    8118.2441    308.69501    14604 
264000000   -247.86797    10290.823    12947.615    2423.7101    8114.9805    310.28335    14617 
265000000   -282.15055    10220.672    12878.878    2436.4422    8066.3808     308.6361    14626 
266000000   -286.80333    10143.221     12933.57    2385.6935    8044.3311    309.94677    14592 
267000000   -275.57341    10376.867    12739.434    2449.0485     8203.392    305.29437    14590 
268000000   -275.98308    10476.156    12926.619     2654.113    8098.0261    309.78018    14552 
269000000   -284.09453     10480.65    12931.248    2667.8279    8096.9168    309.89111    14547 
270000000    -286.2738     10474.51    12911.081    2614.7876    8145.9964    309.40781    14586 
271000000   -281.63208    10464.596    12961.251    2540.4739    8205.7544    310.61013    14598 
272000000   -271.35464    10326.143    13049.853    2557.3619    8040.1359    312.73342    14591 
273000000   -248.02815    10356.912    12746.949    2438.2661    8166.6737    305.47448    14610 
274000000   -288.22293    10423.036    12851.951     2562.476    8148.7828    307.99079    14589 
275000000   -288.28909    10487.583    12870.056    2462.2808    8313.5908    308.42467    14599 
276000000   -282.62012    10311.215    12721.234    2452.2431    8141.5922    304.85823    14597 
277000000   -296.72155    10254.118    12977.375    2458.3422    8092.4975    310.99653    14579 
278000000    -256.3443    10068.122    12989.361    2309.8463    8014.6203    311.28377    14659 
279000000   -265.31271    10261.894     12766.73    2398.3063    8128.9003    305.94851    14593 
280000000   -261.41195    10243.887    13074.869     2442.065    8063.2343    313.33292    14569 
281000000   -251.06877    10205.216    12957.352    2461.7621    7994.5231    310.51668    14597 
282000000   -287.87366    10458.412    12799.996    2644.9251    8101.3604    306.74573    14560 
283000000   -272.07594    10277.474    12899.519    2399.3887    8150.1614    309.13074    14591 
284000000   -265.73561    10337.513    12979.754    2577.2155    8026.0328    311.05355    14554 
285000000   -277.53219    10325.456    12918.675    2505.7566    8097.2316    309.58981    14577 
286000000   -266.96145    10480.484    13021.511    2642.2002    8105.2451    312.05422    14541 
287000000   -259.34647    10403.166    12859.738    2627.6663    8034.8467    308.17741    14546 
288000000   -299.77188    10458.458    12806.197     2447.304    8310.9261    306.89433    14616 
289000000    -256.2595    10535.448     12856.18    2571.5743    8220.1329    308.09215    14584 
290000000   -250.10058    10264.595    12715.789    2367.7104    8146.9847    304.72773    14618 
291000000   -278.42725    10483.359    12897.921    2587.9715    8173.8148    309.09245    14586 
292000000   -245.94865    10368.918    13251.925    2491.7033    8123.1629    317.57599    14577 
293000000   -288.35307    10466.745    12860.347     2593.799     8161.299    308.19201    14578 
294000000   -297.37371    10395.376    12859.867    2557.7933    8134.9562    308.18051    14547 
295000000   -280.28266    10469.673    13063.086    2525.3403    8224.6155    313.05054    14546 
296000000   -276.59529    10402.914     12869.91    2590.3612    8089.1485    308.42119    14579 
297000000   -272.84257    10191.652    12953.675    2492.0652    7972.4293    310.42858    14618 
298000000   -273.44862    10287.773    12876.028    2508.4946    8052.7266     308.5678    14598 
299000000   -263.49253    10416.238    12995.545    2456.4194    8223.3107    311.43197    14600 
300000000   -252.92195    10370.154    12881.877    2438.0161    8185.0601    308.70796    14600 
301000000    -269.3673    10471.808    12825.266    2635.9551    8105.2206    307.35131    14542 
302000000   -262.55706    10537.196    12868.431    2556.7615    8242.9913    308.38573    14571 
303000000   -297.61194    10362.928    12977.092    2531.9169    8128.6228    310.98975    14581 
304000000   -280.76551    10296.296     12989.36    2524.0517    8053.0099    311.28374    14586 
305000000    -248.2538    10399.687    12994.186    2521.5329    8126.4079     311.3994    14610 
306000000   -295.96821    10327.571    12867.621    2486.2949    8137.2442    308.36631    14618 
307000000   -289.51183    10442.267    12889.599    2568.5674    8163.2115    308.89302    14560 
308000000   -290.89387    10200.157    12835.483    2431.2112    8059.8393    307.59616    14575 
309000000   -273.29177    10510.765     12825.02    2587.4763    8196.5806    307.34541    14591 
310000000   -270.72278    10388.534    12940.114    2557.6115    8101.6453    310.10358    14563 
311000000   -290.28801    10344.675     12842.93    2496.0818    8138.8808    307.77461    14630 
312000000   -284.61084    10332.039    12996.827    2568.7643    8047.8859    311.46267    14589 
313000000   -266.07529    10497.032    12761.241    2643.8145    8119.2926    305.81698    14574 
314000000    -309.1204    10305.754    12934.324    2480.6506    8134.2235    309.96482    14596 
315000000   -270.60837    10311.952    12994.588    2411.0475    8171.5128    311.40902    14604 
316000000   -292.14452    10370.329    12940.023    2504.3257    8158.1475    310.10141    14605 
317000000   -297.55339    10522.854     13083.16    2565.6005    8254.8068    313.53161    14570 
318000000   -280.97057    10539.564    13072.296     2657.763    8162.7718    313.27126    14530 
319000000    -286.5522    10290.195    13009.305    2485.9231    8090.8244    311.76172    14577 
320000000   -267.65126    10415.445    12965.751     2474.526    8208.5705    310.71797    14603 
321000000   -275.28268    10366.871    12964.623    2591.8322    8050.3214    310.69093    14531 
322000000   -285.86037     10459.14    12969.039    2601.3484    8143.6518    310.79676    14557 
323000000   -268.07469    10276.901     12870.35    2453.5912    8091.3847    308.43173    14558 
324000000   -263.27237    10602.962    12883.382    2676.8768    8189.3577    308.74403    14518 
325000000   -285.01644    10557.274    12936.205    2628.4272    8213.8634    310.00992    14542 
326000000   -286.64573    10321.428    13009.826    2479.0342    8129.0399    311.77421    14605 
327000000   -281.15994    10148.337    12943.227     2439.771    7989.7257    310.17818    14619 
328000000   -270.40358    10230.929    12961.171    2530.2114     7971.121     310.6082    14579 
329000000   -253.36613    10366.224    12898.853    2438.9121     8180.678    309.11479    14592 
330000000   -282.69207    10431.545    12885.406    2461.5256    8252.7115    308.79253    14621 
331000000   -289.28957    10330.573    12880.239    2518.8999    8100.9629    308.66871    14620 
332000000   -276.87227    10287.209     13066.07    2481.8514      8082.23    313.12206    14606 
333000000   -291.70148    10477.134    12941.641    2539.2948    8229.5408    310.14018    14569 
334000000   -264.55169    10530.215    12793.157    2629.4268    8165.3396    306.58184    14559 
335000000   -271.52231    10466.185    12966.617    2607.1727    8130.5345    310.73872    14589 
336000000    -283.9253    10340.786    12908.988    2464.0598    8160.6514    309.35766    14615 
337000000   -240.43954    10598.262    12939.237    2665.6164    8173.0848    310.08257    14535 
338000000   -282.87703    10509.496    12951.779    2615.7454    8176.6273    310.38312    14554 
339000000   -279.23057    10342.683    13021.183    2432.8098    8189.1039    312.04636    14611 
340000000   -284.04422     10260.42    12962.363    2499.8132    8044.6513    310.63677    14571 
341000000   -274.93021    10591.204    12876.988    2731.7645    8134.3699    308.59079    14494 
342000000   -267.73505    10331.309    13176.465    2495.8156    8103.2286    315.76762    14619 
343000000   -311.17132    10343.181    12972.975     2555.433    8098.9195    310.89108    14562 
344000000   -285.53557    10359.997     12920.39    2475.3525    8170.1802    309.63092    14597 
345000000   -276.70939    10249.533    12788.159    2400.0329      8126.21    306.46207    14594 
346000000   -289.75708    10286.696    12973.628    2481.3183    8095.1352    310.90673    14569 
347000000   -286.64249    10269.999    13009.937    2450.4901    8106.1516    311.77686    14581 
348000000   -268.19004    10370.557    12811.698      2573.42    8065.3269    307.02616    14574 
349000000   -251.80145    10169.098    12880.712    2359.4544    8061.4454    308.68005    14601 
350000000   -299.95402    10254.335    13071.146    2438.8487    8115.4403     313.2437    14624 
351000000    -274.5907    10215.905     13120.13     2396.312    8094.1832    314.41759    14639 
352000000   -289.13528    10418.567    13082.006    2490.3559    8217.3465    313.50395    14614 
353000000    -287.5869    10128.634     12925.16    2316.9965     8099.224    309.74522    14640 
354000000   -297.20776    10341.155    12983.271    2517.8509    8120.5115    311.13783    14601 
355000000   -260.64495    10449.136    12929.808     2488.827    8220.9536    309.85661    14597 
356000000   -279.96873    10408.939    12911.823     2470.587     8218.321     309.4256    14586 
357000000   -284.23026    10430.921    12800.846    2422.5234    8292.6282    306.76611    14613 
358000000   -281.81135     10282.32    12839.921    2451.0785     8113.053     307.7025    14614 
359000000   -284.82404    10280.649    12876.932    2472.1278    8093.3457    308.58946    14608 
360000000    -291.7384    10377.944    12996.722    2517.3693    8152.3135    311.46016    14582 
361000000   -267.59299    10460.363    13153.262    2677.9539    8050.0021    315.21157    14545 
362000000   -317.82955    10287.808     12951.45    2567.6148    8038.0225    310.37526    14602 
363000000   -283.67716    10379.663    13070.862    2492.0466    8171.2932    313.23691    14599 
364000000    -247.9753    10326.366    12926.819    2441.4278    8132.9135    309.78499    14618 
365000000   -292.23345    10553.307    12891.309    2595.6974    8249.8434    308.93399    14571 
366000000   -271.62234    10399.317    13134.261    2474.4867    8196.4522    314.75623    14565 
367000000   -286.19054    10297.118     12967.35    2583.5007    7999.8081    310.75629    14588 
368000000   -269.93137    10308.531    12847.815    2493.4761    8084.9867    307.89168    14597 
369000000   -261.04008    10330.313    12882.824    2470.1683    8121.1849    308.73067    14623 
370000000   -280.86055    10234.031    13097.727    2463.7926    8051.0984    313.88069    14590 
371000000   -321.02698    10440.124    13004.315    2589.7964     8171.355    311.64212    14569 
372000000   -260.49698    10387.962    12889.659    2611.5162    8036.9427    308.89445    14574 
373000000   -286.61772    10323.963    12962.771    2512.7206    8097.8604    310.64656    14610 
374000000   -259.88093    10438.745    12841.633    2570.8191    8127.8073    307.74354    14563 
375000000   -303.12123    10227.193    12971.094    2365.3611    8164.9534      310.846    14632 
376000000   -265.50063    10368.618    12968.722     2492.203     8141.916    310.78917    14592 
377000000   -289.93406    10231.609    12904.414    2392.8584    8128.6849    309.24806    14628 
378000000   -287.35793    10240.346    13012.083    2386.2364    8141.4677    311.82828    14610 
379000000   -267.48764    10220.176    12988.358    2414.3397    8073.3237    311.25972    14592 
380000000   -269.35305    10388.484    13007.748    2558.4884    8099.3489     311.7244    14591 
381000000   -277.85286    10538.942    13021.288    2520.4059    8296.3885    312.04887    14575 
382000000   -284.46724    10411.724    13027.777    2597.2217    8098.9693    312.20438    14594 
383000000   -286.83219    10372.076    12941.466    2455.8302    8203.0784    310.13599    14608 
384000000   -245.86614    10400.571    12908.834    2453.9257    8192.5115    309.35398    14591 
385000000   -285.89237    10241.972    12794.868    2476.6122    8051.2524    306.62284    14590 
386000000   -270.17835    10465.913    13075.688    2595.1562    8140.9354    313.35255    14545 
387000000   -269.63539    10610.168    13029.431    2634.3326    8245.4712    312.24403    14560 
388000000   -282.36757    10665.462    12986.283    2702.2834    8245.5464       311.21    14508 
389000000   -266.53581    10517.036    12959.022    2556.8945    8226.6777    310.55672    14572 
390000000   -310.17091    10492.856    13176.301    2624.2374    8178.7893    315.76369    14562 
391000000   -286.83223    10381.035    12842.709    2469.2388    8198.6288    307.76933    14588 
392000000   -271.92675    10433.119    12914.963    2574.2737    8130.7723    309.50086    14574 
393000000   -271.71388    10589.023    12934.596     2651.741    8208.9958    309.97135    14539 
394000000   -268.47785    10491.287    12914.902     2600.368    8159.3967    309.49939    14573 
395000000   -295.48228    10627.531    12862.492    2617.8787    8305.1347    308.24341    14574 
396000000   -289.66836    10343.784    12992.623     2563.113    8070.3398    311.36194    14546 
397000000   -279.52133    10308.094    12972.865    2476.7547    8110.8601    310.88846    14592 
398000000    -271.4999    10348.606    12951.911    2579.2676    8040.8385    310.38629    14592 
399000000   -263.63449    10347.802    13012.975    2486.0349    8125.4016    311.84967    14575 
400000000   -286.05584    10433.798    13003.499    2497.5823    8222.2712    311.62257    14597 
401000000    -310.4474    10232.018    12740.526    2484.1047    8058.3611    305.32056    14598 
402000000   -265.34431    10227.689    12917.426    2435.0613     8057.972    309.55987    14615 
403000000   -275.53587    10486.517    12963.246    2493.9235    8268.1294    310.65792    14580 
404000000   -254.83503    10449.416    12917.908    2553.4117    8150.8397    309.57144    14525 
405000000   -275.53671    10570.894    13056.026    2624.6655    8221.7655    312.88136    14560 
406000000   -266.76571    10245.698    12833.938    2434.4553     8078.008    307.55912    14608 
407000000   -274.06412    10350.749    12708.901     2482.972    8141.8411    304.56267    14618 
408000000   -264.08135    10414.342    12962.427    2525.5527    8152.8705    310.63831    14552 
409000000   -296.65537    10418.074    12928.879    2508.7108    8206.0185    309.83435    14565 
410000000   -274.99882    10466.392    12869.441      2579.24    8162.1512    308.40995    14575 
411000000   -295.67699    10349.132    12965.117    2514.1762    8130.6332    310.70278    14606 
412000000   -305.83779    10468.552    12915.915    2564.4906    8209.8993    309.52368    14587 
413000000   -299.36521    10286.667    12866.641    2415.7422    8170.2903    308.34283    14635 
414000000   -274.71258    10257.961      12960.8    2479.9106    8052.7628    310.59932    14573 
415000000   -297.78887    10398.954    13018.641    2452.0091    8244.7336    311.98545    14589 
416000000   -284.67368    10346.634    12884.108    2471.5017    8159.8057    308.76144    14595 
417000000   -278.50509    10065.008    13011.715    2398.1112     7945.402    311.81948    14581 
418000000   -275.60607     10289.46    12991.519    2491.8131    8073.2531    311.33548    14557 
419000000   -275.11353     10288.37    13008.164    2520.6352    8042.8488    311.73437    14582 
420000000   -284.31776    10369.084    13085.742    2514.2795    8139.1219    313.59349    14579 
421000000   -256.34726    10336.444    12988.709     2425.239    8167.5526    311.26813    14593 
422000000   -281.92391    10388.556        12965    2599.6748    8070.8053    310.69996    14569 
423000000   -268.46375    10308.247    12880.503    2543.6224    8033.0883    308.67504    14555 
424000000   -261.95443    10332.096    12955.211     2460.368    8133.6827    310.46537    14588 
425000000   -279.81659    10370.145    12923.127    2460.2829    8189.6782    309.69649    14615 
426000000   -270.20354    10382.622     12983.13    2568.8693    8083.9565    311.13445    14596 
427000000   -265.22381    10154.919    12860.859    2312.9207    8107.2224    308.20427    14651 
428000000   -270.31697    10323.392    12885.006    2428.4092    8165.2996    308.78294    14619 
429000000   -285.17374    10286.644    12933.259    2431.3874    8140.4305    309.93932    14620 
430000000   -275.15268    10381.068    13007.041    2522.1778     8134.043    311.70745    14568 
431000000   -280.83425    10377.555    12908.301     2545.496    8112.8936    309.34121    14582 
432000000   -293.09371    10222.138    12860.869    2447.0034    8068.2279    308.20451    14582 
433000000   -266.02689    10173.659    12934.169     2356.906    8082.7801    309.96111    14612 
434000000   -251.73442    10394.802    12960.318    2519.2664    8127.2698    310.58777    14558 
435000000   -266.94995    10239.311    12863.893    2497.9552    8008.3059    308.27698    14605 
436000000    -253.6229    10412.018    13057.993      2487.68     8177.961     312.9285    14548 
437000000   -281.13335    10440.889    12872.653    2596.2149    8125.8072    308.48691    14585 
438000000   -283.73637    10231.727    12963.547    2501.2901    8014.1733    310.66514    14582 
439000000   -279.98689    10352.142    13096.399    2477.8831    8154.2457    313.84887    14607 
440000000   -276.37619    10338.401     13004.71    2381.2159    8233.5611    311.65159    14643 
441000000   -265.09188     10323.58    12880.957    2402.5437    8186.1283    308.68592    14599 
442000000   -285.03287    10242.678    12846.294    2462.1532    8065.5578    307.85522    14580 
443000000   -282.38865    10267.494    13005.591    2485.2409    8064.6422    311.67271    14571 
444000000   -276.23075    10256.568     12885.24    2389.0396    8143.7587    308.78856    14615 
445000000    -269.5724    10424.195    12985.442    2592.7191    8101.0482    311.18986    14600 
446000000   -269.08364    10510.652    12939.537    2556.5017    8223.2342    310.08976    14543 
447000000   -255.25717    10341.146     13193.44    2492.2487    8104.1543    316.17441    14602 
448000000     -264.807    10346.017    12817.318    2488.2731    8122.5505    307.16084    14611 
449000000   -297.57797    10295.629    12940.216    2467.3778    8125.8295    310.10603    14595 
450000000   -256.78325    10323.238     13015.81    2449.2305    8130.7904    311.91761    14618 
451000000   -246.65672    10343.857    12817.149    2451.7693    8138.7442    307.15678    14668 
452000000   -274.20863    10315.997    12841.615    2514.5866    8075.6187    307.74311    14577 
453000000   -278.45575     10234.99    13022.005    2480.1305    8033.3148    312.06607    14625 
454000000   -272.87205    10228.335    13032.152    2448.8084    8052.3991    312.30922    14602 
455000000   -287.00175    10346.148    13005.221    2528.5513    8104.5981    311.66385    14591 
456000000   -267.18188    10192.505    12947.564    2399.8863    8059.8004    310.28212    14646 
457000000   -293.87908    10309.089    12803.647    2509.7262    8093.2417    306.83322    14596 
458000000   -240.52921    10331.938    12959.459    2412.7839    8159.6837    310.56718    14625 
459000000   -295.92679    10367.341    12964.406    2492.4882    8170.7799    310.68574    14597 
460000000   -284.03855    10315.582    12882.185    2504.3342    8095.2863    308.71534    14608 
461000000   -263.28995    10294.288    13050.698    2367.1877    8190.3898    312.75367    14633 
462000000   -279.61956    10321.317    13012.811    2496.1501    8104.7863    311.84574    14612 
463000000   -250.29886    10417.698    13001.587    2514.3236     8153.673    311.57676    14562 
464000000    -314.9662    10467.228    12859.296    2557.5315    8224.6624    308.16682    14594 
465000000   -306.20829     10372.39    12817.308    2482.2838     8196.315     307.1606    14580 
466000000   -297.21761     10365.48    12833.515    2480.6602    8182.0369    307.54899    14612 
467000000   -259.91043    10287.076    12814.598    2433.2426    8113.7434    307.09566    14611 
468000000   -293.28811    10424.574    13040.521    2588.3257    8129.5362    312.50979    14557 
469000000   -286.45085    10430.744    12855.139    2567.0563    8150.1382     308.0672    14573 
470000000   -260.98778     10387.53     12975.23    2620.5926    8027.9248    310.94513    14547 
471000000   -259.63491    10305.685    13012.808    2551.1533    8014.1667    311.84565    14563 
472000000   -272.11908    10248.358    12792.244    2428.7019    8091.7754    306.55996    14610 
473000000   -278.96455    10317.297    12888.677    2400.8466    8195.4151    308.87092    14628 
474000000   -290.95351    10309.267    13010.651    2431.2106    8169.0102    311.79396    14620 
475000000   -300.73621    10434.825    13039.462    2505.5265    8230.0349    312.48441    14600 
476000000   -256.32483    10503.968    12871.405    2534.8855    8225.4075      308.457    14590 
477000000   -251.29574    10424.915    12954.387    2499.0541    8177.1568    310.44564    14631 
478000000   -261.74041    10434.546    12879.434    2474.7677    8221.5185    308.64941    14600 
479000000   -283.72924    10443.874    12866.792    2532.3626    8195.2406    308.34646    14606 
480000000   -259.50865    10350.339    12973.044    2566.6785    8043.1687    310.89274    14574 
481000000   -302.64054    10344.044    12945.963     2488.791    8157.8939    310.24376    14627 
482000000   -287.34255    10306.031    12822.194    2512.5976    8080.7758    307.27769    14622 
483000000    -284.0512    10218.497    12849.152     2448.068    8054.4807    307.92373    14572 
484000000   -250.02775    10433.233    12936.064    2560.0783     8123.182    310.00654    14578 
485000000   -278.38107    10474.411    13016.324    2528.5781     8224.214    311.92993    14617 
486000000   -288.09857    10500.633    13044.748    2589.2058    8199.5257    312.61108    14579 
487000000   -283.36889    10318.959    13011.144    2494.1119    8108.2157    311.80578    14591 
488000000   -275.13356    10406.009    12797.732    2459.1817    8221.9604    306.69147    14581 
489000000   -259.02478    10211.245     13059.24      2473.99    7996.2796    312.95837    14614 
490000000   -260.81681    10286.777      12900.9    2553.7983    7993.7951    309.16383    14582 
491000000   -293.28608    10324.545    12914.113    2502.6726     8115.159    309.48048    14577 
492000000   -257.45342    10353.442    12967.836    2430.7019    8180.1939    310.76793    14609 
493000000   -287.93969    10433.716    12884.274    2639.8666    8081.7889     308.7654    14545 
494000000   -279.39194    10226.946    12975.838    2344.9964    8161.3413    310.95968    14634 
495000000   -305.28488    10303.218    12993.881    2452.3851    8156.1173    311.39209    14603 
496000000   -249.13159    10524.751    13019.769    2548.6776    8225.2049    312.01248    14592 
497000000   -295.64742    10276.684    12971.725    2418.7258    8153.6054    310.86112    14634 
498000000     -286.532    10476.671     12909.96    2642.9525    8120.2508    309.38095    14562 
499000000   -278.18191    10388.513    12972.347    2491.4923    8175.2028    310.87603    14592 
500000000   -279.68401    10394.973    12886.298    2609.2394    8065.4178    308.81391    14594 
Loop time of 152959 on 28 procs for 500000000 steps with 14000 atoms

Performance: 7060.736 ns/day, 0.003 hours/ns, 3268.859 timesteps/s
99.1% CPU use with 28 MPI tasks x no OpenMP threads

MPI task timing breakdown:
Section |  min time  |  avg time  |  max time  |%varavg| %total
---------------------------------------------------------------
Pair    | 8239.4     | 9126       | 12583      |1131.9 |  5.97
Bond    | 5582       | 6508.4     | 12512      |2430.3 |  4.26
Neigh   | 27624      | 27982      | 28590      | 179.5 | 18.29
Comm    | 51325      | 60378      | 64846      |1323.8 | 39.47
Output  | 0.66915    | 0.67013    | 0.67171    |   0.1 |  0.00
Modify  | 28079      | 28523      | 28788      | 140.8 | 18.65
Other   |            | 2.044e+04  |            |       | 13.36

Nlocal:    500 ave 533 max 473 min
Histogram: 1 1 6 5 5 3 2 3 0 2
Nghost:    414.393 ave 711 max 225 min
Histogram: 1 4 1 8 8 5 0 0 0 1
Neighs:    2302.32 ave 2755 max 1941 min
Histogram: 2 3 3 7 2 4 2 2 0 3

Total # of neighbors = 64465
Ave neighs/atom = 4.60464
Ave special neighs/atom = 6.81686
Neighbor list builds = 100025892
Dangerous builds = 0
System init for write_restart ...
Total wall time: 42:29:22
