LAMMPS (5 Jun 2019)
Reading data file ...
  orthogonal box = (-420 -420 -420) to (420 420 420)
  2 by 2 by 7 MPI processor grid
  reading atoms ...
  14000 atoms
  scanning bonds ...
  51 = max bonds/atom
  scanning angles ...
  1 = max angles/atom
  reading bonds ...
  13800 bonds
  reading angles ...
  13600 angles
Finding 1-2 1-3 1-4 neighbors ...
  special bond factors lj:   0          0          0         
  special bond factors coul: 0          0          0         
  2 = max # of 1-2 neighbors
  2 = max # of 1-3 neighbors
  4 = max # of 1-4 neighbors
  56 = max # of special neighbors
  special bonds CPU = 0.604753 secs
  read_data CPU = 0.660016 secs
Finding 1-2 1-3 1-4 neighbors ...
  special bond factors lj:   1          1          1         
  special bond factors coul: 0          0          0         
  2 = max # of 1-2 neighbors
  2 = max # of 1-3 neighbors
  4 = max # of 1-4 neighbors
  56 = max # of special neighbors
  special bonds CPU = 0.000581426 secs
WARNING: Using 'neigh_modify every 1 delay 0 check yes' setting during minimization (../min.cpp:168)
Neighbor list info ...
  update every 1 steps, delay 0 steps, check yes
  max neighbors/atom: 2000, page size: 100000
  master list distance cutoff = 26.9
  ghost atom cutoff = 26.9
  binsize = 13.45, bins = 63 63 63
  1 neighbor lists, perpetual/occasional/extra = 1 0 0
  (1) pair lj/cut, perpetual
      attributes: half, newton on
      pair build: half/bin/newton
      stencil: half/bin/3d/newton
      bin: standard
Setting up cg style minimization ...
  Unit style    : real
  Current step  : 0
Per MPI rank memory allocation (min/avg/max) = 1.165 | 13.79 | 17.67 Mbytes
Step Temp E_pair E_mol TotEng Press 
       0            0 1.5959422e+12      2649600 1.5959449e+12 7.3854599e+08 
    2872            0   -1769.6168    5348.8369    3579.2201  0.031182827 
Loop time of 0.811467 on 28 procs for 2872 steps with 14000 atoms

99.5% CPU use with 28 MPI tasks x no OpenMP threads

Minimization stats:
  Stopping criterion = energy tolerance
  Energy initial, next-to-last, final = 
     1.59594489115e+12      3579.56365059      3579.22009235
  Force two-norm initial, final = 4.92929e+10 2.03587
  Force max component initial, final = 1.05441e+09 0.154693
  Final line search alpha, max atom move = 0.461827 0.0714414
  Iterations, force evaluations = 2872 3119

MPI task timing breakdown:
Section |  min time  |  avg time  |  max time  |%varavg| %total
---------------------------------------------------------------
Pair    | 0.041453   | 0.13983    | 0.26414    |  17.5 | 17.23
Bond    | 0.013536   | 0.038439   | 0.070095   |   8.1 |  4.74
Neigh   | 0.087106   | 0.089318   | 0.091299   |   0.3 | 11.01
Comm    | 0.13238    | 0.27044    | 0.41514    |  14.8 | 33.33
Output  | 0          | 0          | 0          |   0.0 |  0.00
Modify  | 0          | 0          | 0          |   0.0 |  0.00
Other   |            | 0.2734     |            |       | 33.70

Nlocal:    500 ave 911 max 179 min
Histogram: 3 3 4 4 5 0 2 3 2 2
Nghost:    314.393 ave 518 max 130 min
Histogram: 3 2 3 3 4 4 3 3 2 1
Neighs:    3173.18 ave 5987 max 902 min
Histogram: 3 2 6 3 5 0 1 3 3 2

Total # of neighbors = 88849
Ave neighs/atom = 6.34636
Ave special neighs/atom = 5.82857
Neighbor list builds = 199
Dangerous builds = 0
Setting up Verlet run ...
  Unit style    : real
  Current step  : 2872
  Time step     : 0.1
Per MPI rank memory allocation (min/avg/max) = 1.127 | 13.42 | 16.54 Mbytes
Step Temp E_pair E_mol TotEng Press 
    2872            0   -1769.6168    5348.8369    3579.2201  0.031182827 
   12872    224.37019   -1491.3617    9112.9552    16984.194   -1.6028404 
Loop time of 1.53188 on 28 procs for 10000 steps with 14000 atoms

Performance: 56.401 ns/day, 0.426 hours/ns, 6527.921 timesteps/s
99.5% CPU use with 28 MPI tasks x no OpenMP threads

MPI task timing breakdown:
Section |  min time  |  avg time  |  max time  |%varavg| %total
---------------------------------------------------------------
Pair    | 0.044287   | 0.16634    | 0.36127    |  21.5 | 10.86
Bond    | 0.035694   | 0.10467    | 0.19224    |  13.5 |  6.83
Neigh   | 0.002276   | 0.0023363  | 0.0023806  |   0.1 |  0.15
Comm    | 0.39687    | 0.63872    | 0.84961    |  15.9 | 41.70
Output  | 6.5111e-05 | 9.3355e-05 | 0.00011252 |   0.0 |  0.01
Modify  | 0.087377   | 0.24504    | 0.44904    |  20.4 | 16.00
Other   |            | 0.3747     |            |       | 24.46

Nlocal:    500 ave 913 max 179 min
Histogram: 3 2 5 4 5 0 2 3 2 2
Nghost:    315.607 ave 517 max 135 min
Histogram: 3 2 3 3 4 4 3 3 2 1
Neighs:    3191.64 ave 6033 max 890 min
Histogram: 3 2 6 3 5 0 1 3 3 2

Total # of neighbors = 89366
Ave neighs/atom = 6.38329
Ave special neighs/atom = 5.82857
Neighbor list builds = 5
Dangerous builds = 0
4000 atoms in group rxnSites
Neighbor list info ...
  update every 1 steps, delay 1 steps, check yes
  max neighbors/atom: 2000, page size: 100000
  master list distance cutoff = 26.9
  ghost atom cutoff = 26.9
  binsize = 13.45, bins = 63 63 63
  2 neighbor lists, perpetual/occasional/extra = 1 1 0
  (1) pair lj/cut, perpetual
      attributes: half, newton on
      pair build: half/bin/newton
      stencil: half/bin/3d/newton
      bin: standard
  (2) fix bond/create/random, occasional, copy from (1)
      attributes: half, newton on
      pair build: copy
      stencil: none
      bin: none
Setting up Verlet run ...
  Unit style    : real
  Current step  : 0
  Time step     : 25
Per MPI rank memory allocation (min/avg/max) = 17.76 | 18.29 | 18.83 Mbytes
Step E_pair PotEng KinEng E_bond E_angle Temp Bonds 
       0   -1491.3617    7621.5935    9362.6001    3043.2749    6069.6803    224.37019    13800 
 1000000   -302.52837    10842.312    12917.209    2859.8702    8284.9697    309.55467    14394 
 2000000   -286.00504    10616.526     12986.19    2852.8255    8049.7058    311.20777    14443 
 3000000   -285.08481    10372.899    12868.273    2589.9917    8067.9918    308.38194    14539 
 4000000    -281.7093    10588.939    12852.328    2655.0896    8215.5587    307.99985    14539 
 5000000   -266.72746    10399.974    12916.417    2600.6516    8066.0495    309.53569    14523 
 6000000   -296.81344    10532.695    13000.516    2732.0562    8097.4526    311.55108    14509 
 7000000   -259.72301    10395.482    12910.136    2559.5861    8095.6191    309.38517    14580 
 8000000   -266.46835    10348.386    12895.604     2600.869    8013.9855    309.03693    14553 
 9000000    -265.7217    10222.215    12905.459    2358.9171      8129.02    309.27309    14650 
10000000   -272.40333    10429.048    12887.049    2569.0562    8132.3954    308.83191    14557 
11000000   -282.36778    10261.175    12942.907    2527.9109    8015.6318    310.17053    14571 
12000000    -273.1648    10154.554    13059.129    2374.2614    8053.4571    312.95571    14612 
13000000   -262.37184    10469.209    12809.467    2594.8463    8136.7351     306.9727    14567 
14000000   -244.45402    10480.026    12950.371    2514.4529    8210.0276    310.34938    14576 
15000000    -279.8833    10292.794    12798.156    2402.0504    8170.6268    306.70162    14631 
16000000   -263.56671    10203.002    12786.466    2305.4413    8161.1271    306.42149    14663 
17000000   -241.45374    10607.034    12973.329    2597.2209    8251.2672    310.89957    14566 
18000000   -275.75031    10495.861    12976.036    2562.2054    8209.4057    310.96443    14559 
19000000   -262.94231    10207.437     12766.44    2392.2541    8078.1252    305.94157    14623 
20000000   -265.78118    10301.927    12962.963    2514.8691    8052.8389    310.65115    14632 
21000000   -328.14537    10225.699    12827.666      2508.66     8045.184    307.40882    14590 
22000000   -263.42572    10426.125    12857.491    2472.6527    8216.8977    308.12357    14597 
23000000   -304.43542    10495.941    13088.197    2622.8143    8177.5616    313.65232    14554 
24000000   -285.65345    10275.231    12972.851    2508.5566    8052.3282    310.88812    14606 
25000000   -272.56222     10229.44    12979.007    2437.7345    8064.2682    311.03564    14640 
26000000   -295.21946    10643.128    13077.856    2669.0852    8269.2618     313.4045    14540 
27000000   -257.39012    10342.317    13105.624    2527.7602    8071.9469    314.06995    14570 
28000000   -289.82406    10368.376    12905.248    2534.1962    8124.0043    309.26803    14603 
29000000   -287.70925    10404.949    12948.713    2656.1688    8036.4897    310.30965    14521 
30000000    -263.6601    10079.891    13029.823    2279.1163    8064.4346    312.25341    14619 
31000000    -279.6122    10394.541    13050.343    2609.3861    8064.7672    312.74517    14562 
32000000   -278.68903    10324.572    12839.583    2562.4381    8040.8229    307.69441    14566 
33000000   -277.25832    10438.314    12960.393    2498.1402     8217.432    310.58956    14555 
34000000   -282.69229    10334.023    12958.026    2451.9362    8164.7793    310.53283    14613 
35000000   -286.08873    10401.958    12946.365    2451.6341    8236.4123     310.2534    14593 
36000000   -291.79198    10220.766    13040.196    2427.9215    8084.6366    312.50201    14602 
37000000   -269.91916    10336.053    12904.636    2463.5961    8142.3759    309.25338    14582 
38000000   -277.04368    10245.303    12868.637    2523.8425     7998.504    308.39068    14560 
39000000   -262.43006    10373.686    12823.421    2466.1107    8170.0055    307.30709    14594 
40000000   -278.62744    10332.595    12962.242    2517.0221    8094.1999    310.63388    14604 
41000000   -281.11113    10480.301    12931.578    2555.1504    8206.2618    309.89902    14595 
42000000   -288.83826    10514.662    13009.641    2646.0714    8157.4289    311.76976    14549 
43000000    -248.0086    10280.168    12931.418    2411.4231    8116.7534    309.89519    14621 
44000000   -250.40565    10350.837    13009.558    2487.1088    8114.1335    311.76778    14603 
45000000   -260.52502    10336.358    13085.821    2439.7874    8157.0958    313.59539    14600 
46000000   -280.42291    10406.102    12787.421     2567.818    8118.7072    306.44437    14614 
47000000   -304.75901      10299.3    12818.915     2511.991    8092.0676    307.19911    14630 
48000000   -254.60374    10352.296    12927.127    2501.6927    8105.2068    309.79235    14603 
49000000   -292.24582    10408.171    13073.888    2553.5977     8146.819    313.30942    14557 
50000000   -269.82121    10379.851    12927.836    2480.9986    8168.6732    309.80936    14594 
51000000   -288.55351    10553.185    13050.257    2637.5783    8204.1601     312.7431    14585 
52000000   -264.44503    10512.822    13085.114    2643.4324     8133.835    313.57844    14577 
53000000   -286.53057    10379.619    12802.013    2575.9447    8090.2046    306.79407    14587 
54000000   -302.55638    10375.209    13021.967    2455.2354    8222.5299    312.06516    14600 
55000000   -280.62814    10507.632    12828.646    2652.5081    8135.7522    307.43232    14546 
56000000   -298.94458    10275.263    12879.122    2472.4762    8101.7312    308.64195    14605 
57000000   -260.13712    10207.472    12981.543    2345.1464    8122.4631    311.09642    14655 
58000000    -289.0975     10235.95    12795.101    2464.4228    8060.6244    306.62842    14598 
59000000   -324.01283    10321.326    13019.677    2456.2432    8189.0959    312.01027    14619 
60000000   -263.44641     10459.22    12962.159     2487.994    8234.6724    310.63188    14608 
61000000   -294.39588    10321.639    12876.172    2463.6487    8152.3861    308.57124    14596 
62000000    -287.5339    10231.254    13020.113    2464.7269    8054.0608    312.02073    14611 
63000000   -265.98213    10421.925    12891.646    2490.1739    8197.7333    308.94208    14620 
64000000   -291.29266    10303.617     12992.72    2544.4354    8050.4741    311.36427    14589 
65000000   -275.04484    10392.266    12970.228     2547.422    8119.8887    310.82526    14587 
66000000   -284.58566    10383.653    12786.969    2545.0757    8123.1628    306.43353    14571 
67000000   -271.77415    10327.699    12893.038    2451.7127    8147.7606    308.97543    14616 
68000000   -277.31015    10300.713    12825.778    2462.4756    8115.5474    307.36357    14611 
69000000   -289.60536     10304.74    12858.327      2469.77    8124.5749     308.1436    14601 
70000000   -275.19765    10294.899    12834.019    2419.7705    8150.3262    307.56107    14628 
71000000   -284.55751    10427.497     12967.34    2529.8719    8182.1823    310.75604    14585 
72000000   -296.37213    10217.451    13006.793    2363.0842    8150.7392    311.70151    14628 
73000000   -289.77232    10232.623    12966.546    2382.8374    8139.5579    310.73702    14637 
74000000   -301.50366    10333.196    12928.929    2443.4563    8191.2431    309.83555    14594 
75000000   -271.44989    10263.029     13025.15    2478.3407    8056.1382    312.14142    14604 
76000000    -261.9637     10405.15    12869.217    2522.1208     8144.993    308.40458    14610 
77000000   -282.17065    10411.015    12855.668    2554.1574    8139.0285    308.07989    14591 
78000000   -253.91283    10262.007    12838.242    2378.3796    8137.5399    307.66227    14628 
79000000   -281.43887    10197.098    12850.292    2453.0169    8025.5202    307.95104    14576 
80000000   -293.12654    10492.482     12823.38    2571.8573    8213.7509    307.30612    14540 
81000000   -287.58905    10217.999    12981.867     2429.721    8075.8668    311.10418    14614 
82000000   -296.80936    10332.454    12918.816    2488.8582    8140.4049     309.5932    14637 
83000000   -297.22607    10498.285    12880.311    2595.4105    8200.1007    308.67044    14591 
84000000   -294.71944    10492.382    13009.406    2612.6876    8174.4134    311.76413    14557 
85000000    -292.5635    10290.783     12949.55    2460.0091    8123.3371    310.32973    14595 
86000000   -296.94662    10372.911    13010.378    2564.7372    8105.1205    311.78744    14575 
87000000   -273.88393    10386.592    12845.985    2564.2349    8096.2415    307.84783    14564 
88000000   -280.45827    10372.974     12915.09    2540.5624      8112.87    309.50389    14583 
89000000    -253.8988    10277.076    12906.517    2489.3701    8041.6044    309.29845    14555 
90000000    -274.0403    10390.649    12961.579    2562.6654    8102.0242    310.61797    14561 
91000000    -270.5034    10271.449    13132.947    2465.4686    8076.4839    314.72474    14584 
92000000    -258.9866    10424.783    12970.006    2582.9163    8100.8537    310.81994    14554 
93000000   -276.59964    10527.873    12974.283    2634.9092    8169.5634    310.92242    14543 
94000000   -277.43922    10365.693    12879.976    2536.8031    8106.3292     308.6624    14569 
95000000   -284.99135    10220.155    12808.564    2466.5267    8038.6196    306.95105    14597 
96000000   -270.31653    10621.815     13009.21    2756.7239    8135.4078    311.75944    14516 
97000000   -284.47664    10280.957     12919.38     2412.838    8152.5953     309.6067    14568 
98000000   -261.90633    10440.889    13014.022    2503.2299    8199.5651    311.87476    14594 
99000000   -300.11645    10367.802    12874.817    2440.9752    8226.9428    308.53877    14613 
100000000   -261.84903    10364.119    12871.588    2527.9776    8097.9908     308.4614    14611 
101000000   -268.95444    10293.841    12806.062    2439.8168    8122.9787     306.8911    14624 
102000000   -289.22737    10254.798    12905.645    2398.9727    8145.0522    309.27755    14617 
103000000   -289.89032    10417.476    12860.696    2627.9944    8079.3715    308.20038    14537 
104000000   -268.92201    10465.232     13045.59    2604.1002    8130.0539    312.63126    14587 
105000000   -256.51409    10196.604    12965.238    2365.0931    8088.0251    310.70567    14599 
106000000   -272.78809    10287.594    12872.722    2506.6087    8053.7737    308.48856    14612 
107000000   -254.41949    10292.247    12938.201    2482.3257    8064.3408    310.05773    14618 
108000000   -291.94155    10199.015    12919.728    2343.4121    8147.5444    309.61505    14618 
109000000   -255.61798    10309.628    12929.543    2473.2902    8091.9555    309.85027    14613 
110000000   -282.32678    10206.312    12981.415    2506.2683    7982.3702    311.09334    14581 
111000000   -259.00955    10278.115    12903.497    2478.0773    8059.0469    309.22607    14634 
112000000   -273.64903    10286.798    12797.935    2529.7366    8030.7108    306.69634    14605 
113000000   -244.01697    10333.219    12926.218    2416.2221    8161.0141    309.77056    14617 
114000000   -270.73789    10303.924    12918.058    2483.7887     8090.873    309.57501    14616 
115000000   -296.62533    10239.362    12840.018    2424.4818    8111.5053    307.70482    14625 
116000000   -267.91227    10409.266    12921.636    2590.6477    8086.5309    309.66077    14576 
117000000   -262.74108     10208.45     12919.55    2434.8931    8036.2983    309.61078    14627 
118000000   -239.45855    10605.638    13042.106    2574.4783    8270.6187    312.54778    14556 
119000000   -284.30497    10329.303     12939.54    2613.7625     7999.845    310.08983    14572 
120000000   -266.08114    10222.849    12857.206      2361.44    8127.4904    308.11674    14601 
121000000   -275.06531    10377.088    12890.547    2524.3475    8127.8055    308.91573    14574 
122000000   -280.47891    10440.601    12869.194    2599.8532    8121.2262    308.40403    14546 
123000000   -272.54138    10536.139    13030.593    2600.4406    8208.2395    312.27188    14586 
124000000    -288.6803    10438.817    12881.709     2557.546    8169.9513    308.70394    14573 
125000000   -292.06122    10349.193    12935.911    2492.9165     8148.338    310.00286    14565 
126000000   -266.39353    10265.526    13023.626    2496.6726    8035.2467    312.10491    14586 
127000000   -295.83987    10279.578    12713.506     2471.244    8104.1739    304.67302    14548 
128000000   -284.91836    10506.104    13083.071    2537.9239     8253.099    313.52947    14575 
129000000   -268.44032    10455.965     12874.16    2585.4676    8138.9379    308.52304    14556 
130000000   -255.06434    10517.875    12750.439    2562.7891    8210.1502    305.55812    14566 
131000000   -262.63941    10514.325     12867.57    2580.7432    8196.2215    308.36509    14536 
132000000   -264.12265    10561.939    13049.495    2713.4154    8112.6457    312.72485    14552 
133000000   -269.85892    10197.947    13050.299    2500.5642    7967.2412    312.74412    14566 
134000000   -272.42132    10307.675     12878.62    2433.4416    8146.6546    308.62991    14593 
135000000   -266.22139    10359.167    12976.617    2524.4219    8100.9667    310.97836    14574 
136000000    -282.5872    10440.812    12904.342    2601.5929    8121.8062    309.24632    14579 
137000000   -271.54309    10319.637    12937.306     2588.826    8002.3544    310.03629    14553 
138000000   -286.51623    10578.953    12869.126     2659.235     8206.234    308.40239    14544 
139000000   -252.34141    10364.572    12957.829     2517.397    8099.5169    310.52812    14568 
140000000   -261.69504    10407.697     12926.13    2444.5503    8224.8419    309.76845    14607 
141000000   -300.07015    10374.713    13000.651    2554.3303    8120.4529    311.55433    14548 
142000000   -307.15151    10213.093    12954.032    2400.0561    8120.1886    310.43712    14605 
143000000    -250.8443    10390.985    12969.538    2561.5016    8080.3277    310.80871    14579 
144000000   -268.94124    10215.175    12719.903    2414.5164    8069.6001    304.82634    14613 
145000000   -249.41401    10081.734    12883.999    2401.6684    7929.4792    308.75881    14619 
146000000   -281.52666     10549.39     12981.51    2568.5322    8262.3846    311.09561    14561 
147000000   -283.39594    10451.561     13006.24    2611.7754    8123.1819    311.68826    14539 
148000000    -283.0279    10218.549    12860.687    2427.7613    8073.8152    308.20016    14624 
149000000   -293.21563     10278.26    13010.799    2481.7902    8089.6851    311.79753    14565 
150000000   -289.04342    10405.788    13034.466    2576.0167    8118.8143    312.36468    14565 
151000000   -273.32497    10456.252    12939.737    2525.2068    8204.3703    310.09455    14581 
152000000   -285.53218    10523.604    12989.922    2607.9491    8201.1874     311.2972    14573 
153000000   -275.59387    10363.966    12984.632    2458.3609    8181.1991    311.17044    14610 
154000000   -295.03819    10308.106    12845.511    2466.1452    8136.9989    307.83647    14603 
155000000   -239.71967    10328.549    12855.951    2451.2926    8116.9765    308.08666    14548 
156000000   -264.13308    10410.869    12854.197    2488.9614    8186.0407    308.04464    14592 
157000000   -260.92427    10579.027    12741.293      2700.81    8139.1415    305.33895    14549 
158000000   -255.79765     10338.67    13056.316    2526.3463    8068.1212    312.88831    14572 
159000000   -280.53361    10428.415    12923.404    2637.9871    8070.9611    309.70314    14554 
160000000   -294.87065    10281.126    12827.457    2407.3857    8168.6112    307.40381    14639 
161000000    -275.8053    10294.566    12845.039    2474.9058    8095.4658    307.82515    14651 
162000000    -302.4021    10129.072    12751.248    2385.3099    8046.1639    305.57751    14650 
163000000   -254.89226    10189.318    12889.158    2358.7304    8085.4796    308.88245    14624 
164000000   -264.84028    10368.164    12933.571     2476.743    8156.2613    309.94679    14617 
165000000   -267.20134    10529.254    13074.431    2571.4563    8224.9987    313.32242    14564 
166000000   -270.24771    10368.407    12931.387    2522.2239    8116.4312    309.89444    14643 
167000000   -258.56371    10375.487    12966.472    2442.7708    8191.2801    310.73525    14555 
168000000   -301.59937    10270.272    12885.325    2508.4326    8063.4385     308.7906    14574 
169000000   -278.00882    10303.541    12839.844    2487.0239    8094.5258    307.70067    14601 
170000000   -280.06478    10277.218    12930.955    2443.7445    8113.5381    309.88409    14588 
171000000   -260.66898    10568.734    12948.231    2662.3435    8167.0599     310.2981    14524 
172000000   -275.69122    10302.984    12943.999     2446.573    8132.1023    310.19668    14568 
173000000   -259.30886    10409.864    12937.358    2465.8186    8203.3539    310.03754    14590 
174000000   -268.28343    10283.732    12923.125    2483.1243    8068.8909    309.69646    14609 
175000000   -243.45717    10315.295    12853.965      2457.59    8101.1623    308.03905    14619 
176000000   -259.75402    10497.678    12874.333    2576.5838    8180.8484    308.52719    14558 
177000000   -261.18911     10451.25    12914.078    2588.8868    8123.5524    309.47964    14577 
178000000   -279.60804     10351.34     12881.23    2526.6185    8104.3294    308.69247    14536 
179000000   -268.65218    10410.951    12929.701    2545.6387     8133.964    309.85404    14569 
180000000   -269.67258    10600.717    12948.774     2673.226    8197.1635    310.31111    14534 
181000000    -249.3009    10336.717    12908.241    2402.7015    8183.3162    309.33976    14608 
182000000    -280.0615    10408.137    12752.114    2568.1991    8119.9998    305.59825    14569 
183000000   -313.11995    10276.799     12962.37    2451.7418     8138.177    310.63693    14577 
184000000   -286.40078    10186.373    12880.672    2437.6719    8035.1018    308.67909    14612 
185000000   -296.25095    10333.553    12981.122    2516.7143    8113.0893    311.08633    14578 
186000000   -283.75627     10416.81    12997.275    2524.6481    8175.9185    311.47341    14560 
187000000   -280.60054    10381.462     12904.93    2557.0085     8105.054    309.26041    14572 
188000000   -268.55627    10463.767    13011.192    2686.1071    8046.2159    311.80692    14526 
189000000   -273.15937    10503.359    13077.626    2540.2349    8236.2835    313.39899    14564 
190000000   -280.31586    10314.627    12970.282    2544.8644    8050.0789    310.82654    14610 
191000000   -277.46195    10507.535    12801.201    2636.5804    8148.4164    306.77459    14558 
192000000   -286.58341    10446.442    13046.701    2618.9536    8114.0721    312.65789    14572 
193000000   -296.72619    10401.523    13162.787    2546.2773    8151.9724    315.43984    14584 
194000000    -309.1347    10392.546    12897.659     2561.648    8140.0327    309.08617    14613 
195000000   -271.50025    10399.122    13007.686     2487.993    8182.6293    311.72292    14644 
196000000   -260.75461    10523.414    12827.304    2489.3481    8294.8206    307.40014    14634 
197000000   -289.78816    10430.367    12958.642    2571.6227    8148.5328     310.5476    14555 
198000000   -269.68136    10380.969    12914.195    2486.3976    8164.2527    309.48244    14610 
199000000   -271.00919    10458.848    12948.979    2513.3294    8216.5274    310.31603    14580 
200000000   -280.05765    10287.125    12846.001    2442.5159    8124.6671    307.84822    14585 
201000000   -291.40311    10362.844     12872.13    2471.1813    8183.0659    308.47439    14580 
202000000   -262.05155    10294.519    13047.115    2492.9987    8063.5719    312.66781    14613 
203000000   -290.20208      10448.5    13079.711     2575.748     8162.954    313.44896    14587 
204000000   -280.30304    10273.837    12865.209    2445.5109    8108.6288    308.30853    14616 
205000000   -299.86045      10280.7    12987.528    2493.1183    8087.4418    311.23984    14600 
206000000   -273.79816    10393.449    12962.581    2438.9516    8228.2959    310.64199    14622 
207000000   -247.01414    10425.983    12884.276    2550.9561    8122.0406    308.76544    14574 
208000000   -305.98174    10237.649    13012.664    2426.8466    8116.7846    311.84221    14616 
209000000   -286.75878     10397.17    12976.418     2592.967    8090.9622     310.9736    14598 
210000000   -275.57723    10428.602    12921.517    2652.3083    8051.8706    309.65792    14558 
211000000   -275.79054     10373.86    12812.823    2564.2714    8085.3789    307.05311    14593 
212000000   -273.21644    10326.653    12938.881    2510.6213    8089.2479    310.07404    14590 
213000000   -263.86247    10408.872    12821.735    2590.6237    8082.1103    307.26669    14590 
214000000   -270.24483    10415.305     12974.77    2523.4014    8162.1488     310.9341    14588 
215000000   -272.44947    10296.268    13022.152    2479.4792    8089.2387    312.06958    14607 
216000000   -270.28091    10303.078     12984.61    2552.6473    8020.7115    311.16992    14619 
217000000   -269.95324    10332.079    12846.481    2613.8832    7988.1489    307.85971    14554 
218000000   -277.06561    10686.087    12880.889    2776.0058    8187.1468    308.68429    14546 
219000000   -277.41554    10226.249    12999.596    2468.0931    8035.5718    311.52905    14593 
220000000   -281.59122    10388.724    12831.282    2555.2822    8115.0335    307.49549    14567 
221000000   -292.21095    10297.542    12977.458    2556.3874    8033.3652    310.99852    14562 
222000000   -290.03554    10457.566    12899.754     2587.607    8159.9941    309.13637    14571 
223000000   -316.42827    10428.409    13040.862    2565.6711    8179.1664    312.51796    14579 
224000000   -244.56886    10211.591    12932.398    2399.2913    8056.8686    309.91867    14613 
225000000   -268.06421    10469.112    13002.402    2629.3858    8107.7909    311.59628    14586 
226000000   -278.11895    10242.997    12873.582    2409.3283    8111.7875    308.50917    14601 
227000000   -255.96414    10532.185    12973.118    2513.6688      8274.48     310.8945    14578 
228000000     -285.055    10365.274    13154.789    2540.6595    8109.6693    315.24816    14574 
229000000   -269.26961    10479.236    13016.169    2481.3526    8267.1535    311.92621    14612 
230000000   -276.00216    10429.525    12957.392     2606.732    8098.7953    310.51765    14558 
231000000   -252.96682    10365.623      13037.9    2416.0722    8202.5173    312.44699    14585 
232000000   -287.84871    10181.793    12953.124    2383.7104    8085.9315    310.41537    14624 
233000000   -288.49068    10551.341    12879.728    2657.8893    8181.9422    308.65646    14535 
234000000   -299.23425    10478.189    13005.118    2568.1654    8209.2582    311.66138    14590 
235000000   -250.60647    10413.451    12812.619     2490.145    8173.9129    307.04823    14610 
236000000   -266.16222    10463.323     12906.13    2535.9093    8193.5763    309.28918    14593 
237000000   -271.65604    10540.813    12877.126    2641.7463    8170.7229     308.5941    14555 
238000000   -293.45978    10150.361    12849.458    2347.8786    8095.9423    307.93106    14631 
239000000   -280.98865    10420.358    12887.327    2622.0717    8079.2745    308.83857    14528 
240000000   -263.20437    10342.593    12836.068    2565.7875    8040.0094    307.61018    14553 
241000000   -255.08912    10447.239    13109.628    2503.1749    8199.1536    314.16591    14564 
242000000   -276.77043    10344.501    13084.128    2560.5955    8060.6759    313.55481    14589 
243000000   -251.54321    10570.766    12858.364     2669.226    8153.0828    308.14448    14558 
244000000   -266.51978    10334.002    12903.476     2444.723     8155.799    309.22557    14586 
245000000   -297.03258     10313.51    13020.835    2451.8775    8158.6647    312.03802    14610 
246000000   -288.34732    10423.362    12837.067    2471.7383    8239.9706    307.63412    14603 
247000000   -288.07439    10433.864    12936.069    2519.2711    8202.6668    310.00664    14598 
248000000   -281.19348    10089.735    12721.636    2380.4943    7990.4341    304.86787    14606 
249000000   -300.86469    10382.476    12979.162    2449.2314     8234.109    311.03934    14560 
250000000   -302.68176    10369.234    12970.972     2494.169    8177.7469    310.84309    14595 
251000000    -248.4852    10476.027    12894.037    2687.4347    8037.0778    308.99938    14519 
252000000   -281.53357     10427.67    12971.672    2507.6787    8201.5253    310.85986    14567 
253000000   -259.01591     10271.31    12944.427    2476.2108    8054.1148    310.20694    14559 
254000000   -301.78177    10449.137    13038.328    2622.1547    8128.7645    312.45723    14552 
255000000   -277.40723    10389.535    12958.932     2581.987    8084.9551    310.55454    14557 
256000000   -271.66593    10334.849    12995.796    2501.4747      8105.04    311.43798    14593 
257000000   -284.51598     10231.85    12986.671    2447.4442     8068.922     311.2193    14575 
258000000    -264.4068    10534.325    12951.811    2629.6959    8169.0355     310.3839    14574 
259000000   -300.99383    10337.717    12949.112    2556.2436    8082.4671    310.31923    14570 
260000000   -301.01144    10421.676    12961.675    2568.5847    8154.1031    310.62029    14563 
261000000   -267.00424    10340.189    12911.575    2521.0887     8086.105    309.41967    14590 
262000000   -274.10468    10301.519    12979.913    2538.3414    8037.2827    311.05735    14565 
263000000   -293.79075    10419.617    12787.319    2546.0475    8167.3598    306.44193    14558 
264000000   -259.13519     10228.28    12893.697    2382.1318    8105.2828    308.99123    14627 
265000000   -299.25899    10270.992    12971.299     2466.394    8103.8574    310.85093    14597 
266000000   -293.58724    10244.241    12968.374    2438.7839    8099.0443    310.78081    14585 
267000000    -270.2535    10470.659    13007.588    2514.3152    8226.5976    311.72056    14575 
268000000   -269.00972    10445.763    12912.997    2536.4792    8178.2936    309.45374    14583 
269000000   -279.70729    10362.824    12804.777    2581.1866    8061.3446    306.86029    14582 
270000000   -297.82537    10505.226    12997.373    2576.2559    8226.7951    311.47577    14553 
271000000   -296.62225     10426.54    12868.107    2526.8752    8196.2874    308.37797    14595 
272000000   -274.41078     10225.35    12871.919    2422.6774    8077.0829    308.46933    14628 
273000000   -289.21347    10287.614    12829.407      2466.93    8109.8973    307.45054    14584 
274000000   -270.88246    10237.071    12600.639    2420.3048    8087.6488    301.96822    14616 
275000000   -272.18745    10595.566    12820.024    2762.3672    8105.3858    307.22569    14503 
276000000   -296.82808    10330.443    13036.787     2489.093    8138.1784    312.42031    14582 
277000000   -285.52955    10428.496    12739.737    2491.7781    8222.2473    305.30165    14589 
278000000   -272.47038    10414.454    12985.201    2593.5894    8093.3352    311.18407    14582 
279000000   -280.34958    10346.819    12938.477    2533.0754    8094.0928    310.06435    14589 
280000000   -256.30375    10263.768    12984.627    2463.4902    8056.5812    311.17032    14615 
281000000    -263.4383    10509.587    12838.078    2617.1743    8155.8511    307.65833    14549 
282000000   -268.51675    10218.308    12997.288     2402.281     8084.544    311.47374    14632 
283000000   -289.27219    10235.828    12810.261    2435.6574    8089.4433    306.99173    14608 
284000000   -308.34944    10267.769    12955.015     2464.649    8111.4698    310.46067    14603 
285000000   -218.51445    10434.454    13002.798    2500.2746    8152.6943    311.60578    14607 
286000000   -276.44339    10405.817     12931.78    2445.3947     8236.866    309.90386    14598 
287000000   -280.85796    10348.026    12899.651    2495.3767    8133.5077     309.1339    14597 
288000000   -295.83086    10453.452     12860.22    2581.1741    8168.1091    308.18896    14551 
289000000   -271.71332    10567.417    12855.646    2704.4191    8134.7113    308.07936    14545 
290000000   -276.41016    10409.085    12907.026    2550.9696     8134.526    309.31064    14569 
291000000   -293.11173    10351.116    12961.978    2541.4605     8102.767    310.62754    14567 
292000000   -278.88645    10528.224    12901.919    2532.7713    8274.3387    309.18825    14567 
293000000   -287.68785     10269.88    13062.122    2545.0036    8012.5646    313.02744    14546 
294000000   -285.92735    10533.344    12948.804    2632.3977    8186.8732    310.31183    14593 
295000000   -272.39937    10410.788    12944.801    2564.7779    8118.4096    310.21591    14592 
296000000   -273.43665    10516.355     12904.95    2542.4455    8247.3457     309.2609    14564 
297000000   -310.14051    10191.765    12988.153    2452.9955    8048.9105    311.25482    14593 
298000000   -279.17363     10252.02    12834.053    2430.7851    8100.4083    307.56188    14600 
299000000    -272.7329    10354.469    12956.334    2478.9534     8148.248    310.49228    14585 
300000000   -275.08994    10235.629    12926.146    2550.1091    7960.6095    309.76885    14569 
301000000   -273.01798      10335.6    12894.846    2485.0249    8123.5931    309.01875    14595 
302000000   -259.43312    10363.141     12869.73    2505.6593    8116.9143    308.41687    14660 
303000000   -285.55644    10580.044    12858.271    2660.1431     8205.457    308.14225    14558 
304000000   -259.72777    10226.853     12707.06    2500.3551    7986.2256    304.51857    14621 
305000000   -273.22917    10489.243    12917.662    2604.3871    8158.0852    309.56554    14586 
306000000   -272.38476    10457.198    12936.545    2573.6719    8155.9107    310.01807    14562 
307000000   -266.43175    10348.044    12965.253    2463.0361    8151.4398    310.70603    14590 
308000000   -274.51604    10218.654    13040.671     2483.647    8009.5235     312.5134    14576 
309000000   -269.98528    10317.108    12928.091    2525.1851     8061.908    309.81546    14595 
310000000   -289.29318    10470.913    13032.371    2566.9044     8193.302    312.31449    14574 
311000000   -277.22966    10377.211    12883.466    2568.1826     8086.258    308.74605    14586 
312000000   -280.60118    10364.103    12922.412    2582.6725    8062.0314    309.67936    14583 
313000000   -281.77369    10384.928    12939.278    2552.1161    8114.5858    310.08355    14596 
314000000   -274.76908    10016.403    12923.677    2362.5399    7928.6319    309.70969    14633 
315000000   -279.81175    10333.184    13020.424    2528.0823    8084.9133    312.02818    14588 
316000000   -292.20708    10337.593    12873.065    2508.1361    8121.6642    308.49678    14574 
317000000   -283.77353    10567.354    13007.263    2676.3186    8174.8089    311.71277    14538 
318000000   -284.01497    10327.909    12964.809    2506.6338      8105.29    310.69539    14563 
319000000   -294.91856    10202.611    12791.721     2399.035    8098.4944    306.54743    14628 
320000000    -234.6568    10323.909    12934.417    2478.1119    8080.4535    309.96705    14608 
321000000    -272.1485    10372.614    12741.829    2452.9415    8191.8208    305.35179    14619 
322000000   -288.09436    10357.996    13105.094    2521.1056    8124.9849    314.05726    14621 
323000000    -264.1847    10510.266    12850.762    2521.7974    8252.6538     307.9623    14549 
324000000   -291.99209    10236.555     12902.43    2440.8132    8087.7336     309.2005    14627 
325000000   -271.53608     10341.94    12899.078     2535.402    8078.0742    309.12018    14626 
326000000   -283.80855    10567.282    12965.271    2602.4417    8248.6492    310.70646    14555 
327000000    -283.0512    10243.049    12990.121    2402.5042    8123.5963    311.30198    14623 
328000000   -263.61499     10340.41    12735.964    2488.5588    8115.4663    305.21123    14600 
329000000   -285.61961    10238.683    12955.444    2453.1664    8071.1363    310.47097    14625 
330000000   -273.72063    10351.298    12801.305    2434.1418    8190.8769     306.7771    14619 
331000000   -252.14468    10466.402    12941.671    2504.6506    8213.8957     310.1409    14609 
332000000   -275.69017    10119.676    12882.795    2288.2653    8107.1006    308.72996    14660 
333000000   -293.61329    10419.789    12948.566    2581.8225    8131.5798    310.30613    14570 
334000000   -261.38044    10296.691    12964.569    2437.1188    8120.9529    310.68963    14568 
335000000   -278.67706    10334.018     12953.11    2560.1432    8052.5517    310.41503    14589 
336000000   -255.29535    10233.362    12965.805    2379.2817    8109.3759    310.71926    14633 
337000000   -276.28001    10164.038    12978.749    2500.6389    7939.6791    311.02945    14591 
338000000   -269.28378    10319.656    13070.414    2443.2154    8145.7243    313.22617    14598 
339000000   -268.97808    10240.726     12980.39     2458.039    8051.6653    311.06878    14602 
340000000   -290.23375    10249.553    12928.103    2425.6859    8114.1007    309.81576    14605 
341000000   -282.01532    10363.445    12912.698    2564.5886    8080.8715    309.44658    14594 
342000000   -272.95594    10411.225    12884.174    2457.6088     8226.572    308.76302    14583 
343000000   -272.62464    10329.666    12910.585    2527.5269    8074.7633    309.39595    14564 
344000000    -318.3207    10161.752    12959.475    2385.4079    8094.6649    310.56757    14630 
345000000    -303.7531    10293.905    12764.119    2495.2719    8102.3863    305.88595    14608 
346000000   -272.87133    10448.269    12902.448    2535.3054    8185.8353    309.20094    14550 
347000000   -285.33256     10411.76     12900.14    2548.7183     8148.374    309.14564    14573 
348000000   -250.48691    10331.341    12911.975    2478.1336    8103.6945    309.42925    14617 
349000000    -269.1473    10392.437    12924.724    2477.2807    8184.3036    309.73477    14591 
350000000   -271.37982    10195.383    12745.899    2343.5991    8123.1639    305.44931    14610 
351000000   -307.48691    10365.005     12855.29    2571.7065    8100.7854    308.07082    14583 
352000000    -281.5212    10343.648     12795.59    2458.3481    8166.8216    306.64013    14567 
353000000   -273.97817    10269.674    13009.838    2342.3045    8201.3476    311.77448    14605 
354000000   -295.58674    10459.392    13027.192    2645.4931    8109.4858    312.19037    14519 
355000000   -286.88515    10490.467    12853.188    2571.1634    8206.1887    308.02044    14559 
356000000   -286.50122    10324.217    12932.683    2458.0664    8152.6518     309.9255    14596 
357000000   -258.27545    10450.739    12864.863    2574.9602    8134.0538    308.30022    14556 
358000000   -269.63019    10413.346    12985.431    2533.4331    8149.5429    311.18959    14594 
359000000   -294.34525    10416.247     13006.56    2588.3079    8122.2848    311.69594    14578 
360000000    -279.1565    10340.759    12796.109    2545.5264    8074.3889    306.65257    14566 
361000000   -290.65032    10488.071    12873.906    2604.8099    8173.9116    308.51694    14578 
362000000   -279.63596    10186.902    12796.824    2405.3328    8061.2051    306.66972    14613 
363000000   -252.90841    10524.272    12854.968    2523.5022    8253.6783     308.0631    14586 
364000000   -265.42227    10420.409    12846.228    2567.1746    8118.6562    307.85366    14543 
365000000   -295.41215    10361.798    12859.536     2482.921    8174.2887    308.17256    14577 
366000000   -256.04327    10396.042    12930.458    2494.9076    8157.1772    309.87218    14580 
367000000   -266.50675    10361.432    13104.937    2514.3736    8113.5654    314.05348    14580 
368000000    -267.6811    10396.776    12825.596    2419.5721    8244.8849    307.35922    14596 
369000000   -282.78604    10179.636     12990.37    2482.4217    7980.0007    311.30795    14604 
370000000   -271.10148     10331.81    12920.458    2463.4841    8139.4269    309.63254    14624 
371000000   -315.24398     10396.76    13022.639     2582.907    8129.0973    312.08125    14553 
372000000   -292.20501    10434.408    12920.505    2538.6668     8187.946    309.63367    14594 
373000000   -255.92755    10406.367     12907.96    2543.7958    8118.4984    309.33303    14580 
374000000   -282.96857    10289.278    13011.732    2475.6607     8096.586    311.81988    14559 
375000000   -269.17133    10381.926    12955.747    2483.7506    8167.3465    310.47823    14582 
376000000   -271.92388    10411.821    12869.628    2532.3805    8151.3648    308.41443    14545 
377000000   -267.57065    10410.406    13057.555    2579.7176    8098.2586    312.91801    14550 
378000000   -267.32207    10378.454    12934.438    2501.3748    8144.4009    309.96755    14560 
379000000   -269.37674    10391.556     12724.47    2522.1883    8138.7446    304.93577    14576 
380000000    -287.3524    10296.342    12852.723    2434.4607    8149.2338    308.00929    14586 
381000000   -247.38875    10265.181     12996.28    2481.3728    8031.1968    311.44958    14615 
382000000   -290.60327    10314.284    12858.447    2405.0339    8199.8538    308.14648    14584 
383000000   -265.94803    10371.256    13057.273    2614.5154    8022.6891    312.91123    14569 
384000000   -280.30255    10393.159    12945.601    2542.9074    8130.5542    310.23508    14556 
385000000   -292.21426    10413.127    12759.844    2624.4171    8080.9245    305.78349    14559 
386000000   -278.01066    10539.343    13063.682    2660.3094    8157.0445    313.06484    14542 
387000000    -256.6998    10394.038    12801.966    2527.6333    8123.1046    306.79293    14556 
388000000   -296.52858    10293.093    12999.074    2620.8612    7968.7605    311.51654    14584 
389000000   -267.28288    10299.245    13026.477    2494.5742    8071.9539    312.17324    14594 
390000000   -280.78191    10566.308    12972.262    2563.6267    8283.4633      310.874    14557 
391000000   -256.85177    10584.405    13080.196     2746.481    8094.7753    313.46058    14477 
392000000    -292.0088    10457.251    12939.984    2616.9533     8132.307    310.10046    14517 
393000000   -308.14925    10604.507    12742.966    2681.7479    8230.9083    305.37904    14525 
394000000   -278.78629    10546.948    12814.919    2525.3536    8300.3806    307.10334    14577 
395000000   -269.85166    10432.225    13004.631    2566.5963    8135.4805    311.64969    14568 
396000000   -232.30257    10351.238    12932.007      2380.51    8203.0308     309.9093    14645 
397000000   -288.72156    10293.701    12922.185    2463.7434    8118.6791    309.67392    14586 
398000000   -279.17378      10211.7    13093.449    2422.1784    8068.6954    313.77818    14629 
399000000   -269.61145     10280.95    12940.805    2496.3888    8054.1729    310.12015    14561 
400000000   -278.94881    10446.783    12975.296    2650.0789    8075.6526     310.9467    14525 
401000000   -275.57155    10392.664    12962.597    2568.2687    8099.9665    310.64239    14585 
402000000   -276.25711    10479.807    13009.742    2618.8683    8137.1961    311.77219    14564 
403000000   -261.27532    10205.085    12909.924    2422.0429    8044.3175    309.38009    14595 
404000000   -295.03707    10184.866    13042.016    2517.0088     7962.894    312.54561    14561 
405000000   -288.86363    10401.099    12999.311    2532.4849    8157.4778     311.5222    14582 
406000000   -261.52831    10437.784    12851.415    2578.2426    8121.0702    307.97797    14559 
407000000   -274.74529    10355.908    13011.643    2570.5216    8060.1313    311.81774    14558 
408000000   -257.89289    10353.807    13119.687    2582.8408    8028.8588    314.40696    14545 
409000000   -277.74035    10475.943    12921.669    2579.8014    8173.8816    309.66156    14571 
410000000   -301.02157    10389.677    12749.828    2506.0459    8184.6527    305.54347    14573 
411000000   -289.58192    10411.841    13003.112    2492.6721     8208.751    311.61329    14625 
412000000   -256.35415    10343.847    12898.073    2424.7016    8175.4991    309.09609    14595 
413000000   -311.00033    10443.332    12891.562    2572.8444    8181.4882    308.94006    14588 
414000000   -292.02544    10361.142    12961.076    2474.5086    8178.6583    310.60592    14601 
415000000    -294.0484    10380.887    12816.074    2531.1002    8143.8354    307.13103    14587 
416000000   -270.66129    10463.237    12822.994    2558.7962     8175.102    307.29686    14555 
417000000   -263.58571     10461.17    12950.108    2666.7237    8058.0325     310.3431    14570 
418000000   -264.92304    10219.196     12944.11    2474.6521    8009.4674    310.19936    14589 
419000000   -259.63188    10300.713    12730.614    2421.7969     8138.548    305.08301    14611 
420000000   -287.87736    10371.949    13005.186    2477.5087    8182.3178    311.66301    14590 
421000000   -286.23843     10494.76    12915.796    2547.3515    8233.6467    309.52082    14573 
422000000   -263.12272    10248.386    13011.037    2450.3892    8061.1195    311.80322    14609 
423000000   -269.99252    10370.348    12844.371    2544.7907    8095.5498    307.80915    14603 
424000000   -270.14872    10389.644    13072.494    2479.9265    8179.8661    313.27602    14610 
425000000   -305.32677    10420.434    12981.053    2664.1514    8061.6096    311.08468    14520 
426000000    -258.0785    10165.498    13109.158    2434.4428     7989.134    314.15464    14609 
427000000   -290.79073    10304.092    12992.269    2432.0887    8162.7939    311.35346    14611 
428000000   -288.71541    10403.084    12890.018    2436.1062    8255.6933    308.90305    14599 
429000000   -294.13548    10276.237    12872.152    2473.1309    8097.2412    308.47491    14630 
430000000   -244.15381    10388.027      12869.4    2508.0916    8124.0888    308.40895    14610 
431000000   -266.21155    10480.397    13053.967    2618.9723     8127.636    312.83201    14556 
432000000   -260.24465    10366.021    12888.045    2493.3979    8132.8674    308.85578    14581 
433000000   -271.12351    10378.302    12854.495      2516.14    8133.2851    308.05177    14574 
434000000   -248.11613    10258.193    12872.717    2543.8188    7962.4904    308.48844    14573 
435000000   -270.82804    10409.885    13086.582    2500.5419    8180.1715    313.61361    14574 
436000000   -259.16666    10249.949    12989.018    2501.2198    8007.8958    311.27556    14588 
437000000   -299.90349    10375.532    12980.841    2619.5012     8055.934    311.07959    14558 
438000000   -263.60091    10278.263    12906.655    2414.0118    8127.8518    309.30177    14601 
439000000    -259.3674    10323.055     12756.48    2532.5809    8049.8417    305.70288    14559 
440000000   -246.73346    10541.013    12894.779    2560.4854    8227.2606    309.01716    14570 
441000000   -254.38886    10441.294    12825.183     2570.212    8125.4709    307.34932    14546 
442000000   -278.54212    10256.987    12985.147    2470.8159    8064.7129    311.18279    14606 
443000000   -271.92136    10212.409    13024.109    2310.0573    8174.2728    312.11649    14645 
444000000   -295.71605    10541.098    12963.381    2607.5304    8229.2834    310.66117    14561 
445000000   -275.73206     10456.47    12898.212     2484.967    8247.2353    309.09943    14583 
446000000     -289.289    10401.306    12921.453     2516.548    8174.0468    309.65638    14606 
447000000   -280.85647     10498.07    12924.393    2592.0161    8186.9099    309.72684    14555 
448000000     -253.256    10347.667    12972.906    2439.6114    8161.3111    310.88943    14588 
449000000   -303.89763    10446.988    12819.424    2603.2926    8147.5934    307.21131    14563 
450000000   -266.49869    10374.062    12847.671    2557.4496     8083.111    307.88824    14549 
451000000   -261.04142    10202.992     13017.22    2396.3474    8067.6859    311.95139    14597 
452000000   -290.16951    10436.087    12991.832    2637.3679    8088.8886    311.34298    14568 
453000000    -284.7561     10237.67    13062.793    2416.3872    8106.0389    313.04353    14607 
454000000   -274.54496    10272.245    12921.122     2449.467     8097.323    309.64844    14631 
455000000   -265.98885    10484.311    12820.421    2559.9302    8190.3699    307.23521    14572 
456000000   -295.83291    10386.855    13027.875     2596.785    8085.9028    312.20673    14552 
457000000   -297.34331    10326.874     12960.52    2607.7888    8016.4289    310.59261    14555 
458000000   -274.52361    10459.785    12763.546    2638.8643    8095.4443    305.87222    14530 
459000000   -274.18043    10115.973    12975.962     2388.032    8002.1212    310.96267    14624 
460000000    -294.8166    10421.671    13100.433     2534.952     8181.536    313.94556    14570 
461000000   -275.28505    10431.985    12991.876    2613.4697    8093.8006    311.34404    14579 
462000000   -309.89337     10434.59    12883.347    2538.7827    8205.7009     308.7432    14594 
463000000   -266.75433    10257.412    12849.956    2436.3591     8087.807      307.943    14609 
464000000   -264.15394    10287.243    12892.394    2381.8971       8169.5    308.95999    14632 
465000000   -282.97799    10397.446    12898.514    2611.7934    8068.6307    309.10666    14523 
466000000    -290.1008    10484.303    12918.016     2600.265     8174.139    309.57402    14589 
467000000   -253.29456    10499.729    13022.223    2616.6535      8136.37    312.07128    14574 
468000000   -301.61096      10388.7    13113.597    2636.1017    8054.2095    314.26102    14556 
469000000   -276.01042    10570.111    12920.094    2610.0529    8236.0683    309.62382    14565 
470000000   -300.94029    10300.884    12872.311    2525.3067    8076.5174    308.47871    14604 
471000000   -263.99545    10308.789    12996.375    2464.2655    8108.5194    311.45186    14593 
472000000   -278.46807     10516.57    12934.015    2596.5508    8198.4877    309.95743    14576 
473000000   -280.15825     10339.19    13060.093    2561.5763    8057.7724    312.97883    14569 
474000000   -261.20896    10392.802    12910.475    2432.7625     8221.249     309.3933    14599 
475000000   -274.19255    10396.632    12815.395    2572.5917    8098.2331    307.11476    14557 
476000000   -251.87275    10233.819    12961.272    2385.7405    8099.9515    310.61063    14611 
477000000   -265.17843    10384.176    13130.937     2495.571    8153.7834    314.67658    14566 
478000000   -259.17543    10501.774    12918.467    2598.1742    8162.7748    309.58482    14598 
479000000   -262.64339     10379.75    12821.976    2490.9946    8151.3984    307.27247    14577 
480000000   -283.14666    10475.306    12805.611    2573.4458    8185.0065    306.88028    14580 
481000000   -291.61895    10455.524    13095.353      2464.12    8283.0226    313.82382    14557 
482000000   -257.81645    10570.521    12999.953    2643.5781    8184.7592    311.53759    14548 
483000000   -265.62352     10330.36    12946.872    2560.4764    8035.5067    310.26554    14589 
484000000   -260.19233    10489.707    13015.401    2696.9738    8052.9254     311.9078    14528 
485000000   -289.92272    10284.005    12970.359    2515.3323    8058.5951     310.8284    14566 
486000000   -279.19087    10354.976    12940.596    2544.6722    8089.4942    310.11513    14590 
487000000     -259.756    10290.656    12974.783    2428.0765    8122.3356    310.93442    14634 
488000000   -296.56784    10385.789    12945.624    2563.3413    8119.0152    310.23564    14577 
489000000   -290.39761    10354.356    12926.043    2528.7455    8116.0077    309.76637    14586 
490000000   -309.71944    10347.722    12980.385    2502.2321    8155.2091    311.06867    14582 
491000000   -328.50616    10546.481    12998.093    2674.4889    8200.4981    311.49302    14546 
492000000   -269.60371    10504.525    12883.065    2560.3409    8213.7877    308.73643    14579 
493000000   -271.35623    10314.439     12993.94    2502.5397    8083.2555     311.3935    14610 
494000000   -263.85697    10270.713    12954.674    2493.0633    8041.5063     310.4525    14603 
495000000   -252.54532     10514.83    12899.466    2583.5653    8183.8096    309.12946    14580 
496000000   -276.18247    10209.899    12836.169    2377.3219    8108.7592     307.6126    14618 
497000000   -281.08769    10213.205    12975.747    2474.5049    8019.7882    310.95751    14568 
498000000   -275.36274    10385.269    12932.092    2539.1878    8121.4436    309.91134    14584 
499000000   -280.85248    10409.595    12810.263    2607.7002    8082.7472    306.99178    14589 
500000000   -285.17097    10264.903    12979.727     2520.945    8029.1288    311.05289    14592 
Loop time of 118070 on 28 procs for 500000000 steps with 14000 atoms

Performance: 9147.121 ns/day, 0.003 hours/ns, 4234.778 timesteps/s
99.5% CPU use with 28 MPI tasks x no OpenMP threads

MPI task timing breakdown:
Section |  min time  |  avg time  |  max time  |%varavg| %total
---------------------------------------------------------------
Pair    | 7965.5     | 8756.4     | 12134      |1066.1 |  7.42
Bond    | 5546.3     | 6260       | 11909      |2285.8 |  5.30
Neigh   | 25382      | 25626      | 25964      |  92.0 | 21.70
Comm    | 31754      | 42184      | 44491      |1424.4 | 35.73
Output  | 0.66341    | 0.66473    | 0.66613    |   0.1 |  0.00
Modify  | 22240      | 22328      | 22430      |  32.8 | 18.91
Other   |            | 1.292e+04  |            |       | 10.94

Nlocal:    500 ave 526 max 468 min
Histogram: 2 0 3 4 2 2 8 4 1 2
Nghost:    437.286 ave 576 max 293 min
Histogram: 3 4 1 0 6 1 2 6 4 1
Neighs:    2306.96 ave 2816 max 1783 min
Histogram: 1 2 3 3 3 7 4 2 1 2

Total # of neighbors = 64595
Ave neighs/atom = 4.61393
Ave special neighs/atom = 6.81671
Neighbor list builds = 100025872
Dangerous builds = 0
System init for write_restart ...
Total wall time: 32:47:54
