LAMMPS (5 Jun 2019)
Reading data file ...
  orthogonal box = (-420 -420 -420) to (420 420 420)
  2 by 2 by 7 MPI processor grid
  reading atoms ...
  14000 atoms
  scanning bonds ...
  51 = max bonds/atom
  scanning angles ...
  1 = max angles/atom
  reading bonds ...
  13800 bonds
  reading angles ...
  13600 angles
Finding 1-2 1-3 1-4 neighbors ...
  special bond factors lj:   0          0          0         
  special bond factors coul: 0          0          0         
  2 = max # of 1-2 neighbors
  2 = max # of 1-3 neighbors
  4 = max # of 1-4 neighbors
  56 = max # of special neighbors
  special bonds CPU = 1.49164 secs
  read_data CPU = 1.56545 secs
Finding 1-2 1-3 1-4 neighbors ...
  special bond factors lj:   1          1          1         
  special bond factors coul: 0          0          0         
  2 = max # of 1-2 neighbors
  2 = max # of 1-3 neighbors
  4 = max # of 1-4 neighbors
  56 = max # of special neighbors
  special bonds CPU = 0.000664478 secs
WARNING: Using 'neigh_modify every 1 delay 0 check yes' setting during minimization (../min.cpp:168)
Neighbor list info ...
  update every 1 steps, delay 0 steps, check yes
  max neighbors/atom: 2000, page size: 100000
  master list distance cutoff = 26.9
  ghost atom cutoff = 26.9
  binsize = 13.45, bins = 63 63 63
  1 neighbor lists, perpetual/occasional/extra = 1 0 0
  (1) pair lj/cut, perpetual
      attributes: half, newton on
      pair build: half/bin/newton
      stencil: half/bin/3d/newton
      bin: standard
Setting up cg style minimization ...
  Unit style    : real
  Current step  : 0
Per MPI rank memory allocation (min/avg/max) = 1.165 | 13.79 | 17.67 Mbytes
Step Temp E_pair E_mol TotEng Press 
       0            0 1.5959422e+12      2649600 1.5959449e+12 7.3854599e+08 
    2872            0   -1769.6168    5348.8369    3579.2201  0.031182827 
Loop time of 0.89734 on 28 procs for 2872 steps with 14000 atoms

99.3% CPU use with 28 MPI tasks x no OpenMP threads

Minimization stats:
  Stopping criterion = energy tolerance
  Energy initial, next-to-last, final = 
     1.59594489115e+12      3579.56365059      3579.22009235
  Force two-norm initial, final = 4.92929e+10 2.03587
  Force max component initial, final = 1.05441e+09 0.154693
  Final line search alpha, max atom move = 0.461827 0.0714414
  Iterations, force evaluations = 2872 3119

MPI task timing breakdown:
Section |  min time  |  avg time  |  max time  |%varavg| %total
---------------------------------------------------------------
Pair    | 0.044014   | 0.14606    | 0.27408    |  17.7 | 16.28
Bond    | 0.014778   | 0.040443   | 0.074428   |   8.2 |  4.51
Neigh   | 0.092664   | 0.093888   | 0.095147   |   0.2 | 10.46
Comm    | 0.16787    | 0.30432    | 0.45475    |  14.1 | 33.91
Output  | 0          | 0          | 0          |   0.0 |  0.00
Modify  | 0          | 0          | 0          |   0.0 |  0.00
Other   |            | 0.3126     |            |       | 34.84

Nlocal:    500 ave 911 max 179 min
Histogram: 3 3 4 4 5 0 2 3 2 2
Nghost:    314.393 ave 518 max 130 min
Histogram: 3 2 3 3 4 4 3 3 2 1
Neighs:    3173.18 ave 5987 max 902 min
Histogram: 3 2 6 3 5 0 1 3 3 2

Total # of neighbors = 88849
Ave neighs/atom = 6.34636
Ave special neighs/atom = 5.82857
Neighbor list builds = 199
Dangerous builds = 0
Setting up Verlet run ...
  Unit style    : real
  Current step  : 2872
  Time step     : 0.1
Per MPI rank memory allocation (min/avg/max) = 1.127 | 13.42 | 16.54 Mbytes
Step Temp E_pair E_mol TotEng Press 
    2872            0   -1769.6168    5348.8369    3579.2201  0.031182827 
   12872    222.23815   -1497.9331    9148.8694     16924.57   -1.7476493 
Loop time of 1.66735 on 28 procs for 10000 steps with 14000 atoms

Performance: 51.819 ns/day, 0.463 hours/ns, 5997.550 timesteps/s
99.3% CPU use with 28 MPI tasks x no OpenMP threads

MPI task timing breakdown:
Section |  min time  |  avg time  |  max time  |%varavg| %total
---------------------------------------------------------------
Pair    | 0.047682   | 0.17174    | 0.37574    |  21.7 | 10.30
Bond    | 0.040007   | 0.10844    | 0.20086    |  13.5 |  6.50
Neigh   | 0.0024636  | 0.0026544  | 0.0029968  |   0.3 |  0.16
Comm    | 0.4828     | 0.72957    | 0.93986    |  14.7 | 43.76
Output  | 0.00010182 | 0.00013067 | 0.0001511  |   0.0 |  0.01
Modify  | 0.094398   | 0.25344    | 0.46707    |  20.4 | 15.20
Other   |            | 0.4014     |            |       | 24.07

Nlocal:    500 ave 910 max 179 min
Histogram: 3 3 3 5 5 0 2 3 2 2
Nghost:    314.286 ave 518 max 134 min
Histogram: 3 3 2 3 4 4 3 3 2 1
Neighs:    3190.86 ave 6070 max 900 min
Histogram: 3 3 5 4 4 1 0 3 3 2

Total # of neighbors = 89344
Ave neighs/atom = 6.38171
Ave special neighs/atom = 5.82857
Neighbor list builds = 5
Dangerous builds = 0
4000 atoms in group rxnSites
Neighbor list info ...
  update every 1 steps, delay 1 steps, check yes
  max neighbors/atom: 2000, page size: 100000
  master list distance cutoff = 26.9
  ghost atom cutoff = 26.9
  binsize = 13.45, bins = 63 63 63
  2 neighbor lists, perpetual/occasional/extra = 1 1 0
  (1) pair lj/cut, perpetual
      attributes: half, newton on
      pair build: half/bin/newton
      stencil: half/bin/3d/newton
      bin: standard
  (2) fix bond/create/random, occasional, copy from (1)
      attributes: half, newton on
      pair build: copy
      stencil: none
      bin: none
Setting up Verlet run ...
  Unit style    : real
  Current step  : 0
  Time step     : 25
Per MPI rank memory allocation (min/avg/max) = 17.76 | 18.28 | 18.84 Mbytes
Step E_pair PotEng KinEng E_bond E_angle Temp Bonds 
       0   -1497.9331    7650.9364    9273.6335     3057.033    6091.8365    222.23815    13800 
 1000000     -301.433    10857.778    12899.541    3026.5339    8132.6767    309.13127    14384 
 2000000   -284.50713    10732.896     12820.31    2828.9416    8188.4613    307.23254    14430 
 3000000   -281.32177    10552.438    12853.341    2645.3864    8188.3732    308.02411    14499 
 4000000   -321.18512    10502.426    12851.942    2740.7189    8082.8926    307.99059    14488 
 5000000   -309.20599    10539.949    12982.984    2725.6062    8123.5491    311.13095    14505 
 6000000   -279.81003    10353.515    13063.842    2579.6111    8053.7137    313.06868    14528 
 7000000    -256.1515    10428.544    12921.848    2606.8799    8077.8151    309.66585    14542 
 8000000   -264.95726    10328.408    13114.316    2545.4918    8047.8732    314.27825    14540 
 9000000   -268.75682    10375.709    12894.483    2573.9204    8070.5456    309.01005    14558 
10000000   -268.59926    10319.571     12896.39    2488.5028    8099.6679    309.05577    14585 
11000000   -294.82319    10360.779    13069.347    2422.3027    8233.2991     313.2006    14591 
12000000   -287.51854    10449.092    12851.739     2634.668    8101.9421    307.98572    14569 
13000000   -277.09203    10533.137    12927.646     2671.361    8138.8681    309.80478    14509 
14000000   -262.22618    10329.938     12818.27    2513.1611    8079.0027    307.18365    14584 
15000000   -293.83166    10135.309    13114.989    2363.3664     8065.774    314.29438    14626 
16000000   -264.09545    10533.767    12995.331    2693.0426    8104.8197    311.42683    14540 
17000000   -262.81297    10454.259    12781.481    2669.1819    8047.8903    306.30203    14513 
18000000   -287.00835    10464.242    12922.125    2681.5566    8069.6937    309.67249    14512 
19000000   -273.30663    10393.888    12946.675    2630.0833     8037.111    310.26082    14534 
20000000   -283.41635    10117.607    12791.963     2367.369    8033.6549    306.55322    14618 
21000000   -300.59932    10277.121    12962.576     2453.345    8124.3753    310.64187    14582 
22000000   -283.46348    10364.094    12744.835    2582.3758    8065.1819    305.42382    14570 
23000000   -260.34945     10379.51    12975.398    2485.4495    8154.4098    310.94916    14577 
24000000   -240.53317    10329.387    12877.883    2554.3722    8015.5483    308.61225    14609 
25000000   -278.42397    10188.123    12966.852     2418.585    8047.9616    310.74434    14616 
26000000   -308.93133    10293.776    12695.455     2576.285    8026.4226    304.24045    14560 
27000000   -293.06265     10421.62    13042.662    2578.7391    8135.9431    312.56111    14569 
28000000   -271.58101    10499.302    12945.655    2662.1424    8108.7407    310.23637    14564 
29000000   -257.30108    10294.763    13017.504    2485.3987    8066.6656    311.95821    14595 
30000000   -293.94847    10278.507    13043.504    2482.0951    8090.3603    312.58128    14628 
31000000   -274.87609    10319.092    12972.122    2495.5046     8098.464    310.87063    14580 
32000000   -276.00321     10408.87      12901.8    2595.4776    8089.3961    309.18542    14558 
33000000   -266.35065    10452.823    12836.162    2580.4689    8138.7048    307.61242    14585 
34000000   -319.12466    10467.711    12791.846    2576.1996    8210.6362     306.5504    14548 
35000000   -286.98468    10427.111     12921.83    2515.3827     8198.713    309.66541    14573 
36000000   -280.52019    10266.624    12848.711    2436.4742    8110.6697    307.91317    14619 
37000000   -292.58251    10365.635    12954.034    2494.3866    8163.8313    310.43718    14571 
38000000   -276.82128    10634.449    12968.377    2661.4469    8249.8235     310.7809    14515 
39000000   -270.27249    10362.806    12735.766    2479.8617    8153.2169    305.20649    14599 
40000000   -264.24052    10211.586    12987.095    2355.7621    8120.0641    311.22945    14646 
41000000   -263.72903    10239.033     12719.43    2337.0049    8165.7575      304.815    14601 
42000000   -284.78262    10408.433    12783.488    2506.2384    8186.9776    306.35012    14585 
43000000     -275.771    10459.124     12958.14    2610.9204    8123.9746    310.53557    14565 
44000000   -308.57786    10427.543    12699.625    2578.9875    8157.1337    304.34039    14556 
45000000   -298.83142    10512.233    12993.684    2603.0986    8207.9658    311.38737    14561 
46000000   -283.44713    10443.502    13155.695    2484.0278    8242.9216    315.26987    14607 
47000000   -253.03442    10322.438    12892.907    2470.5172    8104.9554    308.97228    14621 
48000000   -247.70566    10289.817    12955.465    2429.3578    8108.1646    310.47146    14600 
49000000    -292.3208    10287.194    12958.533    2519.7162    8059.7984    310.54498    14593 
50000000   -262.74594    10306.751    12827.106    2571.2638    7998.2332    307.39541    14586 
51000000   -280.47373    10404.926     12826.46    2557.1959    8128.2041    307.37992    14622 
52000000   -286.01086    10311.381    12813.374    2505.7694    8091.6222    307.06632    14588 
53000000   -272.02564    10298.666    12842.882    2468.2628    8102.4285    307.77346    14622 
54000000   -280.83705    10557.292     12983.41    2613.5554    8224.5737    311.14115    14564 
55000000   -279.51366    10448.243    13061.077    2580.4097    8147.3467    313.00241    14560 
56000000   -282.12425    10329.135    12695.071    2455.4567    8155.8026    304.23125    14583 
57000000   -297.85739    10450.325    12828.329     2543.787    8204.3959    307.42472    14575 
58000000   -255.62548    10157.067    13141.363    2392.7887    8019.9037    314.92641    14625 
59000000   -306.41544    10374.436    12941.854    2541.1786    8139.6727    310.14529    14592 
60000000   -255.79726    10328.788    13106.472    2571.5473    8013.0379    314.09027    14559 
61000000    -281.7907    10348.624    12780.683    2584.2288    8046.1859    306.28289    14566 
62000000   -265.48063    10346.281    12964.919    2487.9725    8123.7896    310.69802    14584 
63000000   -271.93782    10444.054    12925.322    2589.2019    8126.7901     309.7491    14531 
64000000   -266.15037    10425.063    12929.844    2627.4556     8063.758    309.85747    14555 
65000000   -286.70801    10475.314    12768.291    2715.6341    8046.3874    305.98592    14527 
66000000   -294.26698    10209.389    13011.639     2384.506    8119.1499    311.81764    14595 
67000000   -265.89952    10372.735    12697.536    2472.4446    8166.1904    304.29032    14556 
68000000   -288.11596    10209.492    12812.559    2433.2476    8064.3606     307.0468    14633 
69000000   -298.47232    10400.587    13115.925    2608.8909     8090.168    314.31681    14584 
70000000    -273.1106    10381.526    13111.641    2495.2809    8159.3561    314.21414    14587 
71000000   -293.91144    10347.833    12974.369    2517.7691    8123.9754    310.92448    14580 
72000000   -305.88216    10418.769    12892.455    2583.5513    8141.1002    308.96146    14575 
73000000   -280.53638    10475.653    13009.682    2541.4532    8214.7358    311.77074    14561 
74000000   -266.40957    10404.329    13002.187    2600.4526    8070.2861    311.59113    14568 
75000000   -264.81195    10320.528    12954.273    2551.4425    8033.8972    310.44289    14568 
76000000   -263.17253    10355.125    12876.794    2511.2816    8107.0162    308.58615    14560 
77000000   -288.04829    10252.976     12886.64    2464.4955    8076.5292     308.8221    14587 
78000000   -301.38868    10510.093    12851.693    2633.3962    8178.0853    307.98461    14551 
79000000   -269.94957    10286.803    12969.173    2388.2916    8168.4613    310.79996    14608 
80000000   -280.18778    10521.401    12741.068    2594.9249    8206.6643    305.33354    14538 
81000000   -255.77713    10389.122    12982.841    2582.4122    8062.4869    311.12752    14575 
82000000   -301.67859    10328.796     12952.62    2526.5347    8103.9401    310.40328    14554 
83000000   -264.31124     10256.95    12717.014      2394.08    8127.1817    304.75709    14609 
84000000   -277.17221    10290.834    12775.515    2438.8952    8129.1112    306.15904    14597 
85000000   -258.95191    10590.113    12808.905    2694.7331     8154.332    306.95923    14523 
86000000   -284.64785    10256.736    12960.054    2525.9364    8015.4472    310.58144    14611 
87000000    -293.9983     10477.17    12932.433    2554.1915    8216.9771    309.91951    14585 
88000000    -289.9495    10230.764    12812.795     2469.363     8051.351    307.05244    14606 
89000000   -284.79893    10423.023    12986.154    2440.5803    8267.2416    311.20691    14616 
90000000   -301.88582    10393.292    13009.942    2628.8113    8066.3668    311.77698    14568 
91000000   -294.10108    10177.839    12937.169    2359.1671    8112.7728    310.03301    14656 
92000000   -270.11929    10191.693    12902.142    2425.8108    8036.0013     309.1936    14617 
93000000   -301.64916     10359.69    13014.066    2527.9922    8133.3467    311.87581    14596 
94000000   -289.17842    10360.301    12929.539    2519.1216    8130.3576    309.85017    14570 
95000000   -276.02911    10389.979    12902.871    2507.4358    8158.5723    309.21106    14558 
96000000   -285.13046    10501.348    13109.714    2657.3332     8129.145    314.16796    14550 
97000000   -255.35477    10470.162    12923.131    2570.5754    8154.9409    309.69661    14542 
98000000   -297.55566    10446.071    12870.241    2547.9203    8195.7059    308.42911    14571 
99000000   -289.96246    10255.152    12872.041    2529.4139    8015.7004    308.47225    14575 
100000000   -299.68112    10311.787    13089.255    2553.7301    8057.7377    313.67769    14586 
101000000   -231.87692    10304.158    12777.789    2437.6752    8098.3596    306.21355    14611 
102000000   -288.43107    10277.148    12959.877    2458.5592    8107.0196    310.57719    14606 
103000000   -297.65569    10304.341     12908.69    2478.3896    8123.6067    309.35052    14609 
104000000   -269.45706    10480.152    13043.142    2632.4622    8117.1472     312.5726    14582 
105000000   -294.99361    10175.476    12763.893    2371.8158    8098.6541    305.88053    14631 
106000000   -294.67246    10343.093    12745.873    2602.1018    8035.6637     305.4487    14593 
107000000    -292.2724    10100.334    13059.939    2279.4818    8113.1246    312.97513    14637 
108000000   -297.43108    10193.046    13000.323    2351.9674    8138.5094    311.54647    14633 
109000000    -258.0411    10338.857    12983.274    2527.0356    8069.8621     311.1379    14608 
110000000    -287.2945    10367.941     12998.96    2484.5649    8170.6704     311.5138    14625 
111000000     -264.476    10360.247    12797.009    2444.4536    8180.2692    306.67415    14630 
112000000   -251.92235    10352.401    12908.493    2540.6748    8063.6485    309.34581    14582 
113000000   -269.35329     10632.16    12934.813    2685.2424    8216.2711    309.97655    14526 
114000000   -279.74959     10464.75    12995.609    2571.5456    8172.9539    311.43349    14528 
115000000   -304.65767    10225.639    12978.428    2471.2408    8059.0563    311.02177    14592 
116000000   -286.56801    10259.627    12804.856     2468.509    8077.6862     306.8622    14602 
117000000   -264.69091    10470.594    12877.486     2584.267    8151.0183    308.60273    14566 
118000000   -266.76046    10342.026    12873.126    2554.6045    8054.1818    308.49826    14608 
119000000   -253.49576    10203.937    13026.466    2416.9721    8040.4609    312.17298    14661 
120000000   -279.13723     10280.72    12822.769    2430.2038     8129.653    307.29147    14609 
121000000   -282.37129    10452.147    13137.742    2602.9321    8131.5866    314.83964    14583 
122000000    -261.0269    10157.481    12981.008    2394.8679    8023.6397     311.0836    14604 
123000000   -306.09668    10392.231    12897.021     2502.415    8195.9128    309.07089    14572 
124000000   -279.08262    10259.717    12920.376    2525.2616    8013.5377    309.63057    14556 
125000000   -256.69326     10448.01    13066.432    2613.0896    8091.6137    313.13075    14564 
126000000   -261.20397    10352.606    12915.563    2512.3227     8101.487    309.51522    14575 
127000000   -290.11854    10275.078    12929.016    2428.7519    8136.4448    309.83763    14622 
128000000   -291.12899    10535.219    12962.395    2586.3605    8239.9871    310.63754    14590 
129000000   -250.50881    10437.412    13014.852    2537.9836     8149.937    311.89463    14580 
130000000   -260.91991    10445.204    12985.663    2541.5376    8164.5863    311.19515    14559 
131000000   -270.38937    10411.647    12968.879    2525.2587    8156.7776    310.79292    14602 
132000000   -276.41714     10361.36    12894.096    2614.1153    8023.6615    309.00078    14587 
133000000   -272.11142    10339.053    12904.227    2443.4226    8167.7417    309.24358    14617 
134000000   -284.41407    10344.937    12893.238     2480.063    8149.2878    308.98021    14616 
135000000   -275.87728    10320.323    12977.816    2466.1838    8130.0163     311.0071    14606 
136000000   -266.66031    10489.333    12873.974    2574.8319     8181.161    308.51856    14581 
137000000    -284.0931    10351.667    12908.225    2571.0064    8064.7542    309.33938    14557 
138000000   -256.48559    10408.398     12967.03    2588.8609    8076.0231    310.74861    14563 
139000000   -295.31945    10436.376    12904.632    2632.9309    8098.7643    309.25329    14527 
140000000   -273.26378    10449.445      12871.4    2559.1933    8163.5153    308.45689    14585 
141000000   -267.02536    10219.948    12991.636    2488.1736       7998.8    311.33828    14557 
142000000   -262.17821    10412.974    12938.296    2524.4181     8150.734    310.06002    14546 
143000000   -289.84389    10378.677    12922.655    2585.1424     8083.378     309.6852    14558 
144000000   -256.50003    10487.462    12733.157    2566.3995    8177.5621    305.14396    14543 
145000000   -280.47884    10298.348    12907.064    2495.3008    8083.5256    309.31155    14591 
146000000   -274.92357    10306.823    13034.011    2410.4796    8171.2674    312.35377    14587 
147000000   -286.83971    10433.055    12964.139    2472.2642    8247.6302    310.67933    14603 
148000000   -262.74158    10351.275    12853.524    2462.2077    8151.8089     308.0285    14571 
149000000    -274.6154    10514.394    12924.132    2567.1685    8221.8405    309.72058    14589 
150000000   -279.10273    10527.905    12908.897    2693.1136    8113.8938    309.35549    14539 
151000000   -290.34779    10262.603     12804.53    2526.2089    8026.7422    306.85437    14586 
152000000   -259.42196    10409.304    12850.962    2636.7515    8031.9749    307.96711    14557 
153000000   -287.74487    10250.434    12816.531    2485.3799    8052.7987    307.14197    14605 
154000000   -262.35589    10367.936    12937.513    2518.8732    8111.4191    310.04125    14603 
155000000   -305.30565    10437.621    12922.234    2638.1847    8104.7416     309.6751    14555 
156000000   -295.15279    10371.754    13044.391    2555.0049    8111.9016    312.60252    14564 
157000000   -243.22902    10328.519    13009.091    2453.3782      8118.37     311.7566    14569 
158000000   -279.29074    10439.722    12794.687     2574.351    8144.6615    306.61849    14556 
159000000   -272.68277    10471.977    13006.506    2577.3659     8167.294    311.69465    14570 
160000000   -274.57689     10513.12    13044.855    2550.4302    8237.2662    312.61365    14567 
161000000    -293.4542    10446.609    12886.493     2549.888    8190.1756    308.81859    14581 
162000000   -303.35259    10325.622    12964.858    2413.8004    8215.1745    310.69657    14605 
163000000   -278.88795    10519.828    12744.832    2658.2598    8140.4566    305.42375    14517 
164000000    -285.1414    10450.311     12983.89    2625.9597    8109.4928    311.15265    14549 
165000000   -291.23446    10426.497    12909.525    2571.1586     8146.573    309.37053    14572 
166000000   -277.57528    10260.842    12957.913    2500.7384    8037.6785    310.53012    14576 
167000000   -291.45333    10530.258     13001.67    2662.7265    8158.9849    311.57874    14542 
168000000   -284.83056    10507.418    12789.537    2623.7753    8168.4731    306.49507    14564 
169000000   -272.21438    10257.788    12968.009    2468.8486    8061.1536    310.77207    14587 
170000000   -260.84923     10388.41     12935.23    2426.1723    8223.0872    309.98654    14625 
171000000    -245.7935    10121.247    12875.063    2366.8378    8000.2024    308.54467    14638 
172000000   -277.33516    10305.471    12885.244    2475.6348    8107.1716    308.78865    14575 
173000000   -265.24347    10296.024    12884.744    2451.8934    8109.3744    308.77667    14619 
174000000   -280.46787    10394.751    12939.047    2451.8895    8223.3296    310.07803    14612 
175000000   -272.47526    10190.969     12917.95    2339.4015    8124.0423    309.57244    14644 
176000000   -264.53259    10310.087    13041.936    2405.8841    8168.7351    312.54371    14595 
177000000   -270.93794    10301.815     12971.84    2471.0529    8101.6999    310.86389    14591 
178000000   -282.24255    10362.696    13055.392    2455.6353    8189.3035    312.86617    14599 
179000000   -279.66605    10533.736    12944.176    2604.4854    8208.9164    310.20094    14537 
180000000   -254.23254    10542.146    12856.496    2633.1903     8163.188    308.09973    14552 
181000000   -253.40687    10331.992    12814.864    2528.4664    8056.9324    307.10202    14563 
182000000    -258.8147    10335.782    12798.882    2528.1107     8066.486    306.71902    14595 
183000000   -263.74203    10475.259     12869.41    2452.1805    8286.8202    308.40919    14588 
184000000   -251.93751    10505.829    12934.463    2603.7667    8153.9995    309.96817    14552 
185000000   -246.48344    10207.373    12919.637    2392.6565    8061.1995    309.61287    14626 
186000000   -276.80596    10398.106    12935.286    2493.1645    8181.7477    309.98788    14566 
187000000   -295.48308    10515.189     12967.11    2686.7244    8123.9478    310.75053    14551 
188000000   -260.54394    10571.426    12924.865    2599.4242    8232.5453    309.73816    14566 
189000000    -281.0932    10168.017    13097.779    2408.5453    8040.5645    313.88196    14596 
190000000   -255.78308    10609.552    13146.709    2686.5188    8178.8159    315.05454    14547 
191000000   -295.77584    10144.146    12827.839    2369.9475    8069.9746    307.41296    14633 
192000000   -306.81294     10389.07    12914.629    2567.5667    8128.3163    309.49286    14569 
193000000    -257.5072    10355.913    12789.498    2499.7306    8113.6901    306.49414    14625 
194000000   -285.61425    10414.773    12873.713    2520.0065    8180.3806    308.51231    14608 
195000000    -247.6531    10475.704     12794.57    2480.9539    8242.4034    306.61569    14589 
196000000   -296.78103    10171.554    12840.531    2458.9654    8009.3692    307.71713    14614 
197000000   -308.07591    10385.142    12814.937    2499.5373    8193.6803    307.10378    14571 
198000000   -292.33787    10316.758    12843.638    2559.8614    8049.2343    307.79158    14575 
199000000   -276.60333        10248    12857.779    2411.3707    8113.2329    308.13046    14647 
200000000   -273.32561    10278.965    12867.008    2416.8444    8135.4462    308.35162    14640 
201000000   -272.24936     10448.58    13038.904    2533.8935     8186.936    312.47105    14601 
202000000   -275.14998    10483.682    12866.241    2565.5996    8193.2327    308.33325    14581 
203000000   -261.32183     10448.14    12794.249    2619.5947    8089.8675      306.608    14567 
204000000   -264.00912    10397.593     12833.69    2504.5759    8157.0258    307.55318    14584 
205000000    -286.3666    10329.877    12820.166    2459.2136    8157.0299    307.22908    14584 
206000000   -270.96966    10434.074     12882.83    2654.6237    8050.4198    308.73081    14552 
207000000   -252.09188    10567.117    12823.261     2578.832    8240.3771    307.30327    14564 
208000000   -270.34479    10451.712    12879.544    2638.5255    8083.5311    308.65206    14531 
209000000   -272.04789    10402.429    13002.537    2521.7558    8152.7213    311.59953    14587 
210000000   -275.55189    10301.885    12887.741    2413.7094    8163.7278    308.84849    14578 
211000000   -284.02896    10361.791    13134.399    2457.2527    8188.5669    314.75954    14560 
212000000   -247.01988    10363.727    12947.147    2516.1432    8094.6035    310.27212    14617 
213000000   -294.15611    10460.118    13003.684    2595.5711    8158.7034      311.627    14587 
214000000   -268.80282    10200.944    12924.982     2428.915    8040.8322    309.74096    14606 
215000000   -270.59374    10309.753    12989.881    2468.9812    8111.3655    311.29623    14572 
216000000   -284.14532    10389.962    12980.821     2454.947    8219.1607    311.07911    14598 
217000000   -261.63397    10321.852    12956.169    2504.0795    8079.4062    310.48834    14591 
218000000   -283.72595    10306.315    12949.369    2409.2155    8180.8257    310.32537    14593 
219000000   -262.75879    10370.966    12871.986    2528.1852    8105.5397    308.47092    14602 
220000000    -291.0957    10206.359    13037.179    2454.1652    8043.2892    312.42969    14610 
221000000    -300.4655    10174.283    12868.924    2410.1362     8064.612    308.39756    14603 
222000000   -249.52117    10193.471    12981.831    2461.7456    7981.2461    311.10332    14603 
223000000   -272.79298    10386.521    12885.691    2485.5315    8173.7825    308.79936    14576 
224000000   -274.77516    10393.288    12991.454    2537.9739    8130.0892    311.33392    14567 
225000000   -273.32265    10233.826    13070.814    2489.4153     8017.733    313.23575    14586 
226000000   -268.50154    10418.511    12979.621    2538.6152    8148.3977    311.05035    14576 
227000000   -290.56604     10515.59    12818.696    2614.5348    8191.6209    307.19386    14529 
228000000   -285.35992    10446.654     12722.41    2631.9584    8100.0555    304.88642    14557 
229000000   -250.69068     10448.96    12769.191    2496.7777    8202.8734    306.00749    14566 
230000000   -307.88782    10419.319    13042.705    2561.6683    8165.5383    312.56212    14569 
231000000   -268.56151    10379.796    12731.152    2511.3321    8137.0251    305.09592    14560 
232000000   -258.79507    10404.198    12894.384    2572.7582    8090.2351    309.00768    14539 
233000000   -284.61199    10419.075    12887.155    2557.3532    8146.3342    308.83444    14561 
234000000    -254.8355    10344.429     12905.16     2499.791    8099.4737    309.26592    14576 
235000000   -255.10284    10297.051    12962.727    2473.0946    8079.0593    310.64549    14605 
236000000   -275.34902    10348.021    13092.341    2440.1143    8183.2553    313.75163    14589 
237000000   -243.02502    10273.635    12882.246    2465.4578    8051.2022     308.7168    14579 
238000000   -280.47741    10426.733    12945.847    2503.2789    8203.9313    310.24098    14615 
239000000   -277.27463    10416.682    12836.559    2645.3797    8048.5773    307.62195    14580 
240000000   -278.50507    10475.041    12918.955    2658.6985    8094.8476    309.59653    14564 
241000000   -287.35956    10437.673    13027.504    2528.8337     8196.199    312.19783    14577 
242000000   -272.79924    10226.728     12846.14    2402.0616    8097.4655    307.85154    14589 
243000000   -265.92001    10337.328    13050.873    2445.3054    8157.9426    312.75787    14614 
244000000   -292.44022     10374.88    13039.048    2433.8342    8233.4858    312.47449    14615 
245000000   -285.63792    10454.094    13002.834    2597.8578    8141.8745    311.60663    14556 
246000000   -278.47682    10409.329    13096.506    2549.2094    8138.5969    313.85143    14573 
247000000   -287.40686    10237.613    12894.599    2446.3439    8078.6758    309.01283    14607 
248000000    -284.6715    10399.202    12925.193    2526.3701    8157.5033    309.74601    14570 
249000000   -271.74381     10621.29    12957.419    2669.7458    8223.2884    310.51828    14519 
250000000   -306.67876    10325.803    12908.484    2515.5202    8116.9619    309.34559    14581 
251000000   -295.06152    10310.089    12952.936    2562.0059    8043.1451    310.41087    14590 
252000000   -257.61071    10252.684    12995.506     2411.998    8098.2968    311.43102    14598 
253000000   -264.81153    10493.134    12913.978    2534.3697    8223.5753    309.47726    14549 
254000000   -278.12545    10336.728    12782.898     2524.752    8090.1012    306.33597    14578 
255000000   -284.39582    10364.618    12917.861    2445.3189    8203.6952    309.57029    14614 
256000000   -251.08014     10350.37    12913.762    2429.5866    8171.8631    309.47206    14615 
257000000   -291.41435    10318.667     12948.42    2479.5082    8130.5733    310.30264    14603 
258000000   -309.66916    10389.745    12976.743     2524.666    8174.7486    310.98138    14570 
259000000   -276.40392    10391.021    12787.725    2483.4888    8183.9359    306.45165    14609 
260000000    -286.6259     10505.15    12966.478    2475.7186    8316.0572    310.73538    14550 
261000000   -262.61329    10332.576     12973.37     2526.923     8068.266    310.90056    14578 
262000000   -296.16349    10331.044    12891.765    2514.5749    8112.6327    308.94493    14574 
263000000   -286.34693    10397.717    12960.527    2473.7642       8210.3    310.59278    14594 
264000000   -295.94027    10548.595     12988.86      2703.59    8140.9454    311.27176    14523 
265000000   -283.88924    10338.351    12924.664    2456.0273    8166.2125    309.73333    14609 
266000000   -284.88938    10430.997    12914.186    2629.8523    8086.0339    309.48223    14583 
267000000   -262.01123    10494.891    12900.019    2528.7312     8228.171    309.14274    14563 
268000000   -285.17673    10432.368    12944.356    2542.1844    8175.3606    310.20523    14574 
269000000   -299.38058    10445.226    13002.664    2578.0284    8166.5779    311.60255    14569 
270000000   -293.06897     10336.87     12724.75    2460.1882    8169.7508     304.9425    14564 
271000000   -291.27982    10484.314    12811.861     2656.315    8119.2792    307.03005    14522 
272000000   -284.38723    10584.095    12830.435    2676.9172    8191.5654    307.47518    14515 
273000000   -283.89642    10458.819    12829.043    2621.4473    8121.2682    307.44181    14542 
274000000   -272.40717    10323.662    12949.509    2541.5865    8054.4826    310.32873    14571 
275000000   -284.18029    10387.959    12928.937    2510.0072    8162.1322    309.83574    14570 
276000000   -267.42264    10445.796     13022.05    2537.8846    8175.3343    312.06713    14625 
277000000   -335.12176    10364.158    13019.283    2511.8062     8187.474    312.00084    14580 
278000000   -296.86513    10402.043    12778.278    2571.8721    8127.0363    306.22527    14584 
279000000   -289.88666    10525.066    12962.515    2610.9857    8203.9666    310.64042    14559 
280000000   -281.54089    10514.163    12949.987    2551.8034    8243.9006    310.34019    14607 
281000000   -249.52181    10416.533    12933.049    2478.6277    8187.4274    309.93427    14596 
282000000   -301.78382    10486.373    12853.094    2578.3235    8209.8336    308.01819    14572 
283000000   -266.54027     10391.43    12620.886    2526.4654    8131.5048    302.45344    14614 
284000000    -257.8014    10305.912    12981.979    2342.2463    8221.4669    311.10687    14619 
285000000   -267.73669    10425.201    12900.922    2558.2325     8134.705    309.16436    14562 
286000000   -306.42399    10405.312    12892.215    2389.0605    8322.6758    308.95571    14607 
287000000   -289.46326    10352.299    12978.926    2584.5396    8057.2224    311.03369    14566 
288000000   -248.67746    10342.873    12903.819    2532.9486    8058.6016    309.23379    14571 
289000000   -283.44948    10392.451    12712.799    2487.2691     8188.631     304.6561    14581 
290000000   -280.61458    10236.472    12866.672    2434.5782    8082.5085    308.34357    14618 
291000000   -302.99003    10307.282    12894.976    2390.2685    8220.0039    309.02187    14609 
292000000   -263.03857    10185.868    12924.235    2434.2357    8014.6711    309.72304    14587 
293000000    -266.3712    10401.783    12948.084    2467.0562    8201.0985    310.29457    14611 
294000000   -284.51656    10279.826    12812.352    2474.1266    8090.2156    307.04182    14598 
295000000   -266.59193    10298.857    12832.817    2551.9951    8013.4538    307.53225    14563 
296000000   -261.70798    10245.528    12951.486     2484.183    8023.0533    310.37611    14613 
297000000   -276.33851    10405.652    12882.018    2616.4442    8065.5465    308.71134    14563 
298000000   -296.50181    10403.131    12901.358    2581.4524    8118.1807    309.17482    14560 
299000000   -290.14421     10436.64    12869.059    2586.8849    8139.8992    308.40078    14571 
300000000   -277.82162    10551.126    12924.523    2713.5501    8115.3974    309.72996    14543 
301000000   -292.73159    10597.133    12807.491    2711.7992    8178.0657    306.92533    14542 
302000000   -291.18349    10624.832    12901.586    2664.1858    8251.8295    309.18027    14502 
303000000   -257.87455     10299.36    12933.488    2490.0618    8067.1728     309.9448    14617 
304000000   -298.06995    10373.005    12843.297    2471.1055    8199.9698    307.78342    14615 
305000000   -246.86953    10314.433    12876.303    2549.7096    8011.5932    308.57439    14574 
306000000   -254.40091    10396.736     12919.78    2517.2211    8133.9153    309.61629    14583 
307000000   -285.06918    10357.371    13132.005    2470.6453    8171.7952    314.70217    14594 
308000000   -254.66141    10297.604    13047.171    2514.0992    8038.1658    312.66916    14570 
309000000   -270.17158    10365.645    13000.937    2535.0465    8100.7702    311.56117    14580 
310000000   -280.46711    10327.001    12934.102    2520.2873    8087.1811    309.95951    14570 
311000000    -258.2837    10142.743    12846.986    2424.3673    7976.6592    307.87181    14585 
312000000   -270.38947     10413.27    12835.143     2503.419    8180.2406    307.58801    14567 
313000000   -266.45816    10385.795    12944.315    2467.6631      8184.59    310.20426    14597 
314000000   -261.89364    10331.205    12932.837    2491.6124    8101.4863     309.9292    14599 
315000000   -251.59418    10360.955    13023.261    2513.7909    8098.7585    312.09617    14599 
316000000   -276.18435    10223.739     12715.61    2447.7149    8052.2086    304.72346    14615 
317000000   -306.28906     10376.87    12892.076    2548.4691    8134.6898    308.95238    14567 
318000000   -318.59704    10358.515    12982.125    2512.8046    8164.3071    311.11036    14583 
319000000    -282.6798     10360.11    12723.547    2475.4586    8167.3307    304.91366    14619 
320000000   -286.60168    10408.036    13019.561    2542.7584    8151.8797    312.00749    14586 
321000000   -266.95942    10498.435    12972.597    2580.6049    8184.7894    310.88202    14543 
322000000   -278.98672    10596.087    12854.019     2689.135    8185.9383    308.04037    14495 
323000000    -303.8156     10178.83    12972.178    2408.2525    8074.3936    310.87198    14641 
324000000   -290.71458    10293.156    12922.192    2464.4361    8119.4342     309.6741    14567 
325000000   -251.46857    10269.338     12999.77    2413.8864    8106.9204    311.53322    14628 
326000000   -285.80515    10455.245    12950.202    2576.4858    8164.5648    310.34533    14553 
327000000   -279.61557     10263.56    12912.325    2470.5803    8072.5955    309.43763    14545 
328000000   -283.31854    10322.796     12876.75    2440.3557    8165.7587    308.58511    14601 
329000000   -237.62615    10013.049    12995.534    2168.6261    8082.0494    311.43169    14673 
330000000   -277.67668    10122.012    12784.056    2410.8306    7988.8584    306.36372    14633 
331000000   -289.59643    10327.497    12972.287    2457.9901    8159.1034    310.87459    14593 
332000000    -275.5344    10277.947    12937.185    2532.2162    8021.2656     310.0334    14585 
333000000   -284.33038    10224.326    12801.819     2455.872    8052.7844    306.78942    14587 
334000000    -288.8257    10341.276    12939.985    2538.9849    8091.1172     310.1005    14531 
335000000   -302.29897    10197.817    12771.018    2485.3371    8014.7787    306.05127    14613 
336000000    -295.1694    10529.333    12838.838    2749.3434    8075.1589    307.67655    14524 
337000000   -270.52266    10316.569     12908.34    2533.6243    8053.4672    309.34214    14586 
338000000   -275.38773    10442.744    12790.614    2669.4131    8048.7182    306.52089    14530 
339000000   -271.17444    10376.539    12958.563    2551.2173     8096.496     310.5457    14555 
340000000   -276.19706    10319.215    12936.165    2463.7293    8131.6833    310.00896    14601 
341000000   -265.76883    10495.092    12964.273    2570.0738    8190.7874    310.68254    14554 
342000000   -249.52961    10400.549    12910.441     2455.479    8194.5994    309.39249    14605 
343000000   -274.95387    10329.092    12965.544    2439.3505    8164.6954      310.713    14607 
344000000   -291.81103    10198.813    12901.936    2422.3113     8068.313    309.18867    14624 
345000000   -282.00537     10155.71    12768.991    2390.7601    8046.9554    306.00271    14641 
346000000   -287.76541    10130.544    12944.582    2332.6587    8085.6512    310.21066    14676 
347000000   -264.21314    10235.478    12967.624    2390.8769    8108.8147    310.76284    14633 
348000000   -301.38473    10482.851    12873.303    2608.5667    8175.6687     308.5025    14594 
349000000   -283.62034    10290.479     12822.92    2495.7895    8078.3099     307.2951    14600 
350000000   -280.22767    10408.105    12902.061    2546.2162    8142.1161    309.19166    14589 
351000000   -308.85907    10452.217    12860.648    2563.9196    8197.1567    308.19921    14577 
352000000   -261.49199    10493.213    13047.677    2608.0009    8146.7041    312.68127    14582 
353000000   -284.48931    10352.234    12816.416    2486.7821    8149.9417    307.13921    14575 
354000000   -271.16429    10236.156     12957.98    2513.2412    7994.0792    310.53174    14598 
355000000   -254.37797    10437.527    12913.449    2527.7847    8164.1207    309.46457    14569 
356000000   -289.71003    10391.943     12887.01    2537.4548    8144.1983    308.83096    14559 
357000000   -267.16743    10586.931    12892.501    2671.3395    8182.7585    308.96255    14524 
358000000    -270.7837    10379.126    12942.069    2472.4359    8177.4737    310.15043    14591 
359000000   -249.80347    10412.328    12835.924    2536.7661    8125.3654    307.60672    14550 
360000000   -264.17295      10350.5    13013.451    2394.2501    8220.4233    311.86108    14644 
361000000   -262.04992    10244.076     12971.77     2452.377    8053.7489     310.8622    14582 
362000000   -266.48576    10403.906    12891.243    2570.1417    8100.2504    308.93242    14547 
363000000   -258.06106    10333.391    12760.651     2532.311    8059.1414    305.80284    14569 
364000000   -271.00311    10381.212    13152.195    2532.5075     8119.708      315.186    14548 
365000000   -262.84454    10508.081    12829.012     2595.889    8175.0367    307.44108    14512 
366000000   -253.33654    10303.954    12932.324    2530.8317     8026.459     309.9169    14568 
367000000   -280.08946    10531.415    12892.882    2579.0137    8232.4905    308.97169    14574 
368000000   -291.72268    10397.168    12884.183    2584.6474     8104.243    308.76322    14574 
369000000   -247.15733    10317.679    12863.741    2524.5489    8040.2874    308.27335    14607 
370000000   -247.88023    10272.799    12777.219    2470.6027    8050.0762    306.19987    14598 
371000000   -264.66878    10461.411    12775.664     2559.955    8166.1249    306.16261    14560 
372000000   -268.70482    10445.378    12982.523    2583.1206     8130.962    311.11989    14550 
373000000   -277.65522    10372.298    12946.427    2470.8058    8179.1471    310.25486    14584 
374000000   -255.38754    10365.879    12770.108     2582.603    8038.6638    306.02947    14557 
375000000   -264.94269    10421.748     12930.43    2505.0885    8181.6023    309.87152    14581 
376000000   -279.97865    10130.005    12937.693    2336.2324    8073.7514    310.04558    14618 
377000000   -269.55405    10386.795    12927.192    2573.1084     8083.241    309.79391    14543 
378000000    -264.4991    10317.887    12760.061    2498.9769    8083.4089    305.78869    14586 
379000000   -275.77084     10277.02    12900.429    2495.1467    8057.6442    309.15256    14576 
380000000   -282.50879    10357.688    13025.483    2502.6289    8137.5675    312.14942    14587 
381000000   -252.41645     10285.19      12987.5    2475.2592    8062.3473    311.23916    14631 
382000000   -291.40266    10447.263    13029.693    2557.4436    8181.2224    312.25031    14566 
383000000   -284.73418    10395.272    12942.325    2650.6661    8029.3404    310.15658    14555 
384000000   -286.77441     10506.21    12918.255     2535.008    8257.9762    309.57973    14559 
385000000   -275.34361    10361.312    12951.892    2579.7559    8056.8993    310.38583    14562 
386000000   -291.33965    10693.232    12924.258      2698.36    8286.2116     309.7236    14567 
387000000   -257.79448    10404.956    12954.519    2513.6891    8149.0617     310.4488    14578 
388000000   -262.93618    10358.944    12824.056    2498.6458    8123.2343    307.32232    14553 
389000000   -272.17868    10492.029    12825.523    2656.8165    8107.3914    307.35746    14538 
390000000   -260.55109    10505.363    12957.144    2593.7711    8172.1433     310.5117    14558 
391000000   -279.73427    10425.376    12852.762     2496.865    8208.2454    308.01024    14594 
392000000   -283.65519    10331.391    12938.861    2426.4198    8188.6267    310.07355    14613 
393000000   -260.45384    10281.479     12865.29    2512.9306    8029.0025    308.31047    14568 
394000000   -267.82303    10484.215    12881.476     2639.711    8112.3273    308.69835    14538 
395000000   -286.41136    10258.299    12892.644    2586.1662    7958.5445      308.966    14563 
396000000   -291.76348    10499.147    12874.209    2662.4838    8128.4263    308.52421    14525 
397000000   -286.61381    10270.708    12906.432    2454.3442    8102.9777    309.29641    14591 
398000000   -282.48968    10363.297    12966.522    2533.6372    8112.1495    310.73643    14572 
399000000   -295.18369    10186.651    12790.795    2417.3188    8064.5157    306.52522    14585 
400000000   -281.96747    10267.836     12874.67    2455.9519    8093.8512    308.53525    14589 
401000000   -263.93017    10502.707    12951.985    2659.2699    8107.3674    310.38807    14537 
402000000   -272.36569    10409.464    12839.109    2515.1638    8166.6662    307.68305    14574 
403000000   -292.41393    10491.764    13050.904    2604.2643    8179.9136    312.75862    14565 
404000000    -308.4895     10371.61    12832.771    2636.8832    8043.2165    307.53117    14563 
405000000   -283.80877    10510.777    12835.773    2563.8417    8230.7437    307.60311    14569 
406000000   -268.18316    10427.971    13016.869     2583.762     8112.392    311.94299    14568 
407000000   -269.43071    10447.508    12881.828    2571.4677    8145.4712    308.70679    14595 
408000000   -284.64549    10245.696    13060.382    2391.0656    8139.2758    312.98576    14617 
409000000   -293.61898    10527.544    12916.495    2566.2751    8254.8875    309.53756    14595 
410000000   -281.00025    10233.892    13080.405    2472.0666    8042.8257     313.4656    14598 
411000000    -283.7937    10399.141    12903.634    2601.0128    8081.9219    309.22937    14585 
412000000   -269.59253    10423.054    13070.072     2503.137      8189.51    313.21798    14602 
413000000   -275.15816    10392.796    12968.827    2565.4257    8102.5285    310.79168    14605 
414000000   -285.29778    10250.156     12971.51    2458.4695    8076.9839    310.85598    14612 
415000000   -242.72255    10272.395    12989.606    2469.5561    8045.5619    311.28964    14595 
416000000   -260.62072     10321.98    12859.295    2516.7256    8065.8748     308.1668    14573 
417000000   -279.01684    10360.034    12895.522    2552.2007    8086.8505    309.03496    14595 
418000000   -261.18209    10237.124    13046.871    2369.4906    8128.8156    312.66197    14628 
419000000    -286.5017    10433.035    12994.065    2475.0991    8244.4376    311.39649    14583 
420000000   -249.51712    10368.475    12742.813    2464.9808    8153.0111    305.37535    14620 
421000000   -266.48352    10616.045    12980.327    2684.6026    8197.9254    311.06728    14556 
422000000   -257.20668    10277.538    12771.567    2581.5962    7953.1483    306.06445    14579 
423000000   -262.33348    10484.491    12979.127    2621.3338    8125.4906    311.03852    14570 
424000000   -278.76091    10666.585    12850.484    2639.6676    8305.6783    307.95564    14542 
425000000   -290.89716    10421.754    12915.564    2566.5521    8146.0988    309.51527    14554 
426000000   -288.90734    10391.666    12970.028    2524.3763    8156.1968    310.82046    14599 
427000000    -275.3898    10368.395    12848.368    2520.0472    8123.7375    307.90494    14583 
428000000   -254.14571    10431.459     12875.38    2553.6804    8131.9241    308.55226    14550 
429000000   -279.36548    10549.829    13118.621    2620.0825     8209.112    314.38142    14554 
430000000   -283.21948    10568.778    13010.778    2696.0179    8155.9795    311.79702    14540 
431000000   -277.60205    10494.072    12810.329    2627.4904    8144.1831    306.99334    14563 
432000000   -281.72972    10295.732    12939.029    2554.3338    8023.1281    310.07759    14554 
433000000   -267.02429    10330.879    13063.276    2483.0366    8114.8667    313.05511    14569 
434000000   -288.81491     10500.78    12814.908    2619.5769    8170.0175    307.10307    14508 
435000000   -281.19263    10458.208    12923.477     2491.984    8247.4164    309.70488    14612 
436000000   -255.60321    10220.205    12794.166    2433.7036    8042.1047    306.60601    14578 
437000000   -248.41405    10391.994    12835.136    2528.9512    8111.4567    307.58783    14612 
438000000   -284.71611    10390.094    12866.549    2545.1124    8129.6981    308.34064    14599 
439000000   -274.05322    10190.434    12809.476    2340.2897    8124.1973    306.97291    14666 
440000000   -275.80215    10389.757    12736.074    2586.6577    8078.9018    305.21385    14569 
441000000   -273.90221    10375.295     12933.84    2519.4696    8129.7276    309.95322    14566 
442000000   -257.14421    10407.304    12902.443    2583.3556    8081.0927    309.20081    14558 
443000000   -276.48286    10483.374     12841.47    2466.1847    8293.6717    307.73962    14605 
444000000   -285.68025     10398.65    12984.968    2462.2938     8222.036    311.17848    14625 
445000000   -281.21991    10304.858    12944.425    2458.2854    8127.7924    310.20689    14599 
446000000   -282.51666    10191.948    12898.975    2416.1274    8058.3372     309.1177    14629 
447000000   -279.27816    10181.836    12873.678    2443.8932    8017.2214    308.51148    14609 
448000000   -283.55226    10157.107    13146.219    2399.5594    8041.1003    315.04278    14596 
449000000   -268.65169    10306.082    12968.282    2437.8102    8136.9233    310.77862    14617 
450000000   -294.58531    10307.775    12968.489    2570.9724    8031.3876    310.78357    14601 
451000000   -274.48167    10203.599    12924.173    2491.4676    7986.6128    309.72156    14603 
452000000   -273.67572    10313.008     12976.92    2510.6753     8076.008    310.98563    14600 
453000000   -270.83034    10301.175    13096.463    2455.4461     8116.559    313.85041    14607 
454000000   -262.58331    10455.509    12719.278    2531.3461    8186.7467    304.81136    14571 
455000000   -258.68437    10342.524     12926.85    2507.0999    8094.1084    309.78572    14614 
456000000   -257.19864    10365.932    12878.354    2526.1519    8096.9784    308.62355    14634 
457000000   -301.24886    10380.937    13059.369    2516.1235    8166.0627    312.96146    14605 
458000000   -288.55009    10258.294    12808.314    2335.7438    8211.1001    306.94507    14619 
459000000   -291.94013    10311.017    12834.936     2504.887    8098.0703    307.58304    14609 
460000000   -280.74859     10387.42    13040.382    2469.9929    8198.1757    312.50646    14573 
461000000   -273.09312    10087.271    13049.416    2317.2654    8043.0984    312.72295    14635 
462000000   -263.07577    10136.284    12796.048    2358.8872    8040.4723    306.65112    14626 
463000000   -289.71833    10206.659    12929.383    2377.3444    8119.0329    309.84642    14614 
464000000   -262.03493    10331.932    12989.928    2609.6909    7984.2758    311.29735    14563 
465000000   -237.41252    10395.952    12845.463    2483.9656    8149.3988    307.83533    14609 
466000000   -291.66523    10370.684    12945.551    2535.0348    8127.3148    310.23387    14600 
467000000    -273.9032    10359.584    13040.491    2492.5739    8140.9136    312.50908    14594 
468000000   -312.58121      10452.9    12917.322    2565.2129    8200.2687    309.55739    14596 
469000000   -294.50464    10408.476    13007.476    2549.7391     8153.242    311.71789    14598 
470000000   -273.42256     10330.61    13179.971    2534.8163    8069.2162    315.85164    14622 
471000000   -280.35807    10460.828    12834.595    2573.2678    8167.9179    307.57487    14563 
472000000   -260.94369    10423.048    12916.437    2548.6966    8135.2955    309.53618    14546 
473000000   -272.49435    10518.446     12858.42    2549.0566    8241.8841    308.14583    14574 
474000000   -282.61463    10262.371    12821.665       2486.8    8058.1856    307.26501    14622 
475000000   -276.98438    10282.343    12787.584    2456.5373    8102.7901    306.44827    14588 
476000000   -271.60411    10240.996    12992.925     2419.975    8092.6251    311.36917    14615 
477000000   -303.36395    10438.329    12817.311    2562.9439    8178.7487    307.16068    14626 
478000000   -277.47325    10426.163    13052.978    2556.8045    8146.8316    312.80832    14559 
479000000   -300.57249     10381.98    12794.036    2459.8367    8222.7157    306.60289    14647 
480000000   -300.65409    10108.707    12932.932    2346.2738    8063.0871    309.93148    14659 
481000000   -293.56208    10140.133    12975.451     2365.089    8068.6066    310.95042    14648 
482000000   -264.62313    10251.201    13056.903    2412.1835    8103.6407    312.90237    14605 
483000000   -296.37668    10144.321    12811.535    2484.3564    7956.3412    307.02226    14611 
484000000   -306.77898    10268.021    13010.044    2468.7763     8106.024    311.77942    14617 
485000000   -272.81596    10273.553     12970.83     2429.058    8117.3115    310.83967    14636 
486000000   -264.30816    10138.953    12834.267    2378.2241    8025.0369    307.56702    14621 
487000000   -276.46538     10299.45    12931.178    2452.4996    8123.4161    309.88943    14612 
488000000   -259.32835    10431.631    12865.627    2526.9992    8163.9602    308.31853    14617 
489000000   -262.12858    10197.924    12956.773    2428.0476    8032.0049    310.50281    14641 
490000000   -300.35114    10393.177    12954.233    2434.5477    8258.9801    310.44195    14616 
491000000   -270.10806    10538.222    12882.297    2607.9549    8200.3751    308.71802    14555 
492000000   -260.18333     10224.05    12860.377    2409.5317    8074.7019    308.19272    14615 
493000000   -270.53352     10496.47    12836.124    2558.6065     8208.397     307.6115    14584 
494000000   -276.46154    10177.726    13012.892    2283.5983    8170.5888    311.84768    14680 
495000000   -266.37136    10422.344    12854.668    2627.7403    8060.9748    308.05592    14596 
496000000   -278.36584    10515.679    13024.364    2619.4178    8174.6272    312.12259    14537 
497000000   -295.90779    10449.058    12749.435    2508.4333    8236.5322    305.53406    14588 
498000000   -263.34319    10432.549    12767.826    2528.1289    8167.7637    305.97479    14583 
499000000   -299.65478    10334.574    12956.113    2525.4119    8108.8168    310.48699    14588 
500000000   -288.55042    10389.948    12856.713    2424.6585    8253.8397    308.10492    14633 
Loop time of 128432 on 28 procs for 500000000 steps with 14000 atoms

Performance: 8409.106 ns/day, 0.003 hours/ns, 3893.105 timesteps/s
99.3% CPU use with 28 MPI tasks x no OpenMP threads

MPI task timing breakdown:
Section |  min time  |  avg time  |  max time  |%varavg| %total
---------------------------------------------------------------
Pair    | 8343.2     | 8891.5     | 9331.8     | 217.6 |  6.92
Bond    | 5841.3     | 5991.8     | 6623.6     | 220.0 |  4.67
Neigh   | 27296      | 27489      | 27792      |  86.0 | 21.40
Comm    | 43899      | 45194      | 47278      | 400.9 | 35.19
Output  | 0.78383    | 0.78453    | 0.78558    |   0.1 |  0.00
Modify  | 25423      | 25663      | 26472      | 141.5 | 19.98
Other   |            | 1.52e+04   |            |       | 11.84

Nlocal:    500 ave 502 max 497 min
Histogram: 1 0 2 0 6 0 8 0 9 2
Nghost:    368.929 ave 513 max 244 min
Histogram: 4 1 2 4 3 6 2 4 1 1
Neighs:    2288.39 ave 2732 max 1990 min
Histogram: 1 6 2 8 2 5 1 1 1 1

Total # of neighbors = 64075
Ave neighs/atom = 4.57679
Ave special neighs/atom = 6.87071
Neighbor list builds = 100025602
Dangerous builds = 0
System init for write_restart ...
Total wall time: 35:40:37
