70
polyB_n10
BL      5      0     0
BL      7      0     0
B      9      0     0
BL      11      0     0
BL      13      0     0
B      15      0     0
BL      17      0     0
BL      19      0     0
BL      21      0     0
B      23      0     0
BL      25      0     0
BL      27      0     0
B      29      0     0
BL      31      0     0
BL      33      0     0
BL      35      0     0
B      37      0     0
BL      39      0     0
BL      41      0     0
B      43      0     0
BL      45      0     0
BL      47      0     0
BL      49      0     0
B      51      0     0
BL      53      0     0
BL      55      0     0
B      57      0     0
BL      59      0     0
BL      61      0     0
BL      63      0     0
B      65      0     0
BL      67      0     0
BL      69      0     0
B      71      0     0
BL      73      0     0
BL      75      0     0
BL      77      0     0
B      79      0     0
BL      81      0     0
BL      83      0     0
B      85      0     0
BL      87      0     0
BL      89      0     0
BL      91      0     0
B      93      0     0
BL      95      0     0
BL      97      0     0
B      99      0     0
BL      101      0     0
BL      103      0     0
BL      105      0     0
B      107      0     0
BL      109      0     0
BL      111      0     0
B      113      0     0
BL      115      0     0
BL      117      0     0
BL      119      0     0
B      121      0     0
BL      123      0     0
BL      125      0     0
B      127      0     0
BL      129      0     0
BL      131      0     0
BL      133      0     0
B      135      0     0
BL      137      0     0
BL      139      0     0
B      141      0     0
BL      143      0     0
