LAMMPS (5 Jun 2019)
Reading data file ...
  orthogonal box = (-420 -420 -420) to (420 420 420)
  2 by 2 by 7 MPI processor grid
  reading atoms ...
  14000 atoms
  scanning bonds ...
  51 = max bonds/atom
  scanning angles ...
  1 = max angles/atom
  reading bonds ...
  13800 bonds
  reading angles ...
  13600 angles
Finding 1-2 1-3 1-4 neighbors ...
  special bond factors lj:   0          0          0         
  special bond factors coul: 0          0          0         
  2 = max # of 1-2 neighbors
  2 = max # of 1-3 neighbors
  4 = max # of 1-4 neighbors
  56 = max # of special neighbors
  special bonds CPU = 0.886271 secs
  read_data CPU = 0.992442 secs
Finding 1-2 1-3 1-4 neighbors ...
  special bond factors lj:   1          1          1         
  special bond factors coul: 0          0          0         
  2 = max # of 1-2 neighbors
  2 = max # of 1-3 neighbors
  4 = max # of 1-4 neighbors
  56 = max # of special neighbors
  special bonds CPU = 0.00103547 secs
WARNING: Using 'neigh_modify every 1 delay 0 check yes' setting during minimization (../min.cpp:168)
Neighbor list info ...
  update every 1 steps, delay 0 steps, check yes
  max neighbors/atom: 2000, page size: 100000
  master list distance cutoff = 26.9
  ghost atom cutoff = 26.9
  binsize = 13.45, bins = 63 63 63
  1 neighbor lists, perpetual/occasional/extra = 1 0 0
  (1) pair lj/cut, perpetual
      attributes: half, newton on
      pair build: half/bin/newton
      stencil: half/bin/3d/newton
      bin: standard
Setting up cg style minimization ...
  Unit style    : real
  Current step  : 0
Per MPI rank memory allocation (min/avg/max) = 1.165 | 13.79 | 17.67 Mbytes
Step Temp E_pair E_mol TotEng Press 
       0            0 2.4262116e+12      2649600 2.4262142e+12 1.1227655e+09 
    2593            0   -3213.8545    8077.7575     4863.903  0.022358999 
Loop time of 0.982357 on 28 procs for 2593 steps with 14000 atoms

99.6% CPU use with 28 MPI tasks x no OpenMP threads

Minimization stats:
  Stopping criterion = energy tolerance
  Energy initial, next-to-last, final = 
     2.42621422944e+12      4864.36586087      4863.90297658
  Force two-norm initial, final = 2.10957e+10 3.95325
  Force max component initial, final = 1.05441e+09 0.95274
  Final line search alpha, max atom move = 0.049396 0.0470616
  Iterations, force evaluations = 2593 2659

MPI task timing breakdown:
Section |  min time  |  avg time  |  max time  |%varavg| %total
---------------------------------------------------------------
Pair    | 0.038899   | 0.17429    | 0.39516    |  22.4 | 17.74
Bond    | 0.012208   | 0.043733   | 0.086967   |   9.7 |  4.45
Neigh   | 0.10369    | 0.10507    | 0.10619    |   0.2 | 10.70
Comm    | 0.12828    | 0.3518     | 0.53754    |  17.4 | 35.81
Output  | 0          | 0          | 0          |   0.0 |  0.00
Modify  | 0          | 0          | 0          |   0.0 |  0.00
Other   |            | 0.3075     |            |       | 31.30

Nlocal:    500 ave 894 max 183 min
Histogram: 3 3 3 4 6 0 2 2 3 2
Nghost:    312.964 ave 490 max 136 min
Histogram: 3 3 2 1 4 3 4 4 1 3
Neighs:    3601.79 ave 6560 max 1006 min
Histogram: 4 1 5 2 7 0 1 1 5 2

Total # of neighbors = 100850
Ave neighs/atom = 7.20357
Ave special neighs/atom = 5.82857
Neighbor list builds = 165
Dangerous builds = 0
Setting up Verlet run ...
  Unit style    : real
  Current step  : 2593
  Time step     : 0.1
Per MPI rank memory allocation (min/avg/max) = 1.127 | 12.9 | 16.54 Mbytes
Step Temp E_pair E_mol TotEng Press 
    2593            0   -3213.8545    8077.7575     4863.903  0.022358999 
   12593    225.47516    -2675.999    11590.644    18323.353   -1.0386852 
Loop time of 2.09386 on 28 procs for 10000 steps with 14000 atoms

Performance: 41.264 ns/day, 0.582 hours/ns, 4775.879 timesteps/s
99.6% CPU use with 28 MPI tasks x no OpenMP threads

MPI task timing breakdown:
Section |  min time  |  avg time  |  max time  |%varavg| %total
---------------------------------------------------------------
Pair    | 0.051849   | 0.24132    | 0.55239    |  28.1 | 11.53
Bond    | 0.037979   | 0.13047    | 0.26524    |  16.7 |  6.23
Neigh   | 0.0031025  | 0.0032407  | 0.0033718  |   0.1 |  0.15
Comm    | 0.45334    | 0.85148    | 1.2045     |  20.3 | 40.67
Output  | 8.7934e-05 | 0.00015344 | 0.00019912 |   0.0 |  0.01
Modify  | 0.091186   | 0.30439    | 0.62371    |  25.2 | 14.54
Other   |            | 0.5628     |            |       | 26.88

Nlocal:    500 ave 895 max 182 min
Histogram: 3 3 4 3 6 0 2 2 3 2
Nghost:    312.786 ave 486 max 137 min
Histogram: 3 3 2 1 4 3 4 3 2 3
Neighs:    3610.39 ave 6581 max 1014 min
Histogram: 4 1 6 1 7 0 1 2 3 3

Total # of neighbors = 101091
Ave neighs/atom = 7.22079
Ave special neighs/atom = 5.82857
Neighbor list builds = 5
Dangerous builds = 0
4000 atoms in group rxnSites
Neighbor list info ...
  update every 1 steps, delay 1 steps, check yes
  max neighbors/atom: 2000, page size: 100000
  master list distance cutoff = 26.9
  ghost atom cutoff = 26.9
  binsize = 13.45, bins = 63 63 63
  2 neighbor lists, perpetual/occasional/extra = 1 1 0
  (1) pair lj/cut, perpetual
      attributes: half, newton on
      pair build: half/bin/newton
      stencil: half/bin/3d/newton
      bin: standard
  (2) fix bond/create/random, occasional, copy from (1)
      attributes: half, newton on
      pair build: copy
      stencil: none
      bin: none
Setting up Verlet run ...
  Unit style    : real
  Current step  : 0
  Time step     : 25
Per MPI rank memory allocation (min/avg/max) = 17.76 | 18.28 | 18.83 Mbytes
Step E_pair PotEng KinEng E_bond E_angle Temp Bonds 
       0    -2675.999    8914.6447    9408.7087    3100.1602    8490.4835    225.47516    13800 
 1000000   -1655.0534    5550.3706    13021.489   -1189.0304    8394.4544    312.05371    14969 
 2000000   -1791.3923      4633.82    12794.611   -1950.5244    8375.7367    306.61668    15138 
 3000000   -1860.9125     4082.716    13096.958   -2487.9864    8431.6149    313.86227    15246 
 4000000   -1952.9867    3430.1047    13112.466   -2878.9891    8262.0805    314.23392    15333 
 5000000   -2013.8305    3256.6277    12881.094   -3021.8885    8292.3467     308.6892    15364 
 6000000   -2015.1659    3259.8248    12911.776   -2893.9793      8168.97    309.42449    15375 
 7000000   -2016.5322     3029.981    12891.589   -3144.6014    8191.1146    308.94071    15394 
 8000000   -2103.9745    2986.2027    13002.917   -3179.1601    8269.3374    311.60862    15405 
 9000000   -2060.9693    2960.1243    13030.568   -3218.8611    8239.9547    312.27127    15428 
10000000   -2130.0497    2938.9147    12873.668   -3187.5168    8256.4812    308.51125    15439 
11000000   -2154.8619    2867.4227    12941.806    -3355.761    8378.0456    310.14413    15452 
12000000   -2124.2088    2851.2081    12901.094   -3375.6335    8351.0504    309.16849    15469 
13000000   -2098.9004    2762.9859    12964.306    -3479.429    8341.3153    310.68334    15477 
14000000   -2145.3485    2665.7938    12908.064   -3427.7648    8238.9071    309.33553    15480 
15000000   -2164.1068    2481.8472    12901.355   -3626.3266    8272.2806    309.17474    15487 
16000000    -2210.122    2639.3528    12765.133   -3517.6723    8367.1472    305.91024    15482 
17000000   -2232.9737    2447.5368    13083.667   -3558.0531    8238.5635    313.54376    15496 
18000000   -2210.7624    2602.2949    12987.059    -3541.445    8354.5023    311.22859    15502 
19000000   -2228.2494    2379.8487    12901.467   -3589.0023    8197.1004    309.17744    15503 
20000000   -2194.1628    2505.2532    13042.594    -3597.524      8296.94    312.55948    15510 
21000000   -2220.4033    2600.8036    12926.551   -3568.7848    8389.9917    309.77855    15510 
22000000   -2177.9984    2480.7797    13027.666   -3581.7874    8240.5656    312.20172    15508 
23000000   -2180.3665    2464.4241    12791.492   -3607.2137    8252.0044    306.54192    15516 
24000000   -2255.4257    2479.6984    13000.275   -3626.7107    8361.8348    311.54531    15521 
25000000   -2246.3306    2324.3652    12911.829   -3639.1252    8209.8209    309.42576    15526 
26000000    -2261.554    2076.2124    12973.008   -3814.2934    8152.0599    310.89188    15534 
27000000   -2291.7558    2425.5772    12893.596   -3645.5651     8362.898    308.98879    15528 
28000000   -2350.5459    1997.1939     12931.17   -3917.3507    8265.0906    309.88925    15546 
29000000   -2325.5562    2060.6231    12832.164   -3870.3087    8256.4881    307.51661    15549 
30000000   -2345.6263    2090.4876    13012.683    -3832.981    8269.0949    311.84267    15550 
31000000   -2229.0332    2318.6283     12893.98   -3699.7439    8247.4054    308.99801    15537 
32000000   -2274.2008    2238.8628    12908.376   -3723.1067    8236.1702    309.34301    15538 
33000000   -2274.9489    2219.3387    12936.855   -3742.2503    8236.5379    310.02549    15542 
34000000   -2278.7434     2157.197    12956.219    -3744.281    8180.2215    310.48952    15544 
35000000    -2335.519    2011.3179    12857.877   -3731.1837    8078.0206    308.13282    15550 
36000000   -2328.2587     2041.552    12934.618   -3820.6534     8190.464    309.97189    15561 
37000000   -2406.2371    1999.3614    12920.237   -3837.8141    8243.4127    309.62723    15546 
38000000   -2329.7111    2230.8736     12917.83   -3781.3436    8341.9283    309.56956    15558 
39000000   -2319.0509    2070.7742    12880.727   -3862.3005    8252.1257     308.6804    15561 
40000000   -2409.6696     2072.307     12896.33   -3880.3326    8362.3091    309.05432    15567 
41000000     -2325.68    2037.9633    12854.457   -3867.8177    8231.4609    308.05085    15571 
42000000   -2401.6411    1940.6021    13107.782   -3976.8302    8319.0734    314.12167    15587 
43000000   -2377.7727    1697.1263    12972.766   -4030.8087    8105.7077    310.88609    15585 
44000000   -2431.7537    1861.3126    12849.392   -3997.0829    8290.1493    307.92948    15590 
45000000   -2432.5015    1850.0664    12994.263   -4013.6596    8296.2275    311.40124    15596 
46000000   -2478.6609    1673.7392    13113.889   -4044.7485    8197.1486    314.26802    15598 
47000000    -2559.672    1584.6771    13081.553   -4070.1026    8214.4517     313.4931    15609 
48000000    -2430.154    1749.3701    12856.435   -3992.3555    8171.8796    308.09826    15605 
49000000   -2521.0719     1711.844    12883.722   -4169.0855    8402.0014    308.75218    15617 
50000000   -2476.5339    1701.1576     12801.26   -4087.4185    8265.1101    306.77601    15609 
51000000   -2488.1437    1812.5412    13018.552   -4051.1171     8351.802    311.98331    15617 
52000000   -2515.5447     1603.038     12790.22   -4161.6272    8280.2099    306.51144    15627 
53000000   -2524.8212     1577.849    13027.135   -4124.4121    8227.0823    312.18899    15623 
54000000   -2403.5779    1741.2637    12873.513   -4168.6643    8313.5059    308.50753    15637 
55000000   -2406.7152    1677.0811    13014.599    -4149.313    8233.1093    311.88859    15637 
56000000   -2423.2014    1553.9171    12939.882   -4231.0984    8208.2169    310.09803    15638 
57000000     -2419.39    1739.2203    12898.156   -4135.6616    8294.2719    309.09809    15630 
58000000   -2521.2403    1514.6162    12866.651    -4203.662    8239.5184    308.34307    15637 
59000000   -2425.4942     1236.156    13064.325   -4315.1384    7976.7886    313.08023    15654 
60000000   -2463.2656    1406.3077    12786.637   -4321.3252    8190.8985    306.42558    15655 
61000000   -2465.4601    1369.4711    12785.137   -4255.4835    8090.4148    306.38963    15650 
62000000   -2527.8272    1392.8738     12934.13   -4262.4379    8183.1389    309.96018    15654 
63000000   -2532.6117    1313.3595    13069.071   -4327.0306    8173.0018    313.19398    15663 
64000000    -2499.477    1397.1849    12843.294   -4284.5779    8181.2398    307.78334    15664 
65000000    -2468.624    1564.9027     12856.11   -4235.2851    8268.8119    308.09047    15662 
66000000   -2551.3923     1293.563    12885.455   -4362.9161    8207.8714     308.7937    15674 
67000000   -2504.5679    1485.7465     12866.16   -4265.4972    8255.8116    308.33132    15653 
68000000   -2551.8483    1420.7978    12910.904   -4290.9384    8263.5845    309.40359    15666 
69000000   -2520.1713    1336.0655    13028.013   -4292.5762    8148.8131    312.21004    15665 
70000000   -2628.8841    1331.8601    12988.728   -4309.6842    8270.4284     311.2686    15663 
71000000   -2563.6191    1209.2328      12914.6   -4364.3714    8137.2233    309.49216    15673 
72000000   -2549.7752    1330.1254    12829.287   -4395.9198    8275.8203    307.44768    15676 
73000000   -2619.3619    1216.2019     12875.24   -4392.5026    8228.0664     308.5489    15671 
74000000   -2562.0945    1286.8753    12970.706   -4338.8669    8187.8368    310.83671    15673 
75000000   -2536.1304     1358.988    13004.472    -4294.801    8189.9194    311.64589    15671 
76000000   -2547.8927      1402.28    13057.656   -4253.0735    8203.2461    312.92041    15679 
77000000   -2588.4717    1282.7689    12791.778   -4262.7248    8133.9654    306.54878    15674 
78000000     -2571.18    1247.9453     12997.88   -4351.8058    8170.9311    311.48792    15671 
79000000   -2503.4364    1307.8113      13048.5   -4397.0542    8208.3019    312.70099    15682 
80000000   -2526.4749    1251.1259     13091.11   -4382.3534    8159.9543    313.72212    15684 
81000000   -2509.9803    1301.5827    12877.219   -4411.9824    8223.5453    308.59633    15681 
82000000   -2475.8129    1250.5964    12831.947   -4469.3549    8195.7641     307.5114    15692 
83000000   -2475.5053    1125.5569     13031.74   -4465.3443    8066.4065    312.29936    15688 
84000000   -2491.0293    1179.1778     12856.57   -4448.7847    8118.9917     308.1015    15688 
85000000   -2551.8766    1296.0829    13066.668   -4360.5504    8208.5099     313.1364    15687 
86000000   -2525.6529    1270.5562    12951.326   -4342.8189     8139.028    310.37228    15680 
87000000   -2606.5314    1219.6399    12823.811   -4489.1639    8315.3352    307.31644    15679 
88000000   -2465.3839     1294.103    13013.538   -4329.1988    8088.6857    311.86314    15682 
89000000   -2463.3828    1269.5899    12804.856   -4388.7961    8121.7688    306.86219    15688 
90000000   -2523.0378     1195.451    12956.479   -4475.9386    8194.4274    310.49576    15685 
91000000    -2513.053     1406.292    12898.231   -4347.9058    8267.2508    309.09988    15683 
92000000   -2584.4406    1217.0425    13029.767   -4426.2007    8227.6838    312.25207    15688 
93000000   -2575.4721    1136.5001    12926.029   -4451.6532    8163.6254    309.76605    15689 
94000000   -2529.6108    1369.6189    12866.098    -4363.457    8262.6867    308.32982    15687 
95000000    -2656.416    1048.1699    13029.835   -4496.6251    8201.2109    312.25371    15692 
96000000   -2649.9831    1042.3049    12821.194   -4554.6332    8246.9212    307.25374    15701 
97000000   -2644.5862    1020.2652    12856.666   -4409.0751    8073.9265    308.10379    15694 
98000000   -2605.9295    1233.1717    12967.521   -4424.7916    8263.8928    310.76039    15700 
99000000   -2496.3703    1186.4787    12951.572   -4402.2756    8085.1246    310.37818    15695 
100000000   -2534.1614    1241.7112    12917.515   -4491.2841    8267.1567      309.562    15697 
101000000   -2538.5467    1301.9065    12945.343   -4472.5059    8312.9591    310.22891    15703 
102000000    -2565.923    1197.8298    13047.099   -4472.7764    8236.5293    312.66743    15690 
103000000   -2530.8781    1236.0877    12982.855   -4449.1261    8216.0919    311.12784    15697 
104000000   -2419.0555    1222.1305    13011.967   -4435.2704    8076.4563     311.8255    15691 
105000000   -2570.6284    1059.5428    12821.139   -4540.1146    8170.2859    307.25241    15704 
106000000   -2571.5984     1224.776    12946.791   -4475.9842    8272.3586     310.2636    15699 
107000000   -2592.5554    1323.3453    12930.336   -4405.8309    8321.7316    309.86927    15701 
108000000   -2548.3124    1189.0661    12877.132     -4439.43    8176.8084    308.59425    15695 
109000000   -2561.4865    1279.1875    12979.338     -4415.26    8255.9341    311.04358    15697 
110000000   -2616.3661    1216.3896    12925.188   -4435.5284    8268.2842    309.74588    15708 
111000000    -2569.195    1174.0435     12946.98   -4467.2126    8210.4511    310.26813    15707 
112000000    -2610.951    1219.5827    12939.474    -4424.766    8255.2996    310.08825    15699 
113000000    -2549.329    1217.9395    12930.475   -4434.6005     8201.869     309.8726    15701 
114000000   -2578.9865    1057.9253    12738.552   -4549.8726    8186.7843    305.27324    15706 
115000000   -2648.8832     1356.513     12928.01   -4410.7217    8416.1179    309.81351    15701 
116000000   -2567.2781    1209.7447    12955.087   -4456.3407    8233.3635     310.4624    15698 
117000000    -2594.288    1176.3157     13093.81   -4452.2908    8222.8946    313.78684    15710 
118000000   -2622.3686    1205.4607    12876.351   -4423.1296    8250.9589    308.57554    15693 
119000000   -2591.7997    1173.8135    12905.696   -4450.5989    8216.2121    309.27878    15697 
120000000   -2580.0624     1280.284    13134.606   -4331.1116     8191.458     314.7645    15699 
121000000   -2634.9799    1146.6338      13095.6   -4468.1332    8249.7469    313.82972    15700 
122000000   -2597.2604    1132.9723    12911.931   -4558.5518    8288.7846    309.42819    15710 
123000000   -2640.2094    1078.7347    12937.039    -4487.924    8206.8681     310.0299    15705 
124000000   -2573.5061    1192.7629    12917.084   -4453.2137    8219.4827    309.55169    15696 
125000000   -2571.7914    1167.9045    12939.243    -4491.691    8231.3869    310.08271    15691 
126000000   -2653.1563    985.20749    12970.291   -4462.6034    8100.9672    310.82676    15702 
127000000   -2593.6679    1209.0026    12832.379   -4426.1083    8228.7788    307.52178    15713 
128000000   -2572.8035    1322.5252    12798.981   -4339.1536    8234.4823    306.72139    15703 
129000000   -2585.3579    1132.9051    12898.497   -4434.0867    8152.3496    309.10626    15704 
130000000   -2611.4097    1001.0539    12848.968   -4547.0086    8159.4722    307.91932    15713 
131000000   -2583.2759    1101.1235    13023.464   -4594.1085    8278.5079    312.10104    15715 
132000000   -2600.6543    1344.6334    13056.832   -4336.5019    8281.7897    312.90069    15695 
133000000   -2612.3078    1105.3432    12955.718    -4533.735     8251.386    310.47754    15713 
134000000   -2612.1603    996.75452    12948.295    -4603.171    8212.0859    310.29965    15708 
135000000   -2659.0905    1071.4608    13078.153   -4555.2265    8285.7779    313.41163    15723 
136000000   -2695.4631    995.91123    13003.708   -4564.6555    8256.0298    311.62758    15715 
137000000   -2599.1569    882.37055    12836.972   -4618.0252    8099.5527    307.63184    15711 
138000000   -2605.9381    1187.7069    12800.961   -4465.1713    8258.8162    306.76886    15707 
139000000   -2621.0165    1025.1774    12878.422   -4553.5262    8199.7201    308.62517    15705 
140000000    -2695.141    941.77343    13019.584   -4542.5258    8179.4403    312.00804    15711 
141000000    -2526.984    1116.1385    12961.159   -4516.9541    8160.0765    310.60792    15708 
142000000   -2673.9245    1118.1787    13036.479   -4471.1617    8263.2649    312.41292    15712 
143000000   -2542.5751    1093.9271    12911.075   -4505.1855    8141.6877    309.40767    15712 
144000000   -2623.7011    909.58202    12932.451   -4619.0667    8152.3498    309.91995    15716 
145000000   -2607.3642    1171.7644    12971.994   -4477.2419    8256.3705    310.86758    15710 
146000000   -2632.2959     1179.498    12959.374   -4472.2718    8284.0657    310.56514    15714 
147000000    -2688.977    1064.8428    12902.649   -4487.4518    8241.2715    309.20575    15712 
148000000   -2546.7602      895.549    12916.964   -4566.2619    8008.5712    309.54881    15718 
149000000   -2567.8934    1141.3241      12866.5   -4460.1599    8169.3774    308.33946    15715 
150000000     -2603.14    1041.7763    13002.725    -4549.266    8194.1823    311.60403    15719 
151000000   -2629.5744      1067.03    12886.281   -4563.4316     8260.036     308.8135    15717 
152000000   -2597.6223    1098.3516     12886.19   -4513.4004    8209.3743    308.81132    15721 
153000000   -2603.1433    1060.9165    13000.727   -4514.0214    8178.0812    311.55614    15713 
154000000   -2559.5434     1221.742     13060.65   -4517.8492    8299.1346    312.99217    15713 
155000000    -2663.597     842.4452    12973.599   -4564.5301    8070.5722    310.90603    15720 
156000000   -2594.9464     1086.187    13042.052   -4576.4067    8257.5401    312.54647    15718 
157000000   -2612.0907    1166.6642    12883.248   -4501.2137    8279.9685    308.74083    15714 
158000000    -2626.908    1006.1404    12885.997   -4511.6694    8144.7178    308.80671    15719 
159000000    -2660.844    872.26345    12933.735    -4650.302    8183.4094    309.95071    15726 
160000000   -2593.6769    1009.2007    12982.081   -4595.3518    8198.2294     311.1093    15713 
161000000   -2621.4559    972.14488    12972.957   -4636.2553    8229.8561    310.89065    15722 
162000000    -2599.193    1063.8118    13035.384   -4508.6462     8171.651    312.38669    15703 
163000000   -2661.2044    984.30396    12901.688   -4567.1579    8212.6662    309.18272    15718 
164000000   -2627.9889    1150.4719    13054.892   -4482.1957    8260.6565    312.85418    15707 
165000000   -2675.7082    1023.5343    12929.714   -4511.5513    8210.7937    309.85435    15711 
166000000   -2608.8341     1056.743    12869.104   -4564.3938     8229.971    308.40187    15712 
167000000   -2631.7117    988.73154    12852.101   -4517.3562    8137.7994    307.99439    15720 
168000000   -2587.8191    1002.4537    12926.416   -4584.5481    8174.8209    309.77533    15723 
169000000   -2583.4155    1167.0446    12932.074   -4512.4161    8262.8763     309.9109    15709 
170000000   -2620.9699    936.34801    13022.175    -4595.475    8152.7929    312.07014    15726 
171000000    -2726.785    1062.4031    12938.226   -4600.9722    8390.1603    310.05835    15714 
172000000   -2594.7366    1024.8437    12993.276   -4534.5694    8154.1497    311.37758    15718 
173000000   -2639.8408    997.32419     13024.86   -4615.7741    8252.9391    312.13448    15716 
174000000   -2630.8624    895.40856    12974.017   -4605.2469    8131.5178    310.91605    15719 
175000000   -2563.6743    1060.8101    13034.484   -4537.1052    8161.5895    312.36511    15721 
176000000    -2567.979    1161.5908    12958.514   -4487.1721    8216.7418    310.54453    15719 
177000000   -2635.7057    1050.0599    12723.263   -4514.6552    8200.4208    304.90686    15722 
178000000   -2609.4326    1037.4171    12872.341   -4547.9063    8194.7561    308.47944    15715 
179000000   -2699.8824    911.00644    12786.744    -4617.918    8228.8069    306.42815    15726 
180000000   -2710.8617    743.14096    12852.255   -4588.3703     8042.373    307.99808    15728 
181000000   -2650.3201    953.23172    12773.469    -4579.534    8183.0858    306.11003    15726 
182000000    -2602.447     892.3375    12801.004   -4500.5686     7995.353    306.76988    15732 
183000000   -2723.8337     757.2839    12922.334   -4655.8285     8136.946    309.67749    15722 
184000000   -2730.2966    913.59397    13096.433   -4490.0609    8133.9514     313.8497    15725 
185000000    -2735.023    827.85712    13036.297   -4613.0413    8175.9214    312.40857    15720 
186000000   -2615.2185    927.62633    12633.035   -4603.5868    8146.4317    302.74458    15724 
187000000   -2664.3264    1041.7116    13040.282   -4510.1825    8216.2205    312.50406    15721 
188000000   -2656.0678    898.81463    12811.734   -4593.8601    8148.7426    307.02702    15727 
189000000     -2717.16    621.39544    12706.635   -4757.0817    8095.6372    304.50838    15734 
190000000   -2635.4753    963.12719    12948.146   -4602.0308    8200.6332    310.29606    15739 
191000000   -2688.0666     807.9056    12954.101   -4611.1207    8107.0929    310.43878    15728 
192000000   -2707.9087    792.88049    13026.846   -4711.0011    8211.7903    312.18209    15731 
193000000   -2673.3307    966.77387    13036.579   -4479.0992    8119.2037    312.41533    15723 
194000000   -2615.7942    1042.4061    12808.175   -4480.3564    8138.5566    306.94172    15725 
195000000   -2669.7106    819.40378    12820.873   -4627.4188    8116.5332    307.24602    15736 
196000000   -2659.5529    933.23234    12960.037   -4563.1682    8155.9534    310.58103    15727 
197000000   -2660.0345    843.41994     13004.29   -4613.6044    8117.0588    311.64152    15721 
198000000   -2772.1324    854.84533    12966.593   -4746.0839    8373.0616    310.73815    15727 
199000000   -2730.8616    878.52929    12867.089   -4682.8558    8292.2467    308.35357    15729 
200000000   -2687.6969     927.9252    12959.356   -4535.1239     8150.746    310.56472    15732 
201000000   -2551.2499    942.81817    12983.094    -4594.363     8088.431    311.13357    15730 
202000000   -2711.8842    765.68021     12926.66   -4630.6703    8108.2348    309.78117    15736 
203000000   -2634.4091    888.85252     12949.67   -4641.6482    8164.9099    310.33258    15725 
204000000    -2590.779    896.39886    12919.335   -4655.0046    8142.1825    309.60562    15737 
205000000   -2616.8319    940.15632    12949.325   -4588.9226    8145.9108    310.32432    15728 
206000000     -2606.85     925.5994    13003.375   -4692.6679    8225.1173     311.6196    15732 
207000000   -2669.6441    895.31257    13001.814   -4727.1873     8292.144    311.58219    15729 
208000000   -2696.2933    956.64169    12917.429    -4570.751     8223.686    309.55994    15728 
209000000   -2676.6856    994.78265    12911.577   -4521.1746    8192.6428    309.41972    15717 
210000000   -2616.6412    948.83182    12980.163    -4623.397      8188.87    311.06334    15720 
211000000   -2677.1916    717.91496    13065.844   -4645.7887    8040.8952    313.11664    15733 
212000000   -2670.5189    909.41121    12920.354   -4602.4561    8182.3863    309.63004    15714 
213000000   -2671.2032     1033.158    12705.601   -4484.1501    8188.5113    304.48358    15729 
214000000   -2637.2052    1095.9419    12884.462   -4531.9646    8265.1117    308.76991    15730 
215000000   -2635.4758    970.23837    12959.878   -4587.9347    8193.6489    310.57722    15731 
216000000   -2593.1891    1034.9654    12966.256   -4609.0249    8237.1794    310.73008    15738 
217000000   -2548.2024    1056.2524     12881.61   -4652.1467    8256.6015    308.70157    15729 
218000000    -2599.851    864.96378    13030.369   -4709.9629    8174.7777     312.2665    15736 
219000000   -2621.8262     1126.503    12898.741   -4507.9236    8256.2527     309.1121    15725 
220000000   -2574.0277    936.65741    12740.024    -4698.658    8209.3431    305.30854    15735 
221000000   -2645.9821    868.99117    13078.831   -4608.7333    8123.7066    313.42787    15733 
222000000   -2592.9787    1022.0951    13025.049   -4670.1403    8285.2142    312.13902    15736 
223000000   -2617.9153    975.30265    12996.211   -4595.5769    8188.7948    311.44793    15727 
224000000   -2596.8616    966.49481    12813.062   -4597.6134    8160.9698    307.05885    15728 
225000000   -2614.7045    953.59161    12976.864   -4625.9585    8194.2546    310.98427    15730 
226000000    -2527.117    1058.0234    12832.551   -4645.6519    8230.7923     307.5259    15733 
227000000   -2522.1854    1220.4817    12903.185   -4494.3552    8237.0224     309.2186    15721 
228000000   -2568.1753    914.68851    12829.862   -4613.5044    8096.3682    307.46144    15736 
229000000   -2648.4158    949.88502    12983.765   -4595.2017    8193.5025    311.14967    15732 
230000000   -2595.5233     912.2855    12955.837   -4546.2154    8054.0242    310.48038    15725 
231000000   -2705.1336    897.73293    13021.237   -4590.7358    8193.6024    312.04765    15726 
232000000   -2613.0724    752.77356    12781.883   -4668.9832    8034.8291    306.31164    15742 
233000000   -2676.1618    1000.5501    12945.836   -4555.4749    8232.1868     310.2407    15729 
234000000   -2664.5763    1006.3115    12877.331   -4554.3524    8225.2402    308.59902    15728 
235000000   -2643.2196    884.10603    12926.458   -4589.3927    8116.7183    309.77632    15720 
236000000   -2667.1945    953.69289    13053.696   -4658.9156     8279.803    312.82552    15735 
237000000   -2562.7011    1126.6396    12908.449   -4625.2983     8314.639    309.34474    15727 
238000000   -2727.2599    779.66884    12763.629   -4619.5042    8126.4329     305.8742    15736 
239000000   -2581.4091    815.94667    13114.276   -4686.8617    8084.2174     314.2773    15737 
240000000   -2703.8145    812.11762    12957.987   -4603.4009     8119.333    310.53191    15731 
241000000   -2616.6567     853.5578    13070.375   -4606.1884    8076.4029    313.22522    15726 
242000000    -2695.726    895.61275    12978.219   -4626.6693    8218.0081    311.01675    15736 
243000000   -2674.2222    974.94125    12863.848   -4596.0266      8245.19     308.2759    15728 
244000000   -2675.6761    835.37373    12875.239   -4628.3685    8139.4183    308.54889    15733 
245000000   -2679.7275      808.065    13005.881   -4679.2692    8167.0617    311.67966    15734 
246000000   -2732.1974    786.34976    12967.601   -4629.1365    8147.6837     310.7623    15733 
247000000   -2592.4591    815.54283    13037.305   -4603.6821     8011.684    312.43272    15734 
248000000    -2675.162    824.60385    12955.792   -4624.2869    8124.0528     310.4793    15733 
249000000   -2644.8383    790.48329    12891.463   -4724.2874    8159.6089    308.93768    15738 
250000000   -2707.4872    1011.2633    12963.575   -4500.5074    8219.2579    310.66581    15732 
251000000   -2638.3053    792.38152    13001.461   -4706.3141    8137.0009    311.57373    15750 
252000000   -2588.3405    1019.0997    12863.331   -4675.2522    8282.6924    308.26351    15746 
253000000    -2615.319    921.69149    12973.974   -4570.0027    8107.0132    310.91502    15736 
254000000   -2698.8469    910.41307    12937.717   -4655.5414    8264.8013    310.04613    15737 
255000000   -2631.5389    860.64396    13067.036   -4657.5657    8149.7485    313.14521    15740 
256000000   -2609.9519    814.99857    13063.699   -4673.4648    8098.4153    313.06525    15739 
257000000   -2685.7666    880.47347    12862.427    -4611.604    8177.8441    308.24184    15733 
258000000   -2721.7012    770.14741    12971.018    -4698.715    8190.5637    310.84419    15737 
259000000   -2730.9332    906.42999    13031.112   -4564.9978    8202.3611    312.28431    15735 
260000000   -2664.6824    889.89803    13035.437   -4643.1751    8197.7555    312.38795    15732 
261000000   -2594.1154    1085.1507    13040.164   -4538.7346    8218.0007    312.50123    15726 
262000000   -2606.6805     990.6361    12957.494   -4594.3665    8191.6831    310.52008    15735 
263000000   -2648.3362    1035.5066    13012.504   -4613.0744    8296.9172    311.83839    15742 
264000000   -2640.3395    929.28482    12856.712   -4647.3673    8216.9916     308.1049    15736 
265000000   -2591.2895    796.19253     12845.45   -4640.8923    8028.3744      307.835    15733 
266000000   -2656.4914    998.07528    13055.093   -4583.9117    8238.4784      312.859    15734 
267000000   -2721.1154    932.69215    12805.823   -4685.4296    8339.2372    306.88536    15738 
268000000   -2642.2265    1004.7682    12829.297   -4603.9077    8250.9024    307.44791    15739 
269000000   -2691.1015    866.93474    12890.349   -4690.0477    8248.0839      308.911    15734 
270000000    -2666.645    958.41108    12898.729   -4505.6087    8130.6647    309.11181    15726 
271000000   -2680.4254    1006.1762    13006.956   -4542.4214    8229.0231    311.70542    15740 
272000000   -2756.9822    686.73814    12875.299   -4678.7385    8122.4588    308.55032    15740 
273000000   -2633.2593     923.7783    12948.379   -4639.2242    8196.2619    310.30166    15733 
274000000   -2746.0414      762.638    12983.607   -4667.9408    8176.6203    311.14588    15730 
275000000   -2655.2678    1037.2866    12676.054   -4533.4751    8226.0294    303.77551    15732 
276000000   -2665.3519    895.75474    12926.731   -4581.4692    8142.5759    309.78287    15725 
277000000   -2711.1763    721.65939    12905.319   -4691.2653    8124.1009    309.26974    15740 
278000000   -2798.1787    721.25596    12934.536   -4612.8341    8132.2687    309.96991    15741 
279000000     -2711.78    772.94704    12905.257    -4630.041     8114.768    309.26825    15734 
280000000   -2724.3118    795.28982    12876.013   -4616.4629    8136.0645    308.56743    15733 
281000000   -2724.5992    816.67572    12995.943   -4585.0882    8126.3631    311.44149    15725 
282000000   -2761.7098    802.30298    12890.144   -4594.0407    8158.0535    308.90608    15731 
283000000   -2677.2941    896.48588    12784.952   -4503.7088    8077.4887    306.38519    15738 
284000000    -2796.789    652.74608    12946.941   -4702.2435    8151.7785    310.26719    15746 
285000000   -2702.0532     880.2092    12904.389   -4631.1371    8213.3995    309.24746    15735 
286000000   -2745.8721     766.5794    12886.178   -4677.2655     8189.717    308.81104    15739 
287000000   -2678.3382    898.27873     12822.47   -4676.5521     8253.169    307.28431    15739 
288000000   -2699.4243    832.34587    12944.753   -4649.3893    8181.1594    310.21475    15734 
289000000    -2748.832    810.06485    13029.526   -4645.6067    8204.5036     312.2463    15736 
290000000   -2844.4735    720.27693    13044.789   -4671.9181    8236.6685    312.61207    15744 
291000000   -2730.4625    807.86724      12986.8   -4630.0047    8168.3345     311.2224    15740 
292000000   -2766.0459    757.16373    13017.414   -4575.0553    8098.2649    311.95604    15736 
293000000   -2761.0611    694.58075    12840.894   -4710.9492     8166.591    307.72582    15740 
294000000   -2682.1635    917.68429    13015.187   -4521.3661    8121.2139    311.90267    15732 
295000000   -2657.3531     857.9005     13007.86   -4626.6212    8141.8749    311.72709    15737 
296000000   -2666.4508     958.1309    13128.134   -4509.0388    8133.6204    314.60938    15727 
297000000   -2694.3529    829.03122    13034.361   -4665.8445    8189.2286    312.36217    15739 
298000000   -2680.8635    869.03443    12816.443   -4650.4241     8200.322    307.13987    15740 
299000000   -2623.9187    953.16067     13021.43   -4547.8643    8124.9437    312.05229    15731 
300000000   -2664.5346    861.12937    12977.816   -4668.8152    8194.4792     311.0071    15740 
301000000   -2666.9444    955.63603    12974.289   -4621.9497    8244.5301    310.92256    15739 
302000000   -2649.2843    827.27223    12911.779   -4680.1076    8156.6641    309.42455    15743 
303000000   -2684.0917     888.8579    12981.107   -4591.8303    8164.7799    311.08596    15736 
304000000   -2706.1832    749.22047    12992.036   -4645.5113    8100.9149    311.34786    15731 
305000000    -2624.811    882.15828    12837.116    -4684.017    8190.9862    307.63529    15748 
306000000   -2696.6574    862.40618    13109.566   -4567.0336    8126.0972    314.16441    15739 
307000000   -2705.2846    699.37595    13027.732   -4687.0001    8091.6606     312.2033    15741 
308000000   -2687.4607    702.08582     12989.73   -4644.1761    8033.7226    311.29261    15743 
309000000   -2706.4059    849.56379    12978.166   -4683.2427    8239.2123    311.01548    15740 
310000000   -2671.4647    901.53121    13066.013   -4671.6711     8244.667    313.12069    15750 
311000000   -2763.9964    660.63928    12954.884   -4708.4346    8133.0703    310.45753    15748 
312000000   -2714.0103    933.96949    12945.801   -4594.2792     8242.259    310.23987    15732 
313000000   -2785.8715    760.48869    12910.329   -4623.2856    8169.6457    309.38979    15741 
314000000   -2816.2699     709.8577    12683.171   -4629.5675    8155.6951    303.94607    15742 
315000000   -2646.0488    938.85399    12852.416   -4625.2117    8210.1145    308.00196    15734 
316000000   -2713.0842    816.58136    12935.252   -4682.8846    8212.5501    309.98708    15730 
317000000   -2705.7479    819.95459    12826.907   -4659.6495     8185.352    307.39064    15742 
318000000   -2693.2069    843.69234    12962.994   -4598.6085    8135.5077     310.6519    15736 
319000000   -2699.7771    841.16972    12985.841    -4642.827    8183.7738    311.19942    15736 
320000000    -2605.636    826.72427    12786.211    -4700.742    8133.1023    306.41537    15746 
321000000   -2672.1313    842.57767    13007.033   -4655.1252    8169.8341    311.70727    15743 
322000000   -2597.1008    935.44824    12801.745   -4640.6103    8173.1594    306.78764    15742 
323000000   -2667.8906    791.12601    12883.401   -4603.0858    8062.1025    308.74448    15730 
324000000   -2647.6713    870.29264    13205.328   -4600.1439    8118.1078    316.45931    15741 
325000000   -2691.4931     774.8231    12893.533   -4701.9576    8168.2738    308.98728    15745 
326000000   -2586.6851    1015.5121    12775.463   -4616.1122    8218.3094    306.15779    15739 
327000000   -2683.0169    910.98849    12986.271   -4683.2293    8277.2347    311.20972    15740 
328000000   -2703.3665    806.62147    12964.831   -4588.1759    8098.1639    310.69592    15741 
329000000   -2691.7242    780.44362     12978.72    -4636.929    8109.0968    311.02877    15732 
330000000   -2743.2416    910.63597    12888.893    -4614.134    8268.0115    308.87611    15725 
331000000   -2653.6995    977.27357    12802.765   -4618.4737    8249.4468    306.81208    15735 
332000000   -2711.3234    771.64452     12942.09   -4696.0291    8178.9971    310.15093    15735 
333000000   -2529.2287    979.96108    13034.822   -4589.6422     8098.832    312.37322    15731 
334000000   -2643.2285    952.03067    13021.708   -4590.9445    8186.2037    312.05894    15733 
335000000   -2629.1222    925.98136    13043.291   -4601.1192    8156.2228    312.57617    15736 
336000000   -2611.2451    928.39056    12891.565   -4608.7817    8148.4174    308.94014    15736 
337000000   -2582.0978    872.05074    12883.144   -4718.6302    8172.7788    308.73834    15748 
338000000   -2671.2819    964.38089    13044.947   -4573.6977    8209.3604    312.61586    15734 
339000000   -2657.0397    849.31784    12726.518   -4675.8815     8182.239    304.98486    15743 
340000000   -2752.8717    791.40682    12908.052   -4669.0303    8213.3088    309.33523    15744 
341000000   -2684.0845    689.59117    12805.486    -4733.386    8107.0617    306.87728    15744 
342000000   -2599.0011    967.06795    13017.557   -4670.4566    8236.5257    311.95948    15739 
343000000   -2614.3572    943.57336    12872.195     -4561.83    8119.7605    308.47593    15728 
344000000   -2668.5158     752.5452    13006.887   -4687.4583    8108.5193    311.70376    15735 
345000000    -2692.903    908.53791    12930.423   -4605.0069    8206.4478    309.87134    15737 
346000000   -2713.9042    904.09472    13009.621   -4631.7595    8249.7585    311.76929    15734 
347000000   -2674.2914    842.31102     12958.88   -4637.5546     8154.157    310.55331    15734 
348000000   -2692.1944    913.93455     13008.72   -4509.0886    8115.2176     311.7477    15732 
349000000   -2694.2555    1030.2344    12821.064   -4547.7199    8272.2099     307.2506    15737 
350000000    -2728.268    755.86528    12976.779    -4553.628    8037.7612    310.98224    15738 
351000000   -2691.7905    580.65489    12981.443   -4661.5961    7934.0415    311.09401    15734 
352000000   -2774.3795    782.43931    12879.073   -4593.9017    8150.7205    308.64077    15743 
353000000   -2721.4197    766.86845    12905.697   -4597.7253    8086.0135    309.27881    15740 
354000000   -2563.7666    934.35449    12898.517    -4668.464    8166.5851    309.10673    15744 
355000000   -2664.9014    873.31832    12947.242   -4685.8897    8224.1094     310.2744    15743 
356000000   -2686.9954     798.5518    12938.248   -4681.9829    8167.5302    310.05886    15747 
357000000   -2696.4192    945.97323    12848.196   -4599.6692    8242.0617    307.90083    15737 
358000000   -2714.2385    818.47874    13046.843    -4571.407    8104.1243    312.66129    15732 
359000000   -2748.7656    773.88866    12958.362   -4618.9035    8141.5577     310.5409    15739 
360000000   -2711.3079    885.96525    12873.064   -4587.1937    8184.4669    308.49677    15734 
361000000   -2757.6118    694.64112    12939.471   -4650.3792    8102.6322    310.08817    15742 
362000000   -2678.4295    847.46249    12858.205   -4609.0531    8134.9451    308.14067    15732 
363000000   -2641.0512    735.99522    12905.281   -4696.2421    8073.2885    309.26883    15732 
364000000   -2625.0088    811.72783    12914.775   -4605.8546    8042.5912    309.49636    15739 
365000000   -2673.2423    911.98286    12861.006   -4620.3253    8205.5505    308.20781    15740 
366000000   -2655.7299    852.40356    12835.868   -4637.8638    8145.9972    307.60538    15729 
367000000   -2680.4644    870.09741    12929.975   -4650.3626    8200.9245    309.86061    15740 
368000000   -2662.6845    697.57264    12852.874   -4743.7582    8104.0153    308.01291    15746 
369000000   -2692.4002     925.9174     12914.53   -4617.7271    8236.0447    309.49048    15737 
370000000   -2707.9829    752.84729    13021.993   -4673.1245    8133.9546    312.06576    15737 
371000000   -2767.9946    801.06042    12953.167   -4583.3961    8152.4511     310.4164    15736 
372000000    -2728.357    543.36274    13062.112   -4769.6155    8041.3352     313.0272    15735 
373000000   -2663.1431    795.92871    12986.199   -4545.7982      8004.87      311.208    15734 
374000000   -2631.7681    753.19269    13058.604   -4674.7321    8059.6929    312.94313    15734 
375000000   -2690.6979    745.57625    12878.399   -4602.0614    8038.3356    308.62462    15735 
376000000   -2672.1294    789.36107    12941.932   -4664.3497    8125.8402    310.14716    15742 
377000000   -2699.3541    861.87524     13113.24   -4661.4144    8222.6437    314.25246    15741 
378000000    -2718.063    858.29237    12888.321   -4655.8025    8232.1579    308.86239    15740 
379000000   -2659.2576    700.38503     12819.16   -4721.1528    8080.7954    307.20498    15745 
380000000   -2770.4152    697.19687    13156.376    -4618.521    8086.1331    315.28621    15740 
381000000    -2673.629    742.91496    12833.271   -4711.2524    8127.7965    307.54315    15743 
382000000   -2838.4343    734.42627    12856.823   -4729.8723    8302.7328    308.10755    15742 
383000000   -2785.9695    588.95828    12919.031   -4767.8725    8142.8003    309.59834    15742 
384000000    -2775.576    789.58593    12952.831   -4633.4208    8198.5827    310.40833    15735 
385000000   -2657.9889     842.9291     13065.83   -4676.1008    8177.0189    313.11632    15743 
386000000   -2731.0236    705.95437    12958.841    -4715.564     8152.542    310.55238    15751 
387000000   -2604.3198    845.51347    12963.907    -4574.153    8023.9863    310.67377    15736 
388000000   -2665.7914    898.17143    12885.616   -4630.0349    8193.9977    308.79758    15736 
389000000   -2725.6074    761.38691    13091.014    -4659.532    8146.5263    313.71983    15748 
390000000    -2717.213    762.63608    12872.054   -4741.0583    8220.9074    308.47256    15743 
391000000   -2690.2892    773.28123    13094.216   -4683.6725    8147.2429    313.79657    15742 
392000000    -2753.928      814.779    13041.795   -4596.6984    8165.4053    312.54032    15739 
393000000   -2733.9503    743.20456    12989.329   -4652.7683    8129.9231    311.28299    15743 
394000000    -2666.591    945.27153    13044.509   -4611.7423    8223.6049    312.60537    15739 
395000000    -2623.368    917.05997    13130.692   -4598.2872    8138.7151    314.67069    15733 
396000000   -2794.0918    634.44409    13007.811   -4582.5579    8011.0938    311.72591    15744 
397000000    -2824.147    797.63965    12855.868   -4579.2572    8201.0439    308.08466    15737 
398000000   -2755.1227     648.8897    12924.105   -4683.0463    8087.0587    309.71995    15734 
399000000   -2804.8901    542.69075    12936.301   -4762.7078    8110.2887     310.0122    15752 
400000000   -2686.4958     775.0955    12930.969   -4685.6556    8147.2469    309.88444    15748 
401000000   -2689.5755    772.80545    12944.165   -4695.9548    8158.3357    310.20067    15747 
402000000    -2675.943    718.49114    12875.601   -4677.3926    8071.8267    308.55755    15750 
403000000   -2745.7916    749.61229    13045.036   -4670.2197    8165.6236    312.61799    15751 
404000000   -2644.7579    837.92197    13043.452   -4790.5229    8273.2028    312.58004    15753 
405000000   -2686.9463    820.07998    12792.303   -4702.6156    8209.6418    306.56135    15749 
406000000   -2804.8712    730.41176     12912.91   -4669.6689    8204.9518    309.45166    15744 
407000000   -2739.9596    872.58258    12924.578   -4627.4662    8240.0084    309.73127    15739 
408000000    -2693.434    781.54792    13096.412    -4649.665     8124.647    313.84919    15733 
409000000   -2682.4333    791.68789    13021.562    -4649.151    8123.2722    312.05544    15749 
410000000   -2694.3109    823.98456    13137.729   -4622.9396    8141.2351    314.83934    15741 
411000000   -2682.8532    798.42353    12896.217   -4655.7619    8137.0386    309.05162    15746 
412000000   -2736.7296    931.40063     12852.61   -4623.3713    8291.5015     308.0066    15734 
413000000   -2664.7881    860.10016    12817.983   -4633.4076    8158.2959    307.17678    15728 
414000000   -2775.7774    618.55297     12820.67   -4664.8353    8059.1656    307.24116    15737 
415000000   -2698.8082    888.90421    13062.117   -4622.3784    8210.0908    313.02733    15746 
416000000   -2828.8261    785.93171    12893.531   -4630.6258    8245.3836    308.98724    15747 
417000000   -2676.6723    933.17999    12814.988   -4636.5664    8246.4186    307.10499    15740 
418000000   -2841.3693    569.36024     12907.82   -4729.5864     8140.316    309.32967    15746 
419000000    -2756.993    782.91037    12995.832   -4629.7488    8169.6521    311.43884    15743 
420000000   -2710.7206    1033.4088    12782.248   -4461.4338    8205.5633     306.3204    15744 
421000000   -2778.6503    795.83675    13175.943   -4626.3594    8200.8464    315.75512    15746 
422000000   -2733.9613    678.28662    13004.912   -4688.0358    8100.2837    311.65644    15749 
423000000   -2727.9199    814.28987    12964.944   -4609.3771    8151.5869    310.69863    15739 
424000000   -2787.7213    769.91634    12982.068   -4596.7003     8154.338    311.10898    15735 
425000000   -2856.5969     774.5409    12921.015   -4629.8224    8260.9602    309.64588    15745 
426000000   -2776.0925    648.30378    12984.689   -4700.1038       8124.5    311.17181    15739 
427000000   -2721.4479    712.16145    12860.261   -4658.0679    8091.6772    308.18994    15737 
428000000   -2742.2344    795.49397    12908.928   -4628.0294    8165.7578    309.35623    15733 
429000000   -2721.4066    814.36031    12836.118   -4596.1091     8131.876    307.61138    15748 
430000000    -2816.901    855.95777    12956.058   -4664.5335    8337.3922    310.48568    15747 
431000000   -2862.5515    553.61562    12777.543   -4744.7648     8160.932    306.20766    15735 
432000000    -2742.566    670.43961    13015.077   -4726.4437    8139.4493    311.90004    15745 
433000000    -2805.796    650.48679    12858.343   -4682.1973    8138.4801    308.14398    15745 
434000000   -2706.4135    740.97269    12890.308   -4641.7001    8089.0863    308.91001    15737 
435000000     -2721.35    802.05313    12976.565   -4605.9312    8129.3343    310.97711    15734 
436000000   -2687.4414    732.75544    13017.691    -4710.197    8130.3938    311.96268    15746 
437000000   -2718.7255    809.58215    13048.045   -4552.6261    8080.9337    312.69009    15738 
438000000   -2751.6566    713.54274    12848.744   -4623.9975    8089.1969    307.91395    15744 
439000000   -2716.6579    800.36501    12959.564   -4713.3044    8230.3273    310.56969    15748 
440000000   -2723.4677    865.17959    12960.598   -4585.8313    8174.4786    310.59448    15741 
441000000   -2708.4838    769.11197    12892.813    -4650.949    8128.5447    308.97003    15743 
442000000   -2730.5986    728.76308    13004.922   -4682.0493    8141.4111    311.65667    15739 
443000000   -2759.9304    691.87252    12822.633   -4675.5966    8127.3995     307.2882    15743 
444000000   -2860.2634    508.41301    12931.384   -4766.4122    8135.0886    309.89437    15753 
487000000   -2813.5016    616.34514    12984.865   -4720.0591    8149.9058    311.17602    15739 
