LAMMPS (5 Jun 2019)
Reading data file ...
  orthogonal box = (-420 -420 -420) to (420 420 420)
  2 by 2 by 7 MPI processor grid
  reading atoms ...
  14000 atoms
  scanning bonds ...
  51 = max bonds/atom
  scanning angles ...
  1 = max angles/atom
  reading bonds ...
  13800 bonds
  reading angles ...
  13600 angles
Finding 1-2 1-3 1-4 neighbors ...
  special bond factors lj:   0          0          0         
  special bond factors coul: 0          0          0         
  2 = max # of 1-2 neighbors
  2 = max # of 1-3 neighbors
  4 = max # of 1-4 neighbors
  56 = max # of special neighbors
  special bonds CPU = 0.754269 secs
  read_data CPU = 0.921833 secs
Finding 1-2 1-3 1-4 neighbors ...
  special bond factors lj:   1          1          1         
  special bond factors coul: 0          0          0         
  2 = max # of 1-2 neighbors
  2 = max # of 1-3 neighbors
  4 = max # of 1-4 neighbors
  56 = max # of special neighbors
  special bonds CPU = 0.000726915 secs
WARNING: Using 'neigh_modify every 1 delay 0 check yes' setting during minimization (../min.cpp:168)
Neighbor list info ...
  update every 1 steps, delay 0 steps, check yes
  max neighbors/atom: 2000, page size: 100000
  master list distance cutoff = 26.9
  ghost atom cutoff = 26.9
  binsize = 13.45, bins = 63 63 63
  1 neighbor lists, perpetual/occasional/extra = 1 0 0
  (1) pair lj/cut, perpetual
      attributes: half, newton on
      pair build: half/bin/newton
      stencil: half/bin/3d/newton
      bin: standard
Setting up cg style minimization ...
  Unit style    : real
  Current step  : 0
Per MPI rank memory allocation (min/avg/max) = 1.165 | 13.79 | 17.67 Mbytes
Step Temp E_pair E_mol TotEng Press 
       0            0 1.5959422e+12      2649600 1.5959449e+12 7.3854599e+08 
    2872            0   -1769.6168    5348.8369    3579.2201  0.031182827 
Loop time of 1.02957 on 28 procs for 2872 steps with 14000 atoms

99.0% CPU use with 28 MPI tasks x no OpenMP threads

Minimization stats:
  Stopping criterion = energy tolerance
  Energy initial, next-to-last, final = 
     1.59594489115e+12      3579.56365059      3579.22009235
  Force two-norm initial, final = 4.92929e+10 2.03587
  Force max component initial, final = 1.05441e+09 0.154693
  Final line search alpha, max atom move = 0.461827 0.0714414
  Iterations, force evaluations = 2872 3119

MPI task timing breakdown:
Section |  min time  |  avg time  |  max time  |%varavg| %total
---------------------------------------------------------------
Pair    | 0.044026   | 0.14818    | 0.27192    |  17.4 | 14.39
Bond    | 0.014498   | 0.040565   | 0.07342    |   8.2 |  3.94
Neigh   | 0.093344   | 0.094736   | 0.097244   |   0.4 |  9.20
Comm    | 0.21889    | 0.34008    | 0.46774    |  12.9 | 33.03
Output  | 0          | 0          | 0          |   0.0 |  0.00
Modify  | 0          | 0          | 0          |   0.0 |  0.00
Other   |            | 0.406      |            |       | 39.44

Nlocal:    500 ave 911 max 179 min
Histogram: 3 3 4 4 5 0 2 3 2 2
Nghost:    314.393 ave 518 max 130 min
Histogram: 3 2 3 3 4 4 3 3 2 1
Neighs:    3173.18 ave 5987 max 902 min
Histogram: 3 2 6 3 5 0 1 3 3 2

Total # of neighbors = 88849
Ave neighs/atom = 6.34636
Ave special neighs/atom = 5.82857
Neighbor list builds = 199
Dangerous builds = 0
Setting up Verlet run ...
  Unit style    : real
  Current step  : 2872
  Time step     : 0.1
Per MPI rank memory allocation (min/avg/max) = 1.127 | 13.42 | 16.54 Mbytes
Step Temp E_pair E_mol TotEng Press 
    2872            0   -1769.6168    5348.8369    3579.2201  0.031182827 
   12872    224.43336   -1483.4759     9084.844    16966.604   -1.6805357 
Loop time of 1.86656 on 28 procs for 10000 steps with 14000 atoms

Performance: 46.288 ns/day, 0.518 hours/ns, 5357.460 timesteps/s
99.1% CPU use with 28 MPI tasks x no OpenMP threads

MPI task timing breakdown:
Section |  min time  |  avg time  |  max time  |%varavg| %total
---------------------------------------------------------------
Pair    | 0.046908   | 0.17267    | 0.36878    |  21.6 |  9.25
Bond    | 0.03805    | 0.1088     | 0.19828    |  13.5 |  5.83
Neigh   | 0.0025088  | 0.0025489  | 0.0026153  |   0.0 |  0.14
Comm    | 0.62493    | 0.85024    | 1.0557     |  13.2 | 45.55
Output  | 9.494e-05  | 0.00012584 | 0.00014866 |   0.0 |  0.01
Modify  | 0.093758   | 0.25498    | 0.45515    |  20.4 | 13.66
Other   |            | 0.4772     |            |       | 25.57

Nlocal:    500 ave 908 max 178 min
Histogram: 3 3 3 4 6 0 2 3 2 2
Nghost:    313.714 ave 512 max 130 min
Histogram: 3 3 2 3 3 5 3 2 3 1
Neighs:    3190.14 ave 6003 max 925 min
Histogram: 3 3 4 4 5 0 1 4 2 2

Total # of neighbors = 89324
Ave neighs/atom = 6.38029
Ave special neighs/atom = 5.82857
Neighbor list builds = 5
Dangerous builds = 0
4000 atoms in group rxnSites
Neighbor list info ...
  update every 1 steps, delay 1 steps, check yes
  max neighbors/atom: 2000, page size: 100000
  master list distance cutoff = 26.9
  ghost atom cutoff = 26.9
  binsize = 13.45, bins = 63 63 63
  2 neighbor lists, perpetual/occasional/extra = 1 1 0
  (1) pair lj/cut, perpetual
      attributes: half, newton on
      pair build: half/bin/newton
      stencil: half/bin/3d/newton
      bin: standard
  (2) fix bond/create/random, occasional, copy from (1)
      attributes: half, newton on
      pair build: copy
      stencil: none
      bin: none
Setting up Verlet run ...
  Unit style    : real
  Current step  : 0
  Time step     : 25
Per MPI rank memory allocation (min/avg/max) = 17.76 | 18.28 | 18.84 Mbytes
Step E_pair PotEng KinEng E_bond E_angle Temp Bonds 
       0   -1483.4759    7601.3681     9365.236    3005.0388    6079.8052    224.43336    13800 
 1000000   -276.03931    7010.3765    12925.547   -942.76168    8229.1775     309.7545    14938 
 2000000    -288.1444    6351.0365    12920.709   -1642.7689    8281.9498    309.63854    15105 
 3000000   -286.95615    5604.7785    12994.629   -2123.8893     8015.624       311.41    15214 
 4000000   -256.14082     5464.041    12847.808   -2360.9162     8081.098    307.89151    15262 
 5000000   -327.74022    5143.7437    12871.523   -2500.0329    7971.5168    308.45983    15293 
 6000000   -258.85212    5162.7321    12953.679   -2691.5817    8113.1659    310.42867    15322 
 7000000   -266.88645     5039.142    12853.052   -2804.6035    8110.6319    308.01719    15360 
 8000000   -269.45869    4807.3563    12825.985   -3016.1836    8092.9986    307.36855    15391 
 9000000   -279.29264    4672.4383    12905.577    -3037.092     7988.823    309.27592    15406 
10000000   -278.08348    4579.6527    12837.682   -3123.0398     7980.776    307.64885    15414 
11000000   -278.94559    4386.1551    12904.976   -3281.4204    7946.5211    309.26151    15442 
12000000   -276.05226     4449.947    12863.134   -3252.6038     7978.603    308.25881    15448 
13000000   -283.53894    4391.9064    12936.468   -3313.2243    7988.6696     310.0162    15461 
14000000   -265.38153    4348.7744    12906.305   -3347.3467    7961.5027    309.29338    15471 
15000000   -267.91831    4223.5978    13042.677   -3457.7488    7949.2649    312.56146    15491 
16000000   -261.57961    4265.2274    12972.032    -3439.737     7966.544    310.86849    15488 
17000000   -243.00657    4126.1351    12875.986   -3516.3868    7885.5286    308.56679    15502 
18000000   -269.84498     4213.871    12955.618   -3522.1332    8005.8492    310.47512    15509 
19000000   -270.48439    4055.6807    12883.401     -3560.06    7886.2251    308.74447    15509 
20000000    -292.9017    4277.4307    12949.517   -3443.8138    8014.1462    310.32891    15516 
21000000   -279.77547     4035.709    12931.849   -3608.0047    7923.4891    309.90551    15526 
22000000    -272.3009    4337.8596    12933.675   -3569.5249    8179.6854    309.94928    15533 
23000000   -273.74863    4054.5817    13082.457   -3672.8893    8001.2196    313.51477    15545 
24000000   -248.66486    4102.3145    12980.116   -3676.0481    8027.0275     311.0622    15545 
25000000   -251.61838    4109.4646      12827.7   -3586.7431    7947.8261    307.40963    15541 
26000000    -259.1905    4159.7355    12805.635   -3632.4849    8051.4109    306.88086    15541 
27000000   -269.16561    4019.6704    12952.076   -3726.3651    8015.2011    310.39024    15553 
28000000   -235.54911    4062.6714    12865.387   -3747.6745     8045.895    308.31278    15563 
29000000   -236.68892    4061.3691    12973.373   -3781.8998    8079.9578    310.90063    15572 
30000000    -238.5659      3925.84    12761.965   -3826.0945    7990.5004    305.83433    15565 
31000000   -244.12951     3962.219    12812.435   -3718.3124    7924.6609    307.04382    15578 
32000000   -237.88449    3829.8706    13036.653   -3845.3887    7913.1438     312.4171    15579 
33000000   -271.67248    3812.0322    12983.626   -3857.2585    7940.9632    311.14634    15582 
34000000   -262.58686    3991.5334    12980.551   -3788.6001    8042.7204    311.07265    15576 
35000000   -255.81667    3879.0498    12895.124   -3864.9187    7999.7852    309.02542    15586 
36000000   -244.27279    3792.1669    12824.086   -3976.5721    8013.0117    307.32302    15602 
37000000    -256.9388    3821.7211    12909.729   -3908.3105    7986.9704    309.37543    15607 
38000000   -224.53283    3734.2496     13072.81   -3988.6083    7947.3907    313.28359    15607 
39000000   -276.41795    3743.3268    12916.844   -3999.7053    8019.4501    309.54593    15615 
40000000   -310.79078    3666.5008    13008.684   -4015.2998    7992.5914    311.74684    15612 
41000000   -276.91686    3912.1295    12822.802   -3860.5485    8049.5948    307.29226    15609 
42000000   -244.34764    3817.8942    13020.464   -3981.1739    8043.4158    312.02914    15621 
43000000   -275.67518    3805.6587    12927.982    -3988.029    8069.3628    309.81284    15613 
44000000   -273.77428    3698.4919    12936.393   -3970.6235    7942.8897    310.01441    15612 
45000000   -271.60218    3686.5519    12973.443   -3964.7689     7922.923     310.9023    15610 
46000000   -292.13514    3627.0856    13042.179   -4002.8252     7922.046    312.54952    15615 
47000000   -287.16493    3701.8187     12894.55   -4045.1692    8034.1528    309.01167    15617 
48000000   -275.54039    3678.7449    12803.323   -4042.9664    7997.2517    306.82545    15619 
49000000   -256.12705    3587.3857    12965.861   -4075.7337    7919.2464    310.72061    15628 
50000000   -274.81641     3570.828    12934.604   -4076.2966    7921.9409    309.97154    15629 
51000000   -247.46674    3738.5321     13018.36    -4024.359    8010.3578    311.97872    15618 
52000000   -276.58003    3718.6183    12750.744     -4005.61    8000.8083    305.56542    15623 
53000000   -259.59437    3685.9091    12878.668   -4028.3468    7973.8502    308.63106    15629 
54000000   -268.83357    3712.8529    13059.196   -4005.2151    7986.9015    312.95733    15625 
55000000   -257.78374     3664.383    12903.506   -4095.4418    8017.6085    309.22629    15630 
56000000   -244.00301    3597.7497     12824.52   -4083.4116    7925.1643    307.33342    15640 
57000000   -274.58491    3618.2094    12906.809   -4138.9564    8031.7507    309.30544    15642 
58000000   -292.04184    3448.7644    12784.096   -4174.4177    7915.2239    306.36468    15648 
59000000    -241.6968    3805.6243    12902.727   -4007.4696    8054.7907    309.20762    15644 
60000000   -252.48803    3451.2165    12930.721    -4204.096    7907.8005    309.87849    15658 
61000000   -257.49582    3544.3984    12993.873   -4156.0535    7957.9477     311.3919    15651 
62000000   -265.29838    3745.9059    12924.264    -4090.525    8101.7292    309.72376    15650 
63000000   -251.97536    3674.2658    12951.449   -4182.5717    8108.8129    310.37522    15657 
64000000   -240.91512     3469.204    12815.549   -4206.9203    7917.0394    307.11846    15664 
65000000   -275.74319    3454.9561    12959.177   -4243.3454    7974.0447    310.56042    15666 
66000000   -244.57696    3424.1599    12835.309   -4266.0595    7934.7963    307.59198    15670 
67000000   -289.07511    3429.7962    13088.132   -4228.5406    7947.4119    313.65076    15682 
68000000   -254.48499    3236.7238    13045.893   -4357.3376    7848.5464    312.63852    15677 
69000000    -240.1452     3516.092    12868.198   -4240.5954    7996.8326    308.38015    15677 
70000000   -251.22426     3413.042    12947.619   -4304.0125    7968.2787    310.28344    15681 
71000000   -244.88159    3462.4436    12991.461   -4280.6967     7988.022     311.3341    15687 
72000000   -274.46454    3306.4912     13077.25   -4406.8593     7987.815    313.38999    15700 
73000000   -271.80237    3318.7558    12883.741    -4417.988    8008.5462    308.75262    15698 
74000000   -253.16658    3313.1109    12986.582   -4479.1567    8045.4342    311.21716    15705 
75000000   -249.35633    3282.9117     12947.22    -4378.986    7911.2541    310.27388    15712 
76000000   -245.77692    3195.8854    12884.454   -4501.7929    7943.4553    308.76972    15714 
77000000   -234.27335    3499.2847    12959.399   -4313.5863    8047.1444    310.56575    15712 
78000000   -243.97197    3239.4991    13040.646   -4398.0176    7881.4887    312.51279    15708 
79000000   -255.26646    3265.3091    12848.983   -4493.8886    8014.4642    307.91967    15712 
80000000   -280.78379    3368.9377    13003.387   -4387.1511    8036.8726    311.61989    15711 
81000000   -284.17243    3224.4297    13003.513   -4467.1979       7975.8    311.62291    15717 
82000000   -286.49566    3137.0684    12933.144   -4453.8084    7877.3725    309.93655    15718 
83000000   -280.40929    3197.0472     12851.26   -4473.3897    7950.8462    307.97424    15720 
84000000   -248.31215    3229.0757    13015.284   -4482.0845    7959.4723      311.905    15722 
85000000   -269.27887    3325.2408    12824.809   -4436.5863    8031.1059    307.34035    15731 
86000000   -250.57733    3136.3351    12977.767    -4434.031    7820.9434    311.00593    15718 
87000000   -278.18873    3162.8146    12930.633   -4375.0922    7816.0955    309.87639    15713 
88000000   -303.15834    3215.1063    12969.438   -4464.2478    7982.5125    310.80631    15716 
89000000   -258.08959    3024.4934    12909.921   -4543.4503    7826.0332    309.38003    15725 
90000000   -290.29459    3085.6808    13071.367   -4479.0179    7854.9932      313.249    15717 
91000000    -274.9741    3096.4474    12913.977   -4503.9228    7875.3443    309.47722    15716 
92000000   -265.53625    2979.3671    12880.887   -4550.3933    7795.2966    308.68424    15725 
93000000   -247.24845    3244.0843    12819.318   -4517.3343     8008.667    307.20876    15728 
94000000   -263.69256    3268.4063    13046.042   -4480.3122    8012.4111    312.64211    15722 
95000000   -242.26423    3366.1212    12914.582   -4377.2144    7985.5998    309.49172    15718 
96000000   -248.15583    3201.4196    13002.879   -4511.6105    7961.1859    311.60771    15718 
97000000    -272.2423    3159.1801    12894.541   -4513.8922    7945.3146    309.01145    15718 
98000000   -235.19511    3083.4672    12986.851   -4558.8769    7877.5392    311.22361    15717 
99000000   -276.38324    3356.7346    12898.281   -4342.5294    7975.6473    309.10108    15718 
100000000   -270.18716     3296.245     12993.62   -4346.3953    7912.8274    311.38584    15715 
101000000   -255.49922    3149.7267    13098.726   -4463.2316    7868.4575    313.90465    15721 
102000000   -282.28121    3165.5629    12825.366   -4480.3397    7928.1838     307.3537    15715 
103000000   -253.88367    3276.6271    12848.584   -4425.9484    7956.4592     307.9101    15709 
104000000   -260.00535    3118.8351    12954.122   -4507.1233    7885.9637    310.43929    15717 
105000000   -274.00605    3051.4489    13106.829   -4548.2311    7873.6861    314.09884    15725 
106000000   -270.21835    3187.9297    12920.995   -4484.1927    7942.3407     309.6454    15714 
107000000   -283.98308    3416.0016    12844.284   -4345.9418    8045.9265    307.80707    15709 
108000000   -298.23257    3389.1305    13032.847   -4359.3947    8046.7578    312.32589    15715 
109000000   -285.25762    3305.2891     12888.84   -4417.3981    8007.9449    308.87484    15714 
110000000   -261.79654    3144.4003    13006.372    -4547.605    7953.8019    311.69144    15717 
111000000   -260.41459    3295.0129    12871.542   -4421.3087    7976.7362    308.46028    15719 
112000000   -243.65008    3203.0681    12697.412   -4577.0265    8023.7447    304.28735    15720 
113000000   -284.63259    3245.2657    13034.929   -4485.5186    8015.4169    312.37577    15727 
114000000   -219.56488     3322.006    12963.058   -4447.8572     7989.428    310.65343    15717 
115000000    -252.9581     3310.262    12951.393   -4423.5852    7986.8053    310.37387    15727 
116000000    -267.2551    3173.7186    13063.872    -4452.367    7893.3407    313.06938    15723 
117000000   -267.71746    3113.0355    13054.309   -4538.3652    7919.1182    312.84021    15727 
118000000   -242.06036    3216.8208    12975.604   -4539.2014    7998.0826    310.95408    15733 
119000000   -263.19894    3159.6222    13054.789   -4417.2078     7840.029    312.85171    15725 
120000000   -265.70366    3264.7356    13086.899   -4431.0244    7961.4637    313.62123    15723 
121000000   -250.07282    3244.1879    12900.131   -4420.0282    7914.2888    309.14542    15725 
122000000   -283.56396    3287.5727    13000.179   -4412.2715    7983.4082    311.54301    15728 
123000000   -205.59696    3079.5404    12874.957   -4521.7531    7806.8905    308.54213    15734 
124000000   -260.43842    3106.4303    12834.936   -4557.8116    7924.6802    307.58304    15733 
125000000   -263.77235    3186.8748    13036.627   -4594.2813    8044.9285    312.41647    15727 
126000000   -242.84939    3351.3088    12962.081   -4384.3747    7978.5329    310.63001    15730 
127000000   -233.52593    3085.2306    12836.575   -4638.4474    7957.2039    307.62233    15740 
128000000   -247.71927    3249.5526    12774.689   -4527.9979    8025.2698    306.13926    15740 
129000000    -253.6732    3036.0528    12969.639   -4580.7213    7870.4473    310.81114    15735 
130000000   -231.91717    3296.0626    12765.707   -4483.0278    8011.0076    305.92402    15737 
131000000   -245.66114    3230.3937    12845.901    -4479.892    7955.9469    307.84583    15736 
132000000   -255.08263    3144.3843    13031.658   -4589.1352    7988.6021    312.29739    15741 
133000000    -246.0238    3215.1942    12973.226   -4575.0888    8036.3068     310.8971    15745 
134000000   -254.23901    3172.6491    12920.315   -4515.7887    7942.6769     309.6291    15741 
135000000   -269.78219    3139.6121    12811.849   -4573.6014    7982.9956    307.02977    15742 
136000000    -267.7784      3180.08    12920.467   -4527.6645    7975.5228    309.63275    15736 
137000000    -256.5415    3019.1378    13122.429   -4670.3583    7946.0376    314.47269    15754 
138000000   -290.80164    3057.2301    12945.715   -4598.9206    7946.9523     310.2378    15744 
139000000   -235.74005     3054.013    12940.435   -4608.6993    7898.4524    310.11127    15749 
140000000   -282.68158    3072.2191    12950.063   -4540.6712    7895.5718      310.342    15741 
141000000   -247.25378    3181.9059    12960.045   -4588.0429    8017.2026    310.58121    15742 
142000000   -255.75097    3116.5847    12998.972   -4523.5644    7895.9001     311.5141    15735 
143000000   -261.70499    3203.6854    13001.494   -4438.2835    7903.6739    311.57452    15740 
144000000   -261.96171    3105.4235    13044.417   -4577.9624    7945.3476    312.60315    15742 
145000000     -237.498    3141.8948    12862.042   -4547.6452     7927.038    308.23263    15735 
146000000   -262.20656    3120.8419    12939.199   -4462.1471    7845.1956    310.08165    15740 
147000000    -240.9685    3191.0188    12899.195   -4565.2975    7997.2848    309.12299    15748 
148000000   -222.22885    3085.3251    12971.755   -4520.9257    7828.4797    310.86184    15736 
149000000    -239.3999    3079.3331     12825.23   -4636.8488    7955.5818    307.35045    15743 
150000000   -277.44257    3050.3193    12939.293   -4561.6139    7889.3757    310.08391    15741 
151000000   -272.37548    2992.4704     12936.44   -4604.2524    7869.0983    310.01554    15749 
152000000   -274.19825    3037.6846    12804.933   -4613.7563    7925.6392    306.86403    15746 
153000000   -264.03274    3184.8981    12911.191    -4526.492    7975.4229    309.41047    15735 
154000000   -279.86465    3276.7489     12869.07   -4549.0385     8105.652    308.40104    15736 
155000000   -271.93467     3203.966    12906.075   -4531.2416    8007.1423    309.28787    15739 
156000000   -249.74752    2903.3631    12932.882    -4676.435    7829.5456    309.93027    15757 
157000000   -249.88732    3120.4708    13085.708   -4476.4237    7846.7819    313.59267    15746 
158000000   -247.65912    3083.3929    12999.854   -4587.4315    7918.4835    311.53522    15747 
159000000   -237.85615    3006.9793    13046.924   -4684.0409    7928.8763    312.66324    15756 
160000000   -279.26816    3001.4337    12919.064   -4610.6383    7891.3401    309.59914    15749 
161000000   -230.93661    3020.1736    12881.831   -4695.2078     7946.318    308.70687    15763 
162000000    -295.0099    2928.2157    12728.486   -4688.2261    7911.4516    305.03202    15753 
163000000   -263.48296    3061.8668    13158.616   -4676.9531    8002.3028    315.33988    15761 
164000000   -256.34171    3074.8385    12863.227   -4576.2414    7907.4216    308.26103    15760 
165000000   -234.56474    3019.2528    12914.779   -4580.3976    7834.2151    309.49644    15751 
166000000   -247.56632    3097.2026     12942.81   -4628.7621     7973.531    310.16819    15755 
167000000   -244.55826     3179.807    12931.962   -4496.7583    7921.1236    309.90821    15746 
168000000   -225.18114    3075.4897    12974.519   -4726.0483    8026.7191    310.92809    15757 
169000000   -257.85388    3049.7558    12821.304   -4646.3108    7953.9205    307.25637    15747 
170000000   -257.81926    3052.5944     12964.91   -4563.7307    7874.1443     310.6978    15751 
171000000   -267.76297    3046.6205    12744.038   -4647.1386     7961.522    305.40471    15760 
172000000   -256.11247    3128.4888    12928.009   -4613.4174    7998.0187    309.81349    15758 
173000000   -236.61997    3037.3355    12841.519   -4661.4619    7935.4174    307.74079    15756 
174000000   -284.45989     3082.198    13018.448   -4540.3778    7907.0357    311.98082    15757 
175000000   -239.52282    2982.4218    13052.935   -4622.5056    7844.4502    312.80729    15751 
176000000   -286.70032    3071.7624    12787.154   -4553.9318    7912.3946    306.43796    15754 
177000000   -267.02268    3033.0992    12988.787   -4686.8132     7986.935       311.27    15752 
178000000   -276.26145    3086.5051    12823.662   -4535.3408    7898.1074    307.31288    15755 
179000000   -258.05291    2993.6361    12961.311   -4648.7066    7900.3957    310.61157    15751 
180000000   -251.09562    3199.4298    12922.711   -4535.0688    7985.5941    309.68654    15765 
181000000   -277.24956    3106.9076    12914.931   -4627.2002    8011.3573    309.50009    15752 
182000000   -250.25087    3045.6002    12980.087   -4687.0418    7982.8928    311.06152    15759 
183000000   -278.88869    2964.7825    12931.575   -4640.8215    7884.4927    309.89896    15751 
184000000   -259.79515    3083.6816    13095.669   -4621.0113     7964.488    313.83138    15758 
185000000   -241.23904    3159.8438    12964.348   -4554.3876    7955.4705    310.68435    15754 
186000000     -249.795    3161.6841    12814.666    -4592.351    8003.8301    307.09728    15754 
187000000   -219.13992    3087.4306    13075.796   -4603.5303    7910.1008    313.35513    15757 
188000000   -244.00098    2918.7666    13099.867   -4733.4186    7896.1862    313.93199    15766 
189000000   -220.95846    3101.5784    12919.721   -4675.4732      7998.01    309.61489    15762 
190000000   -277.72829    2992.9804    12780.955   -4684.3085    7955.0171    306.28942    15752 
191000000   -243.40176    3192.8368    12931.278   -4581.9232    8018.1617    309.89183    15763 
192000000   -238.90801     2985.467    13008.192   -4681.5183    7905.8933    311.73504    15764 
193000000   -250.82169    3167.8166    12922.168   -4588.1095    8006.7478    309.67353    15759 
194000000   -268.38394    2972.5601    12993.754   -4686.2726    7927.2167    311.38904    15764 
195000000   -242.44673    2944.0046    12794.629   -4709.9763    7896.4275    306.61712    15768 
196000000   -261.91134     3087.673    13068.117   -4605.3761    7954.9605    313.17111    15759 
197000000   -278.03027    3174.6273    12908.447   -4515.6703    7968.3278     309.3447    15757 
198000000   -246.33331    3131.8943    12979.681   -4604.0666    7982.2942    311.05178    15762 
199000000   -275.64039    3074.0177    12980.244   -4546.0911    7895.7492    311.06527    15751 
200000000   -226.60397    3102.0315    13006.909   -4589.8875     7918.523    311.70429    15761 
201000000   -236.95936    3089.0073    12910.658   -4572.9762    7898.9429    309.39768    15759 
202000000   -278.37056    2962.0553    13014.913   -4657.4793    7897.9052    311.89611    15757 
203000000   -277.07415    3034.1831    12948.503   -4637.3374    7948.5946    310.30463    15747 
204000000   -260.04218    3070.9215    12922.745   -4576.1941    7907.1577    309.68735    15756 
205000000   -258.34771    2969.4393    12821.665   -4754.0014    7981.7884      307.265    15760 
206000000   -254.59723    3047.4561    13047.891   -4629.5951    7931.6484    312.68642    15766 
207000000   -243.27296    3174.2485    12849.996    -4584.346    8001.8675    307.94395    15756 
208000000   -241.17523     3103.484     13080.76   -4564.5036    7909.1628    313.47409    15747 
209000000   -253.86896    3094.9154    12872.212   -4579.8548    7928.6391    308.47633    15748 
210000000    -265.2444    3021.4727    12958.041   -4649.8883    7936.6054    310.53319    15757 
211000000   -242.56977    2971.1106    12963.801   -4574.8621    7788.5425    310.67123    15746 
212000000    -245.7143    3088.2681    12842.077   -4590.0723    7924.0547    307.75417    15760 
213000000   -275.56971    2820.8513      12902.2   -4691.2596    7787.6805      309.195    15759 
214000000   -252.56733    3054.0798    13116.869   -4620.5087    7927.1559    314.33943    15753 
215000000   -266.26402    3192.3281    12945.435   -4552.7301    8011.3223     310.2311    15758 
216000000   -265.72738    3215.4846    12854.646   -4597.2148    8078.4268    308.05538    15755 
217000000   -235.85469    3141.8743    12928.782   -4611.0326    7988.7616    309.83201    15750 
218000000   -266.83426    3145.9553    12899.484   -4551.5485    7964.3381     309.1299    15753 
219000000    -282.8987    3043.4369    12985.052   -4618.5656    7944.9013    311.18051    15750 
220000000   -251.64418    3276.3876    12941.696   -4530.6316    8058.6634     310.1415    15748 
221000000   -233.84652    2919.0702    12902.633   -4749.9222    7902.8389    309.20537    15765 
222000000   -235.22353    3133.9452    13090.595   -4656.1941    8025.3628    313.70978    15756 
223000000   -246.66578    3024.5562    12949.306   -4583.2292    7854.4512    310.32387    15764 
224000000   -266.73192    2986.9782    12938.486   -4735.3964    7989.1065    310.06457    15759 
225000000   -246.48874    3210.1046    13046.133   -4645.5718    8102.1651    312.64429    15757 
226000000   -238.32783      3047.12    12992.932   -4638.6986    7924.1464    311.36935    15754 
227000000   -253.37094     3035.102    13081.963   -4643.4934    7931.9663    313.50293    15753 
228000000   -273.47098    3150.3116    12970.552   -4579.3094    8003.0919    310.83301    15753 
229000000   -267.51626    2977.3344    12896.936   -4663.5121    7908.3628    309.06883    15759 
230000000    -277.7542    2968.2547    13026.507   -4642.2273    7888.2362    312.17395    15757 
231000000   -268.95284    2958.0543    12926.922   -4627.6578    7854.6649    309.78745    15758 
232000000   -224.33011    3022.1599     12890.93   -4724.5096    7970.9996    308.92493    15769 
233000000   -263.35883    3180.1943    13008.748   -4653.0982    8096.6513    311.74836    15748 
234000000    -251.6029    2979.5203    12840.358   -4678.5346    7909.6578    307.71298    15751 
235000000   -267.86016    3109.7545    13064.615   -4624.2747    8001.8894    313.08719    15766 
236000000   -271.42194     2874.833    12899.685   -4678.5503    7824.8052    309.13472    15761 
237000000   -255.29011    3081.3539    12958.535   -4640.4861    7977.1302    310.54504    15755 
238000000   -285.46738    3067.3051    12951.689    -4606.305    7959.0775    310.38097    15757 
239000000   -238.51393    3042.1926    13011.638   -4676.7832    7957.4898    311.81763    15766 
240000000   -274.52575    3057.1979    12934.179   -4670.4096    8002.1333    309.96136    15756 
241000000   -282.62441    3148.9957    13157.721   -4547.3102    7978.9303    315.31843    15761 
242000000   -241.66771    3079.4896    12948.884   -4693.1754    8014.3326    310.31374    15773 
243000000   -223.01778    2941.8537    12870.603   -4615.2495     7780.121    308.43779    15749 
244000000   -242.54302    3040.9567    12886.053   -4599.1146    7882.6143    308.80804    15751 
245000000   -276.16002     3037.451    13030.819   -4663.4204    7977.0315    312.27729    15758 
246000000   -228.90517    3066.9354     12890.73   -4621.6981    7917.5387    308.92011    15760 
247000000   -262.03145    2980.4588    12930.091   -4637.0543    7879.5446    309.86339    15755 
248000000    -271.1657    3096.3554    12872.104   -4617.6471    7985.1682    308.47376    15759 
249000000   -238.20989    3261.2662    12950.652   -4584.1319     8083.608    310.35613    15751 
250000000   -261.71444     2901.615    13102.038   -4624.0703    7787.3997      313.984    15758 
251000000   -272.89433    3070.2711    13019.488     -4570.11    7913.2754    312.00575    15749 
252000000   -237.73222     3145.837    13034.046   -4559.4762    7943.0455    312.35462    15757 
253000000   -241.00494    2972.1945    12826.744   -4721.6321    7934.8315    307.38673    15763 
254000000   -248.62798    2931.7503    12935.873   -4636.7633    7817.1415    310.00195    15754 
255000000   -245.40099    3094.4647    12869.199   -4657.8194    7997.6851    308.40415    15760 
256000000   -225.56807    3148.9159    13016.797   -4635.2182    8009.7022    311.94126    15753 
257000000   -272.81741    3070.5389     13060.32   -4612.0027     7955.359    312.98427    15758 
258000000   -273.79245    3055.0282    12885.542   -4609.4347    7938.2553     308.7958    15752 
259000000    -257.3104    2998.6466    12839.334   -4649.1665    7905.1234    307.68844    15754 
260000000   -274.79093    3140.0555    12907.166   -4563.7739    7978.6202    309.31401    15747 
261000000   -246.07134    3049.7579    13058.804   -4689.7919    7985.6211    312.94792    15762 
262000000   -257.35828    3091.6545    13083.459   -4640.9761    7989.9888    313.53878    15763 
263000000   -256.63918    3120.0167    12943.814   -4561.2896    7937.9454    310.19225    15748 
264000000   -272.97652    3024.6475    12864.852   -4701.4853    7999.1093    308.29996    15760 
265000000   -263.20714    3053.9098    12801.871   -4698.8413    8015.9582    306.79065    15755 
266000000   -254.98896     2830.656    12923.786   -4758.1161    7843.7611     309.7123    15761 
267000000   -262.30641     3141.651    12963.391   -4635.1457    8039.1031    310.66142    15761 
268000000   -260.12829    3008.0921    12895.915   -4570.4286     7838.649    309.04438    15750 
269000000   -288.51037    3023.1583    13017.637   -4585.9246    7897.5933    311.96139    15751 
270000000   -266.60086    3191.1544    12817.659   -4549.6484    8007.4037      307.169    15742 
271000000   -257.45018    2963.2217    13024.056   -4718.8126    7939.4844    312.11523    15761 
272000000   -264.50782    3052.8623    12842.639   -4637.9359     7955.306    307.76765    15760 
273000000   -297.66392    3078.0995    12889.181   -4580.1824    7955.9459      308.883    15761 
274000000   -260.97575    3096.0406    13052.909   -4649.0138    8006.0301    312.80667    15756 
275000000   -297.91387    3034.7001    12936.868   -4621.2619    7953.8759     310.0258    15765 
276000000   -270.01454    3082.6268    12737.076   -4727.3277     8079.969    305.23787    15771 
277000000   -299.48197    2978.9466    12974.937   -4625.3233    7903.7518     310.9381    15765 
278000000   -253.09951    2761.9732    12924.353   -4739.4004    7754.4731    309.72588    15768 
279000000   -265.16595    2903.3315    13055.515   -4679.3626      7847.86    312.86911    15761 
280000000   -279.87789    3061.4407    12855.427   -4593.8527    7935.1713     308.0741    15751 
281000000    -264.0577    3058.9121    12951.749   -4654.4616    7977.4314     310.3824    15760 
282000000   -262.10946     3111.492    12805.199   -4619.9534    7993.5548    306.87041    15760 
283000000   -232.32106     3083.684    13014.692   -4681.1771    7997.1822     311.8908    15761 
284000000   -270.35164    3085.7786    12908.199   -4620.6919    7976.8221    309.33876    15758 
285000000   -276.77547    3196.3054    12980.425   -4650.6099    8123.6908    311.06963    15762 
286000000   -269.06228    3003.4888    12890.667   -4651.6974    7924.2485    308.91861    15765 
287000000   -273.21505    3021.1124    12958.759   -4656.7191    7951.0466    310.55039    15759 
288000000   -250.40817    2991.7602    12868.049    -4712.508    7954.6765    308.37658    15767 
289000000   -258.30301     3068.063    13062.862   -4616.3101    7942.6762    313.04518    15761 
290000000   -228.67375     2971.339    12996.661   -4659.7594    7859.7721     311.4587    15764 
291000000   -239.12636     3071.759    13083.185   -4623.8994    7934.7847    313.53222    15757 
292000000   -257.63353    2955.5402    12779.732   -4764.1885    7977.3622    306.26011    15763 
293000000   -244.35282    2997.7907    12988.713    -4645.401    7887.5445    311.26825    15762 
294000000   -248.81957    2872.3019     13027.37   -4703.1813    7824.3028    312.19464    15766 
295000000   -247.13221    2922.6783    13073.906    -4706.403    7876.2135    313.30984    15764 
296000000   -295.22814    3070.5456    12961.111   -4668.6289    8034.4027    310.60678    15763 
297000000   -247.70373    3006.3317    12910.924   -4658.6104    7912.6458    309.40405    15767 
298000000   -278.38893    2884.2192    12825.813   -4666.5793    7829.1874    307.36441    15763 
299000000   -256.30437    2965.8385    12933.977   -4654.5702    7876.7131    309.95652    15759 
300000000   -262.20457    3220.3035    12828.276   -4522.4594    8004.9675    307.42345    15765 
301000000   -237.13187    3063.0926    12885.262   -4691.7055    7991.9299    308.78908    15769 
302000000   -263.08875    3261.9943    13113.812   -4563.3467    8088.4297    314.26618    15756 
303000000   -275.33837    3167.7527    12998.497   -4532.6029     7975.694    311.50271    15761 
304000000   -209.83848    2988.7808    12968.618   -4750.1263    7948.7456    310.78667    15750 
305000000   -242.24298    3000.2709    13005.803   -4686.1718    7928.6857    311.67779    15760 
306000000   -281.95362     3002.016     13055.44   -4696.4106    7980.3802    312.86733    15765 
307000000   -271.32276    3128.3978     12903.09   -4623.3805     8023.101    309.21632    15761 
308000000   -245.32116    3049.9311    12883.367   -4660.2569    7955.5091    308.74366    15763 
309000000   -252.40658    3156.9954    12925.808   -4619.7063    8029.1083    309.76075    15761 
310000000   -267.43459    3070.2356    12839.305   -4719.5001    8057.1703    307.68774    15765 
311000000   -260.89074    3048.5717    12951.069   -4644.2976      7953.76    310.36611    15759 
312000000   -261.25863    3085.4206    12787.458   -4604.0797     7950.759    306.44527    15760 
313000000   -246.83144    3196.0295    13071.178   -4574.9425    8017.8034    313.24446    15767 
314000000    -263.8793    2947.5346    13052.241   -4685.8169    7897.2308    312.79065    15762 
315000000   -257.13396    3063.3147    12834.324   -4582.4608    7902.9095    307.56838    15755 
316000000   -264.20176    3080.0675    13153.421   -4679.1413    8023.4106     315.2154    15771 
317000000   -254.79072    3065.8631    12983.918   -4570.9624    7891.6162    311.15333    15745 
318000000   -254.54293     2909.799    12933.657   -4684.2282    7848.5701    309.94884    15759 
319000000   -241.31814      2903.92    12882.062   -4738.5431    7883.7813    308.71241    15767 
320000000   -262.93199    3309.0326    12871.297   -4579.3791    8151.3437    308.45441    15754 
321000000   -240.61145    3031.9883    12768.361   -4619.1192     7891.719     305.9876    15762 
322000000    -258.5667    2906.8949    12873.974   -4655.2976    7820.7593    308.51858    15768 
323000000   -241.50733    3079.8744    12781.874   -4696.9389    8018.3206    306.31144    15762 
324000000   -252.17424    2947.2216    12840.891   -4724.3598    7923.7556    307.72575    15768 
325000000   -223.86902    3161.8349     12842.79   -4613.1962    7998.9001    307.77126    15760 
326000000   -231.43997    3004.4048    12929.375   -4667.7287    7903.5734    309.84624    15761 
327000000   -253.46809    2987.8132    12776.867    -4630.563    7871.8444    306.19146    15764 
328000000   -255.11029    3019.1682    13006.249   -4703.1549    7977.4334    311.68849    15760 
329000000   -231.54864    2911.5936    13008.129   -4757.7626    7900.9048    311.73354    15758 
330000000   -283.29027      3051.51    12986.923   -4630.1533    7964.9535    311.22533    15765 
331000000   -278.74148    3141.1443    12881.681   -4621.8236    8041.7094    308.70326    15766 
332000000   -253.71637    3078.9989    12917.946    -4686.873    8019.5882    309.57234    15765 
333000000    -238.2011    3064.7168    12878.937    -4690.117     7993.035    308.63751    15767 
334000000   -255.93864    3116.6901    12897.473   -4480.3406    7852.9693    309.08172    15762 
335000000   -248.45683    2896.1096    12892.396   -4686.7783    7831.3447    308.96004    15761 
336000000   -277.96009    3115.0605    13137.579   -4620.4116    8013.4321    314.83573    15764 
337000000   -253.90662    2862.7138    12887.465    -4794.293    7910.9134    308.84187    15760 
338000000   -248.39143    3184.6669    12899.619   -4625.6627     8058.721    309.13313    15760 
339000000    -260.5995    3079.6907     12910.27    -4662.737    8003.0272    309.38839    15765 
340000000   -235.14216    2982.5698    12843.078   -4674.4024    7892.1143    307.77816    15757 
341000000    -272.5313    2924.0039    12902.791   -4704.4082    7900.9435    309.20915    15769 
342000000   -256.34906    3039.1365    12932.333   -4755.6742    8051.1597    309.91711    15759 
343000000   -247.67251     3022.605    12927.461   -4673.3597    7943.6372    309.80036    15760 
344000000    -271.9908    3020.9328    12997.039   -4636.7021    7929.6258    311.46776    15757 
345000000   -257.58101    3055.6457    12813.784   -4659.2233      7972.45    307.07614    15766 
346000000   -271.35975    3071.6332    12971.973   -4634.1918    7977.1848    310.86706    15760 
347000000   -264.16971    3075.8234    12889.695   -4626.6543    7966.6474    308.89532    15767 
348000000   -245.35971    2929.6116    12985.884   -4810.6974    7985.6687    311.20044    15774 
349000000   -239.37554    3015.8161    12919.498   -4618.2666    7873.4582    309.60952    15759 
350000000    -262.1108    3058.3281     12747.07   -4702.7124    8023.1514    305.47738    15771 
351000000   -266.58993    2939.2945    12935.233   -4723.4051    7929.2895    309.98661    15760 
352000000   -272.60644    2957.6282    13157.661   -4666.4639    7896.6986    315.31699    15763 
353000000    -257.9664    3050.8114    12912.684   -4666.0455    7974.8233    309.44623    15762 
354000000   -243.32826    3030.0921    13122.618   -4628.7334    7902.1538    314.47721    15762 
355000000   -249.18575    2985.1952    12871.417    -4684.555    7918.9359     308.4573    15759 
356000000   -254.80657    3065.1751    12896.238   -4636.0384    7956.0201    309.05211    15762 
357000000   -245.00092     2957.298    12816.265   -4725.4202     7927.719    307.13559    15759 
358000000   -244.61154    2974.2886    12897.082   -4695.7258    7914.6259    309.07234    15770 
359000000    -258.7574    3199.2815    12972.214   -4571.1167    8029.1556    310.87286    15752 
360000000   -242.49441    3136.9814    12867.131     -4653.65    8033.1258    308.35459    15762 
361000000   -245.53122    3062.8281    13049.221   -4629.1281    7937.4874    312.71828    15752 
362000000   -263.04024    3127.9702    12866.905    -4574.647    7965.6574    308.34916    15754 
363000000   -246.61977    3113.5061    12777.091   -4565.6037    7925.7297    306.19682    15758 
364000000   -268.26379    3052.1315     12904.43   -4692.2439    8012.6392    309.24844    15768 
365000000   -256.76053    3025.8602    12661.915    -4659.401    7942.0217    303.43669    15773 
366000000   -225.82849    3040.9408    13053.469   -4730.1192    7996.8885    312.82007    15755 
367000000   -246.70021    3097.8788     12896.33    -4667.791      8012.37    309.05433    15752 
368000000   -245.64028    3234.2355    12859.993   -4540.3079    8020.1836    308.18353    15754 
369000000   -249.51673    3058.5393    12918.722   -4682.8153    7990.8713    309.59094    15763 
370000000   -250.35913    2950.5927    12869.458   -4700.6612     7901.613    308.41034    15764 
371000000   -279.77535    2935.6871    12838.182   -4675.9549    7891.4173    307.66082    15764 
372000000   -284.61384    3048.2445    12837.772   -4641.9526     7974.811    307.65101    15761 
373000000   -245.42612    3044.7104    13024.543   -4647.9741    7938.1106    312.12688    15761 
374000000   -278.64183    3020.9592    12936.429   -4696.0974    7995.6984    310.01527    15765 
375000000   -256.33108    3054.4053    12838.904   -4674.0245    7984.7608    307.67814    15769 
376000000   -274.55792    3003.9011    12971.315   -4714.0072    7992.4662    310.85131    15764 
377000000   -229.70056    3102.7217    13105.758   -4632.2852    7964.7074    314.07316    15758 
378000000   -264.19177     3014.895    12940.108   -4631.3136    7910.4004    310.10345    15756 
379000000   -242.84861    2955.9594    12909.312   -4728.1956    7927.0036    309.36542    15758 
380000000   -206.67209    3120.3166    12956.987   -4581.0937    7908.0825    310.50793    15757 
381000000   -251.65495    3132.9263     12873.89   -4616.9087      8001.49    308.51655    15757 
382000000    -260.2642    3104.3947    12973.906   -4610.0057    7974.6646    310.91339    15765 
383000000   -241.65607    3147.5508    12924.267   -4665.9655    8055.1724    309.72382    15765 
384000000   -270.93094    3003.6607    12895.204   -4589.7381    7864.3298    309.02733    15757 
385000000   -236.98938    2922.6016    12887.128   -4737.9652    7897.5562    308.83381    15762 
386000000   -261.93982    3019.3378    12948.778   -4644.6764    7925.9541    310.31122    15760 
387000000   -246.71157    3038.9253    13047.742   -4719.4375    8005.0744    312.68283    15758 
388000000   -258.03983    3223.6654    13010.253   -4467.9609    7949.6662    311.78444    15748 
389000000   -267.72388    3028.7884    12846.558   -4658.1026     7954.615    307.86156    15759 
390000000   -241.05187    3194.2543    12921.115   -4551.8812    7987.1874    309.64829    15762 
391000000   -262.43206    3160.3611    12873.878   -4595.8033    8018.5965    308.51627    15757 
392000000   -270.85174    3090.6388    12951.731   -4560.4377    7921.9282    310.38199    15748 
393000000   -258.34483    2990.5756    12808.218   -4651.3934    7900.3138    306.94276    15758 
394000000   -253.86128    3021.6833    12920.691   -4590.5631    7866.1077    309.63813    15761 
395000000   -294.50977    2866.1682     13026.14   -4681.0255    7841.7035    312.16516    15757 
396000000   -244.22296    3083.0079    12992.649   -4699.9107    8027.1416    311.36257    15758 
397000000   -285.58337    2950.7998    12865.199   -4646.3558     7882.739     308.3083    15768 
398000000   -267.68579    3148.5074    12912.248    -4585.904    8002.0971     309.4358    15760 
399000000   -249.83914    3156.6837    12758.083   -4623.8665    8030.3893    305.74131    15755 
400000000   -251.42512    3143.7053     12985.59   -4674.2003    8069.3307     311.1934    15762 
401000000   -243.54751    3023.6005    13018.917   -4575.6536    7842.8016    311.99206    15759 
402000000   -249.92148    3024.5451    12856.019   -4579.3758    7853.8423     308.0883    15761 
403000000   -254.27469    3186.9368    12857.614   -4562.9589    8004.1704    308.12651    15747 
404000000   -249.92131    3151.4281     13148.94   -4642.4772    8043.8266    315.10799    15767 
405000000    -261.4603    2987.2443    12829.568    -4642.856    7891.5606    307.45441    15760 
406000000   -236.36534    2955.1387    12924.791   -4658.5039     7850.008    309.73638    15760 
407000000   -235.05322    2973.0038    13100.014   -4689.4819    7897.5389    313.93551    15767 
408000000    -238.0949    2939.4817    12996.773   -4697.8637    7875.4403     311.4614    15768 
409000000   -254.83287    3095.3447    13013.837   -4617.1314    7967.3089    311.87032    15755 
410000000   -260.82572    3150.6394    12932.927   -4615.2764    8026.7416    309.93136    15764 
411000000   -226.83943    3103.1217    12814.235   -4648.3042    7978.2653    307.08696    15756 
412000000   -237.22079    3046.7094    13013.678    -4710.213    7994.1432    311.86652    15768 
413000000   -252.28814    3189.9717    12828.217   -4592.3476    8034.6074    307.42204    15749 
414000000   -239.77956    3068.4746    13023.451   -4614.4376    7922.6918    312.10071    15753 
415000000   -295.20038    2867.3593    13208.009   -4705.9175    7868.4772    316.52356    15761 
416000000   -255.62296    3139.4419    12971.905   -4578.5315    7973.5963    310.86544    15758 
417000000   -265.79329    3047.0899    12914.836   -4652.8327    7965.7159    309.49781    15758 
418000000   -242.50435    2954.3064    13118.321   -4692.6893       7889.5    314.37422    15761 
419000000   -234.79351    3303.3627    13019.113   -4543.3488     8081.505    311.99676    15763 
420000000   -260.65481    3112.8589    13089.906   -4663.4306    8036.9443    313.69328    15763 
421000000    -234.1191    2999.3731    12923.174   -4704.7148    7938.2069    309.69763    15764 
422000000   -266.64377    3162.1018     12868.61   -4596.1022    8024.8478    308.39004    15761 
423000000   -241.29863    3125.9383    12927.752   -4695.3518    8062.5888    309.80733    15753 
424000000   -267.73789     3251.515    12964.359   -4550.3307    8069.5836    310.68462    15758 
425000000   -278.97475    3082.1763    12908.851   -4716.8299     8077.981    309.35438    15767 
426000000   -264.83142    3179.1939    12898.254   -4597.6732    8041.6985    309.10044    15769 
427000000   -250.61823    3007.7492    12978.742   -4737.7037    7996.0711    311.02928    15766 
428000000   -249.76386    3293.6593    12969.294   -4576.4459    8119.8691    310.80288    15757 
429000000   -275.41428    3045.0402    12848.714   -4680.1336    8000.5881    307.91324    15761 
430000000    -246.2222     3083.806    12808.296   -4660.2576    7990.2858    306.94463    15752 
431000000   -229.61201    3059.6321    13022.439   -4661.8881    7951.1322    312.07646    15768 
432000000   -273.98973    2988.1743    12867.816   -4662.2428    7924.4068    308.37101    15760 
433000000   -226.75311    3054.8943    12913.937    -4666.944    7948.5914    309.47625    15761 
434000000   -221.88882    3187.6823    12962.917   -4626.5573    8036.1284    310.65005    15755 
435000000   -265.70299    3149.7505    12784.859   -4649.7612    8065.2146    306.38298    15755 
436000000   -247.79844    2940.5469    13157.502    -4756.095    7944.4404    315.31318    15759 
437000000   -243.51292    2989.3407    13090.886   -4583.7424    7816.5961    313.71677    15761 
438000000   -246.15547    2976.6771     13042.53   -4691.8417    7914.6742    312.55794    15763 
439000000   -237.53301    3051.9953    12951.551   -4599.6335    7889.1618    310.37768    15765 
440000000   -263.96875    2856.5126    12922.821   -4830.5606     7951.042    309.68917    15769 
441000000   -239.56507     2959.233    12906.758   -4740.0506    7938.8487    309.30421    15770 
442000000    -261.5688    3051.4589    12888.613   -4637.4165    7950.4441    308.86938    15762 
443000000   -276.55544    3135.1752    12926.245   -4569.8288    7981.5595    309.77123    15761 
444000000   -248.58285    2825.4121    13110.054   -4730.9735    7804.9684    314.17612    15751 
445000000   -264.80909    3117.0253    12905.105   -4561.3549    7943.1893    309.26461    15752 
446000000   -252.72928    2949.6505    13056.931   -4703.5983    7905.9781    312.90305    15766 
447000000   -240.66602    3069.9851    13023.556     -4626.57    7937.2211    312.10324    15760 
448000000   -244.52843    3171.2902     12974.79   -4673.3927    8089.2113    310.93457    15759 
449000000   -271.58891    3140.4712    13047.384   -4687.4844    8099.5445    312.67425    15764 
450000000   -240.27396    3009.7734    13042.054   -4680.7089    7930.7562    312.54652    15762 
451000000   -255.95425    3147.9805    12923.654   -4620.0795    8024.0142    309.70913    15750 
452000000   -276.21167    3041.9915    13013.226   -4627.0907    7945.2939    311.85567    15762 
453000000   -274.17836    3081.1145    13066.286   -4594.5475    7949.8403    313.12724    15757 
454000000   -257.42546     3068.398    13059.297   -4642.2189    7968.0423    312.95974    15753 
455000000   -254.85502    3082.9718    13003.955   -4531.1381    7868.9648    311.63349    15758 
456000000   -247.03042    3019.7889    12924.559   -4663.1578    7929.9772    309.73081    15772 
457000000    -259.2999    3065.3531    13054.113   -4573.6018    7898.2549    312.83552    15768 
458000000   -268.69453    3129.0802    12997.191   -4638.7889    8036.5636    311.47141    15763 
459000000   -276.46652    2868.4461    12791.986   -4714.1972    7859.1099    306.55377    15766 
460000000   -283.46054    3002.3678    12910.442   -4646.1254    7931.9538    309.39252    15759 
461000000   -258.55304     2961.463    12965.633    -4655.136    7875.1521    310.71514    15765 
462000000   -281.27884    3105.9728    13012.314   -4643.0277    8030.2794    311.83381    15765 
463000000    -259.4982    3029.0803    12999.569   -4679.4244    7968.0029     311.5284    15763 
464000000   -285.22124    2992.9183    12904.196   -4670.7076    7948.8471    309.24282    15765 
465000000   -254.32246    3157.6031    13064.304   -4612.5069    8024.4325    313.07974    15754 
466000000   -267.91447    2970.2687    12759.407   -4713.5871    7951.7702    305.77303    15757 
467000000   -248.59981    3057.2398    12880.712   -4676.6867    7982.5264    308.68006    15763 
468000000   -253.41804    3078.9414    12978.101   -4518.9009    7851.2602    311.01392    15753 
469000000   -252.30529    2932.2153    13115.248   -4688.8453    7873.3659    314.30059    15770 
470000000   -270.34539     2973.172    12795.728   -4649.2999    7892.8173    306.64344    15764 
471000000   -258.48177    3037.7928    12855.989   -4609.4863    7905.7609    308.08757    15757 
472000000   -252.89712    3090.4433    12985.799    -4655.661    7999.0015     311.1984    15759 
473000000   -260.97276    3111.0279    12858.784   -4646.7801    8018.7807    308.15455    15757 
474000000   -287.26761    3140.3974    12856.497   -4564.3366    7992.0017    308.09974    15756 
475000000   -221.53596    3162.4132    12869.961   -4657.7088     8041.658    308.42241    15760 
476000000     -272.877    3042.0688    13071.922   -4728.0928    8043.0386    313.26229    15754 
477000000   -259.94933    3149.2144    12876.365    -4619.659    8028.8227    308.57586    15757 
478000000   -277.77993    3024.3984    13134.512   -4702.6013    8004.7796    314.76223    15765 
479000000   -253.86673    2963.0643    12878.618   -4625.8041    7842.7351    308.62987    15763 
480000000   -261.34585    2991.2212    12944.126   -4706.9518    7959.5189    310.19973    15763 
481000000   -271.62638    3041.8523    13111.792   -4639.7823     7953.261    314.21776    15759 
482000000   -230.70449    3001.0036    12931.413   -4767.3431    7999.0511    309.89508    15779 
483000000   -248.83243    3025.5138    12970.313     -4664.67    7939.0162    310.82729    15761 
484000000   -279.69967    3028.9989     13036.07   -4704.9252    8013.6237    312.40312    15765 
485000000   -246.77639    3091.0312     12880.13   -4645.3192    7983.1268     308.6661    15763 
486000000   -267.58659    3048.9929    12843.046   -4551.3092    7867.8887     307.7774    15758 
487000000   -264.18503    2926.4607    12884.838   -4695.1623    7885.8081    308.77891    15762 
488000000   -262.97021    2858.9926     12850.79   -4670.0738    7792.0366    307.96299    15765 
489000000   -247.72265    3061.0775    13067.209    -4595.728    7904.5282    313.14936    15759 
490000000   -265.60365    3050.7943    12950.665   -4702.1735    8018.5714    310.35642    15761 
491000000   -258.65077    2820.4979    12974.387   -4749.1526    7828.3013    310.92492    15761 
492000000   -242.54638    3001.4023    12978.001   -4668.2243    7912.1729    311.01153    15762 
493000000   -284.69735    3017.4886    13034.038   -4591.8836    7894.0695    312.35444    15762 
494000000   -242.94303    3063.3294    13005.734   -4562.7075      7868.98    311.67613    15752 
495000000   -291.30426    3171.4332    12895.285   -4546.1329    8008.8704    309.02927    15737 
496000000   -264.64126    3096.2897    13074.646   -4620.5092    7981.4401    313.32758    15762 
497000000   -257.69764    2939.4952    12941.539   -4685.4101     7882.603    310.13774    15762 
498000000   -235.51403    3105.0134     12924.96   -4658.4762    7999.0036    309.74042    15758 
499000000   -267.21485    3052.5117    13052.122   -4683.1408    8002.8674     312.7878    15765 
500000000   -236.20297    2961.9994    12917.365   -4695.7498    7893.9521    309.55841    15764 
Loop time of 153124 on 28 procs for 500000000 steps with 14000 atoms

Performance: 7053.105 ns/day, 0.003 hours/ns, 3265.326 timesteps/s
99.2% CPU use with 28 MPI tasks x no OpenMP threads

MPI task timing breakdown:
Section |  min time  |  avg time  |  max time  |%varavg| %total
---------------------------------------------------------------
Pair    | 9880.5     | 10824      | 14729      |1053.9 |  7.07
Bond    | 5883.9     | 6455.4     | 12407      |2017.2 |  4.22
Neigh   | 29838      | 30279      | 30701      | 140.5 | 19.77
Comm    | 51277      | 59615      | 63775      |1049.1 | 38.93
Output  | 0.71762    | 0.71967    | 0.72142    |   0.1 |  0.00
Modify  | 26121      | 26255      | 26644      |  67.8 | 17.15
Other   |            | 1.969e+04  |            |       | 12.86

Nlocal:    500 ave 518 max 473 min
Histogram: 1 0 1 1 7 3 7 3 2 3
Nghost:    451.714 ave 661 max 225 min
Histogram: 1 1 3 2 8 5 2 2 2 2
Neighs:    2727.61 ave 3078 max 2278 min
Histogram: 1 3 1 2 4 4 4 4 3 2

Total # of neighbors = 76373
Ave neighs/atom = 5.45521
Ave special neighs/atom = 7.897
Neighbor list builds = 94492003
Dangerous builds = 0
System init for write_restart ...
Total wall time: 42:32:08
