       14000
  Built with Packmol                                             
  A         -282.665302     -315.518416      384.053005
  A         -281.520263     -314.200340      383.077524
  A         -280.375224     -312.882264      382.102043
  A         -279.230186     -311.564189      381.126562
  A         -278.085147     -310.246113      380.151081
  A         -276.940109     -308.928038      379.175600
  A         -275.795070     -307.609962      378.200119
  A         -274.650031     -306.291886      377.224638
  A         -273.504993     -304.973811      376.249157
  A         -272.359954     -303.655735      375.273676
  A         -271.214916     -302.337660      374.298195
  A         -270.069877     -301.019584      373.322714
  A         -268.924838     -299.701508      372.347233
  A         -267.779800     -298.383433      371.371752
  A         -266.634761     -297.065357      370.396271
  A         -265.489723     -295.747282      369.420790
  A         -264.344684     -294.429206      368.445309
  A         -263.199645     -293.111130      367.469827
  A         -262.054607     -291.793055      366.494346
  A         -260.909568     -290.474979      365.518865
  AL        -259.764530     -289.156904      364.543384
  AL        -258.619491     -287.838828      363.567903
  AL        -257.474452     -286.520752      362.592422
  AL        -256.329414     -285.202677      361.616941
  AL        -255.184375     -283.884601      360.641460
  AL        -254.039337     -282.566525      359.665979
  AL        -252.894298     -281.248450      358.690498
  AL        -251.749259     -279.930374      357.715017
  AL        -250.604221     -278.612299      356.739536
  AL        -249.459182     -277.294223      355.764055
  AL        -248.314143     -275.976147      354.788574
  AL        -247.169105     -274.658072      353.813093
  AL        -246.024066     -273.339996      352.837612
  AL        -244.879028     -272.021921      351.862131
  AL        -243.733989     -270.703845      350.886650
  AL        -242.588950     -269.385769      349.911169
  AL        -241.443912     -268.067694      348.935688
  AL        -240.298873     -266.749618      347.960207
  AL        -239.153835     -265.431543      346.984725
  AL        -238.008796     -264.113467      346.009244
  AL        -236.863757     -262.795391      345.033763
  AL        -235.718719     -261.477316      344.058282
  AL        -234.573680     -260.159240      343.082801
  AL        -233.428642     -258.841164      342.107320
  AL        -232.283603     -257.523089      341.131839
  AL        -231.138564     -256.205013      340.156358
  AL        -229.993526     -254.886938      339.180877
  AL        -228.848487     -253.568862      338.205396
  AL        -227.703449     -252.250786      337.229915
  AL        -226.558410     -250.932711      336.254434
  AL        -225.413371     -249.614635      335.278953
  AL        -224.268333     -248.296560      334.303472
  AL        -223.123294     -246.978484      333.327991
  AL        -221.978256     -245.660408      332.352510
  AL        -220.833217     -244.342333      331.377029
  AL        -219.688178     -243.024257      330.401548
  AL        -218.543140     -241.706182      329.426067
  AL        -217.398101     -240.388106      328.450586
  AL        -216.253062     -239.070030      327.475105
  AL        -215.108024     -237.751955      326.499623
  AL        -213.962985     -236.433879      325.524142
  AL        -212.817947     -235.115803      324.548661
  AL        -211.672908     -233.797728      323.573180
  AL        -210.527869     -232.479652      322.597699
  AL        -209.382831     -231.161577      321.622218
  AL        -208.237792     -229.843501      320.646737
  AL        -207.092754     -228.525425      319.671256
  AL        -205.947715     -227.207350      318.695775
  AL        -204.802676     -225.889274      317.720294
  AL        -203.657638     -224.571199      316.744813
  A          298.189646      180.565837      -23.925083
  A          298.563895      178.663911      -23.432523
  A          298.938144      176.761985      -22.939962
  A          299.312393      174.860059      -22.447401
  A          299.686641      172.958133      -21.954841
  A          300.060890      171.056207      -21.462280
  A          300.435139      169.154282      -20.969720
  A          300.809388      167.252356      -20.477159
  A          301.183637      165.350430      -19.984598
  A          301.557885      163.448504      -19.492038
  A          301.932134      161.546578      -18.999477
  A          302.306383      159.644652      -18.506916
  A          302.680632      157.742727      -18.014356
  A          303.054880      155.840801      -17.521795
  A          303.429129      153.938875      -17.029235
  A          303.803378      152.036949      -16.536674
  A          304.177627      150.135023      -16.044113
  A          304.551876      148.233097      -15.551553
  A          304.926124      146.331172      -15.058992
  A          305.300373      144.429246      -14.566432
  AL         305.674622      142.527320      -14.073871
  AL         306.048871      140.625394      -13.581310
  AL         306.423120      138.723468      -13.088750
  AL         306.797368      136.821542      -12.596189
  AL         307.171617      134.919617      -12.103629
  AL         307.545866      133.017691      -11.611068
  AL         307.920115      131.115765      -11.118507
  AL         308.294363      129.213839      -10.625947
  AL         308.668612      127.311913      -10.133386
  AL         309.042861      125.409987       -9.640826
  AL         309.417110      123.508061       -9.148265
  AL         309.791359      121.606136       -8.655704
  AL         310.165607      119.704210       -8.163144
  AL         310.539856      117.802284       -7.670583
  AL         310.914105      115.900358       -7.178023
  AL         311.288354      113.998432       -6.685462
  AL         311.662603      112.096506       -6.192901
  AL         312.036851      110.194581       -5.700341
  AL         312.411100      108.292655       -5.207780
  AL         312.785349      106.390729       -4.715220
  AL         313.159598      104.488803       -4.222659
  AL         313.533846      102.586877       -3.730098
  AL         313.908095      100.684951       -3.237538
  AL         314.282344       98.783026       -2.744977
  AL         314.656593       96.881100       -2.252417
  AL         315.030842       94.979174       -1.759856
  AL         315.405090       93.077248       -1.267295
  AL         315.779339       91.175322       -0.774735
  AL         316.153588       89.273396       -0.282174
  AL         316.527837       87.371471        0.210386
  AL         316.902086       85.469545        0.702947
  AL         317.276334       83.567619        1.195508
  AL         317.650583       81.665693        1.688068
  AL         318.024832       79.763767        2.180629
  AL         318.399081       77.861841        2.673189
  AL         318.773329       75.959916        3.165750
  AL         319.147578       74.057990        3.658311
  AL         319.521827       72.156064        4.150871
  AL         319.896076       70.254138        4.643432
  AL         320.270325       68.352212        5.135992
  AL         320.644573       66.450286        5.628553
  AL         321.018822       64.548360        6.121114
  AL         321.393071       62.646435        6.613674
  AL         321.767320       60.744509        7.106235
  AL         322.141569       58.842583        7.598795
  AL         322.515817       56.940657        8.091356
  AL         322.890066       55.038731        8.583917
  AL         323.264315       53.136805        9.076477
  AL         323.638564       51.234880        9.569038
  AL         324.012812       49.332954       10.061599
  A          -72.703423     -392.086949     -365.083078
  A          -74.187587     -390.878923     -364.501760
  A          -75.671751     -389.670897     -363.920442
  A          -77.155915     -388.462870     -363.339125
  A          -78.640078     -387.254844     -362.757807
  A          -80.124242     -386.046818     -362.176489
  A          -81.608406     -384.838791     -361.595172
  A          -83.092570     -383.630765     -361.013854
  A          -84.576734     -382.422739     -360.432536
  A          -86.060897     -381.214712     -359.851219
  A          -87.545061     -380.006686     -359.269901
  A          -89.029225     -378.798660     -358.688583
  A          -90.513389     -377.590633     -358.107266
  A          -91.997553     -376.382607     -357.525948
  A          -93.481716     -375.174581     -356.944631
  A          -94.965880     -373.966554     -356.363313
  A          -96.450044     -372.758528     -355.781995
  A          -97.934208     -371.550502     -355.200678
  A          -99.418372     -370.342475     -354.619360
  A         -100.902535     -369.134449     -354.038042
  AL        -102.386699     -367.926423     -353.456725
  AL        -103.870863     -366.718396     -352.875407
  AL        -105.355027     -365.510370     -352.294089
  AL        -106.839191     -364.302344     -351.712772
  AL        -108.323354     -363.094317     -351.131454
  AL        -109.807518     -361.886291     -350.550136
  AL        -111.291682     -360.678265     -349.968819
  AL        -112.775846     -359.470238     -349.387501
  AL        -114.260010     -358.262212     -348.806183
  AL        -115.744173     -357.054186     -348.224866
  AL        -117.228337     -355.846159     -347.643548
  AL        -118.712501     -354.638133     -347.062230
  AL        -120.196665     -353.430107     -346.480913
  AL        -121.680829     -352.222080     -345.899595
  AL        -123.164992     -351.014054     -345.318277
  AL        -124.649156     -349.806028     -344.736960
  AL        -126.133320     -348.598001     -344.155642
  AL        -127.617484     -347.389975     -343.574325
  AL        -129.101647     -346.181949     -342.993007
  AL        -130.585811     -344.973922     -342.411689
  AL        -132.069975     -343.765896     -341.830372
  AL        -133.554139     -342.557870     -341.249054
  AL        -135.038303     -341.349843     -340.667736
  AL        -136.522466     -340.141817     -340.086419
  AL        -138.006630     -338.933791     -339.505101
  AL        -139.490794     -337.725764     -338.923783
  AL        -140.974958     -336.517738     -338.342466
  AL        -142.459122     -335.309712     -337.761148
  AL        -143.943285     -334.101685     -337.179830
  AL        -145.427449     -332.893659     -336.598513
  AL        -146.911613     -331.685633     -336.017195
  AL        -148.395777     -330.477606     -335.435877
  AL        -149.879941     -329.269580     -334.854560
  AL        -151.364104     -328.061554     -334.273242
  AL        -152.848268     -326.853527     -333.691924
  AL        -154.332432     -325.645501     -333.110607
  AL        -155.816596     -324.437475     -332.529289
  AL        -157.300760     -323.229448     -331.947972
  AL        -158.784923     -322.021422     -331.366654
  AL        -160.269087     -320.813396     -330.785336
  AL        -161.753251     -319.605369     -330.204019
  AL        -163.237415     -318.397343     -329.622701
  AL        -164.721579     -317.189317     -329.041383
  AL        -166.205742     -315.981290     -328.460066
  AL        -167.689906     -314.773264     -327.878748
  AL        -169.174070     -313.565238     -327.297430
  AL        -170.658234     -312.357211     -326.716113
  AL        -172.142398     -311.149185     -326.134795
  AL        -173.626561     -309.941159     -325.553477
  AL        -175.110725     -308.733132     -324.972160
  A           -4.417040       80.240327     -111.298874
  A           -4.590989       78.448978     -110.426628
  A           -4.764938       76.657630     -109.554383
  A           -4.938887       74.866282     -108.682137
  A           -5.112837       73.074933     -107.809891
  A           -5.286786       71.283585     -106.937646
  A           -5.460735       69.492236     -106.065400
  A           -5.634684       67.700888     -105.193154
  A           -5.808634       65.909539     -104.320909
  A           -5.982583       64.118191     -103.448663
  A           -6.156532       62.326842     -102.576418
  A           -6.330481       60.535494     -101.704172
  A           -6.504431       58.744146     -100.831926
  A           -6.678380       56.952797      -99.959681
  A           -6.852329       55.161449      -99.087435
  A           -7.026278       53.370100      -98.215189
  A           -7.200228       51.578752      -97.342944
  A           -7.374177       49.787403      -96.470698
  A           -7.548126       47.996055      -95.598453
  A           -7.722076       46.204707      -94.726207
  AL          -7.896025       44.413358      -93.853961
  AL          -8.069974       42.622010      -92.981716
  AL          -8.243923       40.830661      -92.109470
  AL          -8.417873       39.039313      -91.237224
  AL          -8.591822       37.247964      -90.364979
  AL          -8.765771       35.456616      -89.492733
  AL          -8.939720       33.665267      -88.620488
  AL          -9.113670       31.873919      -87.748242
  AL          -9.287619       30.082571      -86.875996
  AL          -9.461568       28.291222      -86.003751
  AL          -9.635517       26.499874      -85.131505
  AL          -9.809467       24.708525      -84.259260
  AL          -9.983416       22.917177      -83.387014
  AL         -10.157365       21.125828      -82.514768
  AL         -10.331314       19.334480      -81.642523
  AL         -10.505264       17.543132      -80.770277
  AL         -10.679213       15.751783      -79.898031
  AL         -10.853162       13.960435      -79.025786
  AL         -11.027111       12.169086      -78.153540
  AL         -11.201061       10.377738      -77.281295
  AL         -11.375010        8.586389      -76.409049
  AL         -11.548959        6.795041      -75.536803
  AL         -11.722909        5.003692      -74.664558
  AL         -11.896858        3.212344      -73.792312
  AL         -12.070807        1.420996      -72.920066
  AL         -12.244756       -0.370353      -72.047821
  AL         -12.418706       -2.161701      -71.175575
  AL         -12.592655       -3.953050      -70.303330
  AL         -12.766604       -5.744398      -69.431084
  AL         -12.940553       -7.535747      -68.558838
  AL         -13.114503       -9.327095      -67.686593
  AL         -13.288452      -11.118444      -66.814347
  AL         -13.462401      -12.909792      -65.942101
  AL         -13.636350      -14.701140      -65.069856
  AL         -13.810300      -16.492489      -64.197610
  AL         -13.984249      -18.283837      -63.325365
  AL         -14.158198      -20.075186      -62.453119
  AL         -14.332147      -21.866534      -61.580873
  AL         -14.506097      -23.657883      -60.708628
  AL         -14.680046      -25.449231      -59.836382
  AL         -14.853995      -27.240579      -58.964136
  AL         -15.027944      -29.031928      -58.091891
  AL         -15.201894      -30.823276      -57.219645
  AL         -15.375843      -32.614625      -56.347400
  AL         -15.549792      -34.405973      -55.475154
  AL         -15.723742      -36.197322      -54.602908
  AL         -15.897691      -37.988670      -53.730663
  AL         -16.071640      -39.780019      -52.858417
  AL         -16.245589      -41.571367      -51.986172
  AL         -16.419539      -43.362715      -51.113926
  A         -158.002136     -281.983558     -308.048020
  A         -157.140013     -283.381293     -306.906495
  A         -156.277889     -284.779029     -305.764970
  A         -155.415766     -286.176764     -304.623445
  A         -154.553642     -287.574499     -303.481920
  A         -153.691518     -288.972234     -302.340395
  A         -152.829395     -290.369970     -301.198870
  A         -151.967271     -291.767705     -300.057345
  A         -151.105148     -293.165440     -298.915821
  A         -150.243024     -294.563175     -297.774296
  A         -149.380901     -295.960911     -296.632771
  A         -148.518777     -297.358646     -295.491246
  A         -147.656654     -298.756381     -294.349721
  A         -146.794530     -300.154116     -293.208196
  A         -145.932407     -301.551852     -292.066671
  A         -145.070283     -302.949587     -290.925146
  A         -144.208160     -304.347322     -289.783621
  A         -143.346036     -305.745057     -288.642096
  A         -142.483913     -307.142793     -287.500571
  A         -141.621789     -308.540528     -286.359046
  AL        -140.759666     -309.938263     -285.217521
  AL        -139.897542     -311.335998     -284.075996
  AL        -139.035419     -312.733734     -282.934471
  AL        -138.173295     -314.131469     -281.792946
  AL        -137.311171     -315.529204     -280.651421
  AL        -136.449048     -316.926939     -279.509896
  AL        -135.586924     -318.324675     -278.368372
  AL        -134.724801     -319.722410     -277.226847
  AL        -133.862677     -321.120145     -276.085322
  AL        -133.000554     -322.517880     -274.943797
  AL        -132.138430     -323.915616     -273.802272
  AL        -131.276307     -325.313351     -272.660747
  AL        -130.414183     -326.711086     -271.519222
  AL        -129.552060     -328.108821     -270.377697
  AL        -128.689936     -329.506557     -269.236172
  AL        -127.827813     -330.904292     -268.094647
  AL        -126.965689     -332.302027     -266.953122
  AL        -126.103566     -333.699762     -265.811597
  AL        -125.241442     -335.097498     -264.670072
  AL        -124.379319     -336.495233     -263.528547
  AL        -123.517195     -337.892968     -262.387022
  AL        -122.655072     -339.290703     -261.245497
  AL        -121.792948     -340.688439     -260.103972
  AL        -120.930824     -342.086174     -258.962447
  AL        -120.068701     -343.483909     -257.820922
  AL        -119.206577     -344.881644     -256.679398
  AL        -118.344454     -346.279380     -255.537873
  AL        -117.482330     -347.677115     -254.396348
  AL        -116.620207     -349.074850     -253.254823
  AL        -115.758083     -350.472585     -252.113298
  AL        -114.895960     -351.870321     -250.971773
  AL        -114.033836     -353.268056     -249.830248
  AL        -113.171713     -354.665791     -248.688723
  AL        -112.309589     -356.063526     -247.547198
  AL        -111.447466     -357.461262     -246.405673
  AL        -110.585342     -358.858997     -245.264148
  AL        -109.723219     -360.256732     -244.122623
  AL        -108.861095     -361.654467     -242.981098
  AL        -107.998972     -363.052203     -241.839573
  AL        -107.136848     -364.449938     -240.698048
  AL        -106.274725     -365.847673     -239.556523
  AL        -105.412601     -367.245408     -238.414998
  AL        -104.550477     -368.643144     -237.273473
  AL        -103.688354     -370.040879     -236.131949
  AL        -102.826230     -371.438614     -234.990424
  AL        -101.964107     -372.836349     -233.848899
  AL        -101.101983     -374.234085     -232.707374
  AL        -100.239860     -375.631820     -231.565849
  AL         -99.377736     -377.029555     -230.424324
  AL         -98.515613     -378.427290     -229.282799
  A           76.695844      -69.091826     -237.515110
  A           76.412095      -67.318142     -238.394615
  A           76.128345      -65.544458     -239.274121
  A           75.844595      -63.770774     -240.153627
  A           75.560845      -61.997089     -241.033133
  A           75.277095      -60.223405     -241.912638
  A           74.993345      -58.449721     -242.792144
  A           74.709595      -56.676037     -243.671650
  A           74.425845      -54.902353     -244.551156
  A           74.142095      -53.128669     -245.430662
  A           73.858345      -51.354984     -246.310167
  A           73.574596      -49.581300     -247.189673
  A           73.290846      -47.807616     -248.069179
  A           73.007096      -46.033932     -248.948685
  A           72.723346      -44.260248     -249.828190
  A           72.439596      -42.486563     -250.707696
  A           72.155846      -40.712879     -251.587202
  A           71.872096      -38.939195     -252.466708
  A           71.588346      -37.165511     -253.346214
  A           71.304596      -35.391827     -254.225719
  AL          71.020847      -33.618143     -255.105225
  AL          70.737097      -31.844458     -255.984731
  AL          70.453347      -30.070774     -256.864237
  AL          70.169597      -28.297090     -257.743742
  AL          69.885847      -26.523406     -258.623248
  AL          69.602097      -24.749722     -259.502754
  AL          69.318347      -22.976037     -260.382260
  AL          69.034597      -21.202353     -261.261766
  AL          68.750847      -19.428669     -262.141271
  AL          68.467097      -17.654985     -263.020777
  AL          68.183348      -15.881301     -263.900283
  AL          67.899598      -14.107617     -264.779789
  AL          67.615848      -12.333932     -265.659295
  AL          67.332098      -10.560248     -266.538800
  AL          67.048348       -8.786564     -267.418306
  AL          66.764598       -7.012880     -268.297812
  AL          66.480848       -5.239196     -269.177318
  AL          66.197098       -3.465511     -270.056823
  AL          65.913348       -1.691827     -270.936329
  AL          65.629599        0.081857     -271.815835
  AL          65.345849        1.855541     -272.695341
  AL          65.062099        3.629225     -273.574847
  AL          64.778349        5.402909     -274.454352
  AL          64.494599        7.176594     -275.333858
  AL          64.210849        8.950278     -276.213364
  AL          63.927099       10.723962     -277.092870
  AL          63.643349       12.497646     -277.972375
  AL          63.359599       14.271330     -278.851881
  AL          63.075849       16.045015     -279.731387
  AL          62.792100       17.818699     -280.610893
  AL          62.508350       19.592383     -281.490399
  AL          62.224600       21.366067     -282.369904
  AL          61.940850       23.139751     -283.249410
  AL          61.657100       24.913435     -284.128916
  AL          61.373350       26.687120     -285.008422
  AL          61.089600       28.460804     -285.887928
  AL          60.805850       30.234488     -286.767433
  AL          60.522100       32.008172     -287.646939
  AL          60.238351       33.781856     -288.526445
  AL          59.954601       35.555541     -289.405951
  AL          59.670851       37.329225     -290.285456
  AL          59.387101       39.102909     -291.164962
  AL          59.103351       40.876593     -292.044468
  AL          58.819601       42.650277     -292.923974
  AL          58.535851       44.423961     -293.803480
  AL          58.252101       46.197646     -294.682985
  AL          57.968351       47.971330     -295.562491
  AL          57.684601       49.745014     -296.441997
  AL          57.400852       51.518698     -297.321503
  AL          57.117102       53.292382     -298.201008
  A          159.476875       89.044788      -96.555219
  A          158.512621       87.416142      -95.908900
  A          157.548366       85.787497      -95.262581
  A          156.584112       84.158852      -94.616262
  A          155.619858       82.530206      -93.969944
  A          154.655604       80.901561      -93.323625
  A          153.691349       79.272915      -92.677306
  A          152.727095       77.644270      -92.030987
  A          151.762841       76.015625      -91.384668
  A          150.798587       74.386979      -90.738349
  A          149.834332       72.758334      -90.092031
  A          148.870078       71.129689      -89.445712
  A          147.905824       69.501043      -88.799393
  A          146.941570       67.872398      -88.153074
  A          145.977316       66.243752      -87.506755
  A          145.013061       64.615107      -86.860436
  A          144.048807       62.986462      -86.214118
  A          143.084553       61.357816      -85.567799
  A          142.120299       59.729171      -84.921480
  A          141.156044       58.100526      -84.275161
  AL         140.191790       56.471880      -83.628842
  AL         139.227536       54.843235      -82.982523
  AL         138.263282       53.214590      -82.336205
  AL         137.299028       51.585944      -81.689886
  AL         136.334773       49.957299      -81.043567
  AL         135.370519       48.328653      -80.397248
  AL         134.406265       46.700008      -79.750929
  AL         133.442011       45.071363      -79.104610
  AL         132.477756       43.442717      -78.458292
  AL         131.513502       41.814072      -77.811973
  AL         130.549248       40.185427      -77.165654
  AL         129.584994       38.556781      -76.519335
  AL         128.620739       36.928136      -75.873016
  AL         127.656485       35.299490      -75.226697
  AL         126.692231       33.670845      -74.580379
  AL         125.727977       32.042200      -73.934060
  AL         124.763723       30.413554      -73.287741
  AL         123.799468       28.784909      -72.641422
  AL         122.835214       27.156264      -71.995103
  AL         121.870960       25.527618      -71.348784
  AL         120.906706       23.898973      -70.702466
  AL         119.942451       22.270327      -70.056147
  AL         118.978197       20.641682      -69.409828
  AL         118.013943       19.013037      -68.763509
  AL         117.049689       17.384391      -68.117190
  AL         116.085434       15.755746      -67.470871
  AL         115.121180       14.127101      -66.824553
  AL         114.156926       12.498455      -66.178234
  AL         113.192672       10.869810      -65.531915
  AL         112.228418        9.241164      -64.885596
  AL         111.264163        7.612519      -64.239277
  AL         110.299909        5.983874      -63.592958
  AL         109.335655        4.355228      -62.946640
  AL         108.371401        2.726583      -62.300321
  AL         107.407146        1.097938      -61.654002
  AL         106.442892       -0.530708      -61.007683
  AL         105.478638       -2.159353      -60.361364
  AL         104.514384       -3.787998      -59.715045
  AL         103.550129       -5.416644      -59.068727
  AL         102.585875       -7.045289      -58.422408
  AL         101.621621       -8.673935      -57.776089
  AL         100.657367      -10.302580      -57.129770
  AL          99.693113      -11.931225      -56.483451
  AL          98.728858      -13.559871      -55.837132
  AL          97.764604      -15.188516      -55.190814
  AL          96.800350      -16.817161      -54.544495
  AL          95.836096      -18.445807      -53.898176
  AL          94.871841      -20.074452      -53.251857
  AL          93.907587      -21.703098      -52.605538
  AL          92.943333      -23.331743      -51.959219
  A         -109.831701        2.834895      -49.026984
  A         -111.716365        2.321778      -49.456811
  A         -113.601029        1.808660      -49.886638
  A         -115.485693        1.295542      -50.316464
  A         -117.370357        0.782424      -50.746291
  A         -119.255022        0.269306      -51.176117
  A         -121.139686       -0.243812      -51.605944
  A         -123.024350       -0.756930      -52.035771
  A         -124.909014       -1.270047      -52.465597
  A         -126.793678       -1.783165      -52.895424
  A         -128.678343       -2.296283      -53.325250
  A         -130.563007       -2.809401      -53.755077
  A         -132.447671       -3.322519      -54.184904
  A         -134.332335       -3.835637      -54.614730
  A         -136.216999       -4.348755      -55.044557
  A         -138.101664       -4.861872      -55.474384
  A         -139.986328       -5.374990      -55.904210
  A         -141.870992       -5.888108      -56.334037
  A         -143.755656       -6.401226      -56.763863
  A         -145.640320       -6.914344      -57.193690
  AL        -147.524985       -7.427462      -57.623517
  AL        -149.409649       -7.940579      -58.053343
  AL        -151.294313       -8.453697      -58.483170
  AL        -153.178977       -8.966815      -58.912996
  AL        -155.063642       -9.479933      -59.342823
  AL        -156.948306       -9.993051      -59.772650
  AL        -158.832970      -10.506169      -60.202476
  AL        -160.717634      -11.019287      -60.632303
  AL        -162.602298      -11.532404      -61.062129
  AL        -164.486963      -12.045522      -61.491956
  AL        -166.371627      -12.558640      -61.921783
  AL        -168.256291      -13.071758      -62.351609
  AL        -170.140955      -13.584876      -62.781436
  AL        -172.025619      -14.097994      -63.211262
  AL        -173.910284      -14.611112      -63.641089
  AL        -175.794948      -15.124229      -64.070916
  AL        -177.679612      -15.637347      -64.500742
  AL        -179.564276      -16.150465      -64.930569
  AL        -181.448940      -16.663583      -65.360395
  AL        -183.333605      -17.176701      -65.790222
  AL        -185.218269      -17.689819      -66.220049
  AL        -187.102933      -18.202936      -66.649875
  AL        -188.987597      -18.716054      -67.079702
  AL        -190.872261      -19.229172      -67.509528
  AL        -192.756926      -19.742290      -67.939355
  AL        -194.641590      -20.255408      -68.369182
  AL        -196.526254      -20.768526      -68.799008
  AL        -198.410918      -21.281644      -69.228835
  AL        -200.295582      -21.794761      -69.658662
  AL        -202.180247      -22.307879      -70.088488
  AL        -204.064911      -22.820997      -70.518315
  AL        -205.949575      -23.334115      -70.948141
  AL        -207.834239      -23.847233      -71.377968
  AL        -209.718903      -24.360351      -71.807795
  AL        -211.603568      -24.873469      -72.237621
  AL        -213.488232      -25.386586      -72.667448
  AL        -215.372896      -25.899704      -73.097274
  AL        -217.257560      -26.412822      -73.527101
  AL        -219.142224      -26.925940      -73.956928
  AL        -221.026889      -27.439058      -74.386754
  AL        -222.911553      -27.952176      -74.816581
  AL        -224.796217      -28.465293      -75.246407
  AL        -226.680881      -28.978411      -75.676234
  AL        -228.565545      -29.491529      -76.106061
  AL        -230.450210      -30.004647      -76.535887
  AL        -232.334874      -30.517765      -76.965714
  AL        -234.219538      -31.030883      -77.395540
  AL        -236.104202      -31.544001      -77.825367
  AL        -237.988866      -32.057118      -78.255194
  AL        -239.873531      -32.570236      -78.685020
  A           73.894816      397.035203      -19.585824
  A           73.973826      395.083576      -19.155814
  A           74.052835      393.131949      -18.725803
  A           74.131845      391.180321      -18.295793
  A           74.210854      389.228694      -17.865782
  A           74.289864      387.277067      -17.435772
  A           74.368873      385.325440      -17.005761
  A           74.447882      383.373813      -16.575750
  A           74.526892      381.422186      -16.145740
  A           74.605901      379.470559      -15.715729
  A           74.684911      377.518932      -15.285719
  A           74.763920      375.567305      -14.855708
  A           74.842930      373.615677      -14.425698
  A           74.921939      371.664050      -13.995687
  A           75.000949      369.712423      -13.565677
  A           75.079958      367.760796      -13.135666
  A           75.158968      365.809169      -12.705655
  A           75.237977      363.857542      -12.275645
  A           75.316987      361.905915      -11.845634
  A           75.395996      359.954288      -11.415624
  AL          75.475006      358.002660      -10.985613
  AL          75.554015      356.051033      -10.555603
  AL          75.633025      354.099406      -10.125592
  AL          75.712034      352.147779       -9.695581
  AL          75.791044      350.196152       -9.265571
  AL          75.870053      348.244525       -8.835560
  AL          75.949063      346.292898       -8.405550
  AL          76.028072      344.341271       -7.975539
  AL          76.107082      342.389643       -7.545529
  AL          76.186091      340.438016       -7.115518
  AL          76.265101      338.486389       -6.685507
  AL          76.344110      336.534762       -6.255497
  AL          76.423120      334.583135       -5.825486
  AL          76.502129      332.631508       -5.395476
  AL          76.581139      330.679881       -4.965465
  AL          76.660148      328.728254       -4.535455
  AL          76.739157      326.776627       -4.105444
  AL          76.818167      324.824999       -3.675434
  AL          76.897176      322.873372       -3.245423
  AL          76.976186      320.921745       -2.815412
  AL          77.055195      318.970118       -2.385402
  AL          77.134205      317.018491       -1.955391
  AL          77.213214      315.066864       -1.525381
  AL          77.292224      313.115237       -1.095370
  AL          77.371233      311.163610       -0.665360
  AL          77.450243      309.211982       -0.235349
  AL          77.529252      307.260355        0.194662
  AL          77.608262      305.308728        0.624672
  AL          77.687271      303.357101        1.054683
  AL          77.766281      301.405474        1.484693
  AL          77.845290      299.453847        1.914704
  AL          77.924300      297.502220        2.344714
  AL          78.003309      295.550593        2.774725
  AL          78.082319      293.598965        3.204736
  AL          78.161328      291.647338        3.634746
  AL          78.240338      289.695711        4.064757
  AL          78.319347      287.744084        4.494767
  AL          78.398357      285.792457        4.924778
  AL          78.477366      283.840830        5.354788
  AL          78.556376      281.889203        5.784799
  AL          78.635385      279.937576        6.214810
  AL          78.714395      277.985949        6.644820
  AL          78.793404      276.034321        7.074831
  AL          78.872414      274.082694        7.504841
  AL          78.951423      272.131067        7.934852
  AL          79.030432      270.179440        8.364862
  AL          79.109442      268.227813        8.794873
  AL          79.188451      266.276186        9.224883
  AL          79.267461      264.324559        9.654894
  AL          79.346470      262.372932       10.084905
  A         -140.745084      302.246966      188.551933
  A         -140.979256      300.338528      189.102412
  A         -141.213427      298.430090      189.652892
  A         -141.447598      296.521652      190.203371
  A         -141.681769      294.613214      190.753851
  A         -141.915940      292.704776      191.304331
  A         -142.150112      290.796338      191.854810
  A         -142.384283      288.887900      192.405290
  A         -142.618454      286.979461      192.955769
  A         -142.852625      285.071023      193.506249
  A         -143.086796      283.162585      194.056729
  A         -143.320968      281.254147      194.607208
  A         -143.555139      279.345709      195.157688
  A         -143.789310      277.437271      195.708168
  A         -144.023481      275.528833      196.258647
  A         -144.257652      273.620395      196.809127
  A         -144.491824      271.711957      197.359606
  A         -144.725995      269.803518      197.910086
  A         -144.960166      267.895080      198.460566
  A         -145.194337      265.986642      199.011045
  AL        -145.428508      264.078204      199.561525
  AL        -145.662680      262.169766      200.112004
  AL        -145.896851      260.261328      200.662484
  AL        -146.131022      258.352890      201.212964
  AL        -146.365193      256.444452      201.763443
  AL        -146.599364      254.536013      202.313923
  AL        -146.833536      252.627575      202.864403
  AL        -147.067707      250.719137      203.414882
  AL        -147.301878      248.810699      203.965362
  AL        -147.536049      246.902261      204.515841
  AL        -147.770220      244.993823      205.066321
  AL        -148.004392      243.085385      205.616801
  AL        -148.238563      241.176947      206.167280
  AL        -148.472734      239.268509      206.717760
  AL        -148.706905      237.360070      207.268239
  AL        -148.941076      235.451632      207.818719
  AL        -149.175248      233.543194      208.369199
  AL        -149.409419      231.634756      208.919678
  AL        -149.643590      229.726318      209.470158
  AL        -149.877761      227.817880      210.020637
  AL        -150.111932      225.909442      210.571117
  AL        -150.346104      224.001004      211.121597
  AL        -150.580275      222.092565      211.672076
  AL        -150.814446      220.184127      212.222556
  AL        -151.048617      218.275689      212.773036
  AL        -151.282788      216.367251      213.323515
  AL        -151.516960      214.458813      213.873995
  AL        -151.751131      212.550375      214.424474
  AL        -151.985302      210.641937      214.974954
  AL        -152.219473      208.733499      215.525434
  AL        -152.453644      206.825061      216.075913
  AL        -152.687816      204.916622      216.626393
  AL        -152.921987      203.008184      217.176872
  AL        -153.156158      201.099746      217.727352
  AL        -153.390329      199.191308      218.277832
  AL        -153.624500      197.282870      218.828311
  AL        -153.858672      195.374432      219.378791
  AL        -154.092843      193.465994      219.929271
  AL        -154.327014      191.557556      220.479750
  AL        -154.561185      189.649117      221.030230
  AL        -154.795356      187.740679      221.580709
  AL        -155.029528      185.832241      222.131189
  AL        -155.263699      183.923803      222.681669
  AL        -155.497870      182.015365      223.232148
  AL        -155.732041      180.106927      223.782628
  AL        -155.966212      178.198489      224.333107
  AL        -156.200384      176.290051      224.883587
  AL        -156.434555      174.381613      225.434067
  AL        -156.668726      172.473174      225.984546
  AL        -156.902897      170.564736      226.535026
  A         -207.513009     -266.746142      286.728297
  A         -206.074508     -266.253194      288.027418
  A         -204.636006     -265.760246      289.326539
  A         -203.197504     -265.267297      290.625659
  A         -201.759002     -264.774349      291.924780
  A         -200.320500     -264.281401      293.223901
  A         -198.881998     -263.788453      294.523021
  A         -197.443496     -263.295505      295.822142
  A         -196.004995     -262.802557      297.121263
  A         -194.566493     -262.309609      298.420383
  A         -193.127991     -261.816661      299.719504
  A         -191.689489     -261.323713      301.018625
  A         -190.250987     -260.830765      302.317745
  A         -188.812485     -260.337816      303.616866
  A         -187.373983     -259.844868      304.915987
  A         -185.935482     -259.351920      306.215107
  A         -184.496980     -258.858972      307.514228
  A         -183.058478     -258.366024      308.813349
  A         -181.619976     -257.873076      310.112470
  A         -180.181474     -257.380128      311.411590
  AL        -178.742972     -256.887180      312.710711
  AL        -177.304470     -256.394232      314.009832
  AL        -175.865969     -255.901284      315.308952
  AL        -174.427467     -255.408335      316.608073
  AL        -172.988965     -254.915387      317.907194
  AL        -171.550463     -254.422439      319.206314
  AL        -170.111961     -253.929491      320.505435
  AL        -168.673459     -253.436543      321.804556
  AL        -167.234957     -252.943595      323.103676
  AL        -165.796455     -252.450647      324.402797
  AL        -164.357954     -251.957699      325.701918
  AL        -162.919452     -251.464751      327.001039
  AL        -161.480950     -250.971803      328.300159
  AL        -160.042448     -250.478854      329.599280
  AL        -158.603946     -249.985906      330.898401
  AL        -157.165444     -249.492958      332.197521
  AL        -155.726942     -249.000010      333.496642
  AL        -154.288441     -248.507062      334.795763
  AL        -152.849939     -248.014114      336.094883
  AL        -151.411437     -247.521166      337.394004
  AL        -149.972935     -247.028218      338.693125
  AL        -148.534433     -246.535270      339.992245
  AL        -147.095931     -246.042322      341.291366
  AL        -145.657429     -245.549373      342.590487
  AL        -144.218928     -245.056425      343.889607
  AL        -142.780426     -244.563477      345.188728
  AL        -141.341924     -244.070529      346.487849
  AL        -139.903422     -243.577581      347.786970
  AL        -138.464920     -243.084633      349.086090
  AL        -137.026418     -242.591685      350.385211
  AL        -135.587916     -242.098737      351.684332
  AL        -134.149415     -241.605789      352.983452
  AL        -132.710913     -241.112841      354.282573
  AL        -131.272411     -240.619892      355.581694
  AL        -129.833909     -240.126944      356.880814
  AL        -128.395407     -239.633996      358.179935
  AL        -126.956905     -239.141048      359.479056
  AL        -125.518403     -238.648100      360.778176
  AL        -124.079902     -238.155152      362.077297
  AL        -122.641400     -237.662204      363.376418
  AL        -121.202898     -237.169256      364.675538
  AL        -119.764396     -236.676308      365.974659
  AL        -118.325894     -236.183359      367.273780
  AL        -116.887392     -235.690411      368.572901
  AL        -115.448890     -235.197463      369.872021
  AL        -114.010388     -234.704515      371.171142
  AL        -112.571887     -234.211567      372.470263
  AL        -111.133385     -233.718619      373.769383
  AL        -109.694883     -233.225671      375.068504
  AL        -108.256381     -232.732723      376.367625
  A           37.447713     -342.888759      242.928410
  A           39.175098     -341.914381      243.186731
  A           40.902482     -340.940003      243.445052
  A           42.629867     -339.965625      243.703372
  A           44.357252     -338.991247      243.961693
  A           46.084637     -338.016869      244.220014
  A           47.812021     -337.042491      244.478335
  A           49.539406     -336.068113      244.736656
  A           51.266791     -335.093735      244.994977
  A           52.994175     -334.119357      245.253298
  A           54.721560     -333.144979      245.511619
  A           56.448945     -332.170601      245.769940
  A           58.176329     -331.196223      246.028261
  A           59.903714     -330.221845      246.286582
  A           61.631099     -329.247467      246.544903
  A           63.358483     -328.273089      246.803224
  A           65.085868     -327.298711      247.061545
  A           66.813253     -326.324333      247.319866
  A           68.540637     -325.349955      247.578187
  A           70.268022     -324.375577      247.836508
  AL          71.995407     -323.401199      248.094829
  AL          73.722792     -322.426821      248.353150
  AL          75.450176     -321.452443      248.611471
  AL          77.177561     -320.478065      248.869792
  AL          78.904946     -319.503687      249.128113
  AL          80.632330     -318.529309      249.386434
  AL          82.359715     -317.554931      249.644755
  AL          84.087100     -316.580553      249.903075
  AL          85.814484     -315.606175      250.161396
  AL          87.541869     -314.631797      250.419717
  AL          89.269254     -313.657420      250.678038
  AL          90.996638     -312.683042      250.936359
  AL          92.724023     -311.708664      251.194680
  AL          94.451408     -310.734286      251.453001
  AL          96.178792     -309.759908      251.711322
  AL          97.906177     -308.785530      251.969643
  AL          99.633562     -307.811152      252.227964
  AL         101.360946     -306.836774      252.486285
  AL         103.088331     -305.862396      252.744606
  AL         104.815716     -304.888018      253.002927
  AL         106.543101     -303.913640      253.261248
  AL         108.270485     -302.939262      253.519569
  AL         109.997870     -301.964884      253.777890
  AL         111.725255     -300.990506      254.036211
  AL         113.452639     -300.016128      254.294532
  AL         115.180024     -299.041750      254.552853
  AL         116.907409     -298.067372      254.811174
  AL         118.634793     -297.092994      255.069495
  AL         120.362178     -296.118616      255.327816
  AL         122.089563     -295.144238      255.586137
  AL         123.816947     -294.169860      255.844458
  AL         125.544332     -293.195482      256.102778
  AL         127.271717     -292.221104      256.361099
  AL         128.999101     -291.246726      256.619420
  AL         130.726486     -290.272348      256.877741
  AL         132.453871     -289.297970      257.136062
  AL         134.181256     -288.323592      257.394383
  AL         135.908640     -287.349214      257.652704
  AL         137.636025     -286.374836      257.911025
  AL         139.363410     -285.400458      258.169346
  AL         141.090794     -284.426080      258.427667
  AL         142.818179     -283.451702      258.685988
  AL         144.545564     -282.477324      258.944309
  AL         146.272948     -281.502946      259.202630
  AL         148.000333     -280.528569      259.460951
  AL         149.727718     -279.554191      259.719272
  AL         151.455102     -278.579813      259.977593
  AL         153.182487     -277.605435      260.235914
  AL         154.909872     -276.631057      260.494235
  AL         156.637256     -275.656679      260.752556
  A         -258.553209      -30.212455     -198.982915
  A         -259.672849      -28.838922     -199.910177
  A         -260.792489      -27.465389     -200.837438
  A         -261.912129      -26.091856     -201.764700
  A         -263.031768      -24.718323     -202.691961
  A         -264.151408      -23.344790     -203.619223
  A         -265.271048      -21.971257     -204.546484
  A         -266.390688      -20.597724     -205.473746
  A         -267.510328      -19.224191     -206.401007
  A         -268.629968      -17.850658     -207.328269
  A         -269.749607      -16.477126     -208.255531
  A         -270.869247      -15.103593     -209.182792
  A         -271.988887      -13.730060     -210.110054
  A         -273.108527      -12.356527     -211.037315
  A         -274.228167      -10.982994     -211.964577
  A         -275.347806       -9.609461     -212.891838
  A         -276.467446       -8.235928     -213.819100
  A         -277.587086       -6.862395     -214.746361
  A         -278.706726       -5.488862     -215.673623
  A         -279.826366       -4.115329     -216.600885
  AL        -280.946006       -2.741796     -217.528146
  AL        -282.065645       -1.368263     -218.455408
  AL        -283.185285        0.005269     -219.382669
  AL        -284.304925        1.378802     -220.309931
  AL        -285.424565        2.752335     -221.237192
  AL        -286.544205        4.125868     -222.164454
  AL        -287.663845        5.499401     -223.091716
  AL        -288.783484        6.872934     -224.018977
  AL        -289.903124        8.246467     -224.946239
  AL        -291.022764        9.620000     -225.873500
  AL        -292.142404       10.993533     -226.800762
  AL        -293.262044       12.367066     -227.728023
  AL        -294.381683       13.740599     -228.655285
  AL        -295.501323       15.114132     -229.582546
  AL        -296.620963       16.487664     -230.509808
  AL        -297.740603       17.861197     -231.437070
  AL        -298.860243       19.234730     -232.364331
  AL        -299.979883       20.608263     -233.291593
  AL        -301.099522       21.981796     -234.218854
  AL        -302.219162       23.355329     -235.146116
  AL        -303.338802       24.728862     -236.073377
  AL        -304.458442       26.102395     -237.000639
  AL        -305.578082       27.475928     -237.927901
  AL        -306.697721       28.849461     -238.855162
  AL        -307.817361       30.222994     -239.782424
  AL        -308.937001       31.596527     -240.709685
  AL        -310.056641       32.970059     -241.636947
  AL        -311.176281       34.343592     -242.564208
  AL        -312.295921       35.717125     -243.491470
  AL        -313.415560       37.090658     -244.418731
  AL        -314.535200       38.464191     -245.345993
  AL        -315.654840       39.837724     -246.273255
  AL        -316.774480       41.211257     -247.200516
  AL        -317.894120       42.584790     -248.127778
  AL        -319.013759       43.958323     -249.055039
  AL        -320.133399       45.331856     -249.982301
  AL        -321.253039       46.705389     -250.909562
  AL        -322.372679       48.078921     -251.836824
  AL        -323.492319       49.452454     -252.764085
  AL        -324.611959       50.825987     -253.691347
  AL        -325.731598       52.199520     -254.618609
  AL        -326.851238       53.573053     -255.545870
  AL        -327.970878       54.946586     -256.473132
  AL        -329.090518       56.320119     -257.400393
  AL        -330.210158       57.693652     -258.327655
  AL        -331.329798       59.067185     -259.254916
  AL        -332.449437       60.440718     -260.182178
  AL        -333.569077       61.814251     -261.109440
  AL        -334.688717       63.187784     -262.036701
  AL        -335.808357       64.561316     -262.963963
  A          315.825328      104.314507       34.657733
  A          317.039088      104.982457       33.215294
  A          318.252847      105.650408       31.772855
  A          319.466607      106.318358       30.330416
  A          320.680366      106.986309       28.887977
  A          321.894126      107.654259       27.445538
  A          323.107886      108.322210       26.003100
  A          324.321645      108.990160       24.560661
  A          325.535405      109.658111       23.118222
  A          326.749164      110.326061       21.675783
  A          327.962924      110.994012       20.233344
  A          329.176684      111.661962       18.790906
  A          330.390443      112.329913       17.348467
  A          331.604203      112.997863       15.906028
  A          332.817962      113.665814       14.463589
  A          334.031722      114.333764       13.021150
  A          335.245482      115.001715       11.578711
  A          336.459241      115.669665       10.136273
  A          337.673001      116.337616        8.693834
  A          338.886760      117.005566        7.251395
  AL         340.100520      117.673517        5.808956
  AL         341.314280      118.341467        4.366517
  AL         342.528039      119.009418        2.924078
  AL         343.741799      119.677368        1.481640
  AL         344.955558      120.345319        0.039201
  AL         346.169318      121.013269       -1.403238
  AL         347.383078      121.681220       -2.845677
  AL         348.596837      122.349170       -4.288116
  AL         349.810597      123.017121       -5.730555
  AL         351.024356      123.685071       -7.172993
  AL         352.238116      124.353022       -8.615432
  AL         353.451876      125.020972      -10.057871
  AL         354.665635      125.688923      -11.500310
  AL         355.879395      126.356873      -12.942749
  AL         357.093154      127.024824      -14.385188
  AL         358.306914      127.692774      -15.827626
  AL         359.520674      128.360725      -17.270065
  AL         360.734433      129.028675      -18.712504
  AL         361.948193      129.696626      -20.154943
  AL         363.161952      130.364576      -21.597382
  AL         364.375712      131.032527      -23.039821
  AL         365.589472      131.700477      -24.482259
  AL         366.803231      132.368428      -25.924698
  AL         368.016991      133.036378      -27.367137
  AL         369.230750      133.704328      -28.809576
  AL         370.444510      134.372279      -30.252015
  AL         371.658270      135.040229      -31.694453
  AL         372.872029      135.708180      -33.136892
  AL         374.085789      136.376130      -34.579331
  AL         375.299548      137.044081      -36.021770
  AL         376.513308      137.712031      -37.464209
  AL         377.727068      138.379982      -38.906648
  AL         378.940827      139.047932      -40.349086
  AL         380.154587      139.715883      -41.791525
  AL         381.368346      140.383833      -43.233964
  AL         382.582106      141.051784      -44.676403
  AL         383.795866      141.719734      -46.118842
  AL         385.009625      142.387685      -47.561281
  AL         386.223385      143.055635      -49.003719
  AL         387.437144      143.723586      -50.446158
  AL         388.650904      144.391536      -51.888597
  AL         389.864664      145.059487      -53.331036
  AL         391.078423      145.727437      -54.773475
  AL         392.292183      146.395388      -56.215914
  AL         393.505942      147.063338      -57.658352
  AL         394.719702      147.731289      -59.100791
  AL         395.933462      148.399239      -60.543230
  AL         397.147221      149.067190      -61.985669
  AL         398.360981      149.735140      -63.428108
  AL         399.574740      150.403091      -64.870547
  A          396.552271      167.160754     -152.510574
  A          395.090831      167.482064     -153.837583
  A          393.629391      167.803373     -155.164592
  A          392.167951      168.124683     -156.491602
  A          390.706511      168.445992     -157.818611
  A          389.245071      168.767302     -159.145620
  A          387.783631      169.088611     -160.472629
  A          386.322191      169.409921     -161.799638
  A          384.860751      169.731230     -163.126648
  A          383.399311      170.052540     -164.453657
  A          381.937871      170.373849     -165.780666
  A          380.476431      170.695159     -167.107675
  A          379.014991      171.016468     -168.434684
  A          377.553551      171.337778     -169.761694
  A          376.092111      171.659087     -171.088703
  A          374.630671      171.980397     -172.415712
  A          373.169231      172.301707     -173.742721
  A          371.707791      172.623016     -175.069730
  A          370.246351      172.944326     -176.396740
  A          368.784911      173.265635     -177.723749
  AL         367.323471      173.586945     -179.050758
  AL         365.862031      173.908254     -180.377767
  AL         364.400592      174.229564     -181.704776
  AL         362.939152      174.550873     -183.031786
  AL         361.477712      174.872183     -184.358795
  AL         360.016272      175.193492     -185.685804
  AL         358.554832      175.514802     -187.012813
  AL         357.093392      175.836111     -188.339822
  AL         355.631952      176.157421     -189.666832
  AL         354.170512      176.478731     -190.993841
  AL         352.709072      176.800040     -192.320850
  AL         351.247632      177.121350     -193.647859
  AL         349.786192      177.442659     -194.974868
  AL         348.324752      177.763969     -196.301878
  AL         346.863312      178.085278     -197.628887
  AL         345.401872      178.406588     -198.955896
  AL         343.940432      178.727897     -200.282905
  AL         342.478992      179.049207     -201.609914
  AL         341.017552      179.370516     -202.936924
  AL         339.556112      179.691826     -204.263933
  AL         338.094672      180.013135     -205.590942
  AL         336.633232      180.334445     -206.917951
  AL         335.171792      180.655754     -208.244960
  AL         333.710352      180.977064     -209.571970
  AL         332.248912      181.298374     -210.898979
  AL         330.787472      181.619683     -212.225988
  AL         329.326032      181.940993     -213.552997
  AL         327.864593      182.262302     -214.880006
  AL         326.403153      182.583612     -216.207016
  AL         324.941713      182.904921     -217.534025
  AL         323.480273      183.226231     -218.861034
  AL         322.018833      183.547540     -220.188043
  AL         320.557393      183.868850     -221.515052
  AL         319.095953      184.190159     -222.842062
  AL         317.634513      184.511469     -224.169071
  AL         316.173073      184.832778     -225.496080
  AL         314.711633      185.154088     -226.823089
  AL         313.250193      185.475397     -228.150098
  AL         311.788753      185.796707     -229.477108
  AL         310.327313      186.118017     -230.804117
  AL         308.865873      186.439326     -232.131126
  AL         307.404433      186.760636     -233.458135
  AL         305.942993      187.081945     -234.785144
  AL         304.481553      187.403255     -236.112154
  AL         303.020113      187.724564     -237.439163
  AL         301.558673      188.045874     -238.766172
  AL         300.097233      188.367183     -240.093181
  AL         298.635793      188.688493     -241.420190
  AL         297.174353      189.009802     -242.747200
  AL         295.712913      189.331112     -244.074209
  A         -130.774473       58.516949      305.653976
  A         -130.090341       58.525914      303.774645
  A         -129.406210       58.534880      301.895314
  A         -128.722078       58.543845      300.015984
  A         -128.037947       58.552810      298.136653
  A         -127.353815       58.561775      296.257322
  A         -126.669684       58.570741      294.377992
  A         -125.985552       58.579706      292.498661
  A         -125.301421       58.588671      290.619330
  A         -124.617289       58.597636      288.740000
  A         -123.933158       58.606602      286.860669
  A         -123.249026       58.615567      284.981338
  A         -122.564895       58.624532      283.102008
  A         -121.880763       58.633498      281.222677
  A         -121.196631       58.642463      279.343346
  A         -120.512500       58.651428      277.464016
  A         -119.828368       58.660393      275.584685
  A         -119.144237       58.669359      273.705355
  A         -118.460105       58.678324      271.826024
  A         -117.775974       58.687289      269.946693
  AL        -117.091842       58.696254      268.067363
  AL        -116.407711       58.705220      266.188032
  AL        -115.723579       58.714185      264.308701
  AL        -115.039448       58.723150      262.429371
  AL        -114.355316       58.732115      260.550040
  AL        -113.671185       58.741081      258.670709
  AL        -112.987053       58.750046      256.791379
  AL        -112.302922       58.759011      254.912048
  AL        -111.618790       58.767976      253.032717
  AL        -110.934659       58.776942      251.153387
  AL        -110.250527       58.785907      249.274056
  AL        -109.566396       58.794872      247.394725
  AL        -108.882264       58.803838      245.515395
  AL        -108.198133       58.812803      243.636064
  AL        -107.514001       58.821768      241.756734
  AL        -106.829870       58.830733      239.877403
  AL        -106.145738       58.839699      237.998072
  AL        -105.461606       58.848664      236.118742
  AL        -104.777475       58.857629      234.239411
  AL        -104.093343       58.866594      232.360080
  AL        -103.409212       58.875560      230.480750
  AL        -102.725080       58.884525      228.601419
  AL        -102.040949       58.893490      226.722088
  AL        -101.356817       58.902455      224.842758
  AL        -100.672686       58.911421      222.963427
  AL         -99.988554       58.920386      221.084096
  AL         -99.304423       58.929351      219.204766
  AL         -98.620291       58.938317      217.325435
  AL         -97.936160       58.947282      215.446104
  AL         -97.252028       58.956247      213.566774
  AL         -96.567897       58.965212      211.687443
  AL         -95.883765       58.974178      209.808112
  AL         -95.199634       58.983143      207.928782
  AL         -94.515502       58.992108      206.049451
  AL         -93.831371       59.001073      204.170121
  AL         -93.147239       59.010039      202.290790
  AL         -92.463108       59.019004      200.411459
  AL         -91.778976       59.027969      198.532129
  AL         -91.094844       59.036934      196.652798
  AL         -90.410713       59.045900      194.773467
  AL         -89.726581       59.054865      192.894137
  AL         -89.042450       59.063830      191.014806
  AL         -88.358318       59.072796      189.135475
  AL         -87.674187       59.081761      187.256145
  AL         -86.990055       59.090726      185.376814
  AL         -86.305924       59.099691      183.497483
  AL         -85.621792       59.108657      181.618153
  AL         -84.937661       59.117622      179.738822
  AL         -84.253529       59.126587      177.859491
  AL         -83.569398       59.135552      175.980161
  A         -150.428658      -82.435247      -56.089314
  A         -150.976945      -80.590820      -56.634722
  A         -151.525232      -78.746393      -57.180130
  A         -152.073519      -76.901965      -57.725539
  A         -152.621806      -75.057538      -58.270947
  A         -153.170093      -73.213111      -58.816355
  A         -153.718380      -71.368684      -59.361763
  A         -154.266667      -69.524257      -59.907171
  A         -154.814953      -67.679830      -60.452579
  A         -155.363240      -65.835403      -60.997988
  A         -155.911527      -63.990975      -61.543396
  A         -156.459814      -62.146548      -62.088804
  A         -157.008101      -60.302121      -62.634212
  A         -157.556388      -58.457694      -63.179620
  A         -158.104675      -56.613267      -63.725028
  A         -158.652962      -54.768840      -64.270436
  A         -159.201248      -52.924413      -64.815845
  A         -159.749535      -51.079985      -65.361253
  A         -160.297822      -49.235558      -65.906661
  A         -160.846109      -47.391131      -66.452069
  AL        -161.394396      -45.546704      -66.997477
  AL        -161.942683      -43.702277      -67.542885
  AL        -162.490970      -41.857850      -68.088293
  AL        -163.039257      -40.013423      -68.633702
  AL        -163.587543      -38.168996      -69.179110
  AL        -164.135830      -36.324568      -69.724518
  AL        -164.684117      -34.480141      -70.269926
  AL        -165.232404      -32.635714      -70.815334
  AL        -165.780691      -30.791287      -71.360742
  AL        -166.328978      -28.946860      -71.906150
  AL        -166.877265      -27.102433      -72.451559
  AL        -167.425552      -25.258006      -72.996967
  AL        -167.973838      -23.413578      -73.542375
  AL        -168.522125      -21.569151      -74.087783
  AL        -169.070412      -19.724724      -74.633191
  AL        -169.618699      -17.880297      -75.178599
  AL        -170.166986      -16.035870      -75.724007
  AL        -170.715273      -14.191443      -76.269416
  AL        -171.263560      -12.347016      -76.814824
  AL        -171.811846      -10.502588      -77.360232
  AL        -172.360133       -8.658161      -77.905640
  AL        -172.908420       -6.813734      -78.451048
  AL        -173.456707       -4.969307      -78.996456
  AL        -174.004994       -3.124880      -79.541865
  AL        -174.553281       -1.280453      -80.087273
  AL        -175.101568        0.563974      -80.632681
  AL        -175.649855        2.408401      -81.178089
  AL        -176.198141        4.252829      -81.723497
  AL        -176.746428        6.097256      -82.268905
  AL        -177.294715        7.941683      -82.814313
  AL        -177.843002        9.786110      -83.359722
  AL        -178.391289       11.630537      -83.905130
  AL        -178.939576       13.474964      -84.450538
  AL        -179.487863       15.319391      -84.995946
  AL        -180.036150       17.163819      -85.541354
  AL        -180.584436       19.008246      -86.086762
  AL        -181.132723       20.852673      -86.632170
  AL        -181.681010       22.697100      -87.177579
  AL        -182.229297       24.541527      -87.722987
  AL        -182.777584       26.385954      -88.268395
  AL        -183.325871       28.230381      -88.813803
  AL        -183.874158       30.074808      -89.359211
  AL        -184.422445       31.919236      -89.904619
  AL        -184.970731       33.763663      -90.450027
  AL        -185.519018       35.608090      -90.995436
  AL        -186.067305       37.452517      -91.540844
  AL        -186.615592       39.296944      -92.086252
  AL        -187.163879       41.141371      -92.631660
  AL        -187.712166       42.985798      -93.177068
  AL        -188.260453       44.830226      -93.722476
  A          -96.755336     -288.455233      184.344967
  A          -98.212886     -289.731948      183.849438
  A          -99.670436     -291.008662      183.353909
  A         -101.127986     -292.285376      182.858380
  A         -102.585536     -293.562090      182.362851
  A         -104.043086     -294.838804      181.867322
  A         -105.500636     -296.115519      181.371793
  A         -106.958186     -297.392233      180.876264
  A         -108.415736     -298.668947      180.380735
  A         -109.873286     -299.945661      179.885206
  A         -111.330835     -301.222375      179.389677
  A         -112.788385     -302.499090      178.894148
  A         -114.245935     -303.775804      178.398619
  A         -115.703485     -305.052518      177.903090
  A         -117.161035     -306.329232      177.407561
  A         -118.618585     -307.605946      176.912032
  A         -120.076135     -308.882660      176.416504
  A         -121.533685     -310.159375      175.920975
  A         -122.991235     -311.436089      175.425446
  A         -124.448785     -312.712803      174.929917
  AL        -125.906335     -313.989517      174.434388
  AL        -127.363885     -315.266231      173.938859
  AL        -128.821435     -316.542946      173.443330
  AL        -130.278985     -317.819660      172.947801
  AL        -131.736535     -319.096374      172.452272
  AL        -133.194085     -320.373088      171.956743
  AL        -134.651635     -321.649802      171.461214
  AL        -136.109185     -322.926517      170.965685
  AL        -137.566735     -324.203231      170.470156
  AL        -139.024285     -325.479945      169.974627
  AL        -140.481835     -326.756659      169.479098
  AL        -141.939385     -328.033373      168.983569
  AL        -143.396935     -329.310088      168.488040
  AL        -144.854485     -330.586802      167.992511
  AL        -146.312035     -331.863516      167.496983
  AL        -147.769585     -333.140230      167.001454
  AL        -149.227135     -334.416944      166.505925
  AL        -150.684685     -335.693659      166.010396
  AL        -152.142235     -336.970373      165.514867
  AL        -153.599785     -338.247087      165.019338
  AL        -155.057335     -339.523801      164.523809
  AL        -156.514885     -340.800515      164.028280
  AL        -157.972435     -342.077230      163.532751
  AL        -159.429985     -343.353944      163.037222
  AL        -160.887535     -344.630658      162.541693
  AL        -162.345085     -345.907372      162.046164
  AL        -163.802635     -347.184086      161.550635
  AL        -165.260185     -348.460800      161.055106
  AL        -166.717735     -349.737515      160.559577
  AL        -168.175285     -351.014229      160.064048
  AL        -169.632835     -352.290943      159.568519
  AL        -171.090385     -353.567657      159.072991
  AL        -172.547935     -354.844371      158.577462
  AL        -174.005485     -356.121086      158.081933
  AL        -175.463034     -357.397800      157.586404
  AL        -176.920584     -358.674514      157.090875
  AL        -178.378134     -359.951228      156.595346
  AL        -179.835684     -361.227942      156.099817
  AL        -181.293234     -362.504657      155.604288
  AL        -182.750784     -363.781371      155.108759
  AL        -184.208334     -365.058085      154.613230
  AL        -185.665884     -366.334799      154.117701
  AL        -187.123434     -367.611513      153.622172
  AL        -188.580984     -368.888228      153.126643
  AL        -190.038534     -370.164942      152.631114
  AL        -191.496084     -371.441656      152.135585
  AL        -192.953634     -372.718370      151.640056
  AL        -194.411184     -373.995084      151.144527
  AL        -195.868734     -375.271799      150.648999
  AL        -197.326284     -376.548513      150.153470
  A           -4.893283     -271.651383      -37.451555
  A           -3.936443     -270.599965      -38.858316
  A           -2.979602     -269.548547      -40.265077
  A           -2.022761     -268.497129      -41.671838
  A           -1.065921     -267.445712      -43.078599
  A           -0.109080     -266.394294      -44.485360
  A            0.847760     -265.342876      -45.892122
  A            1.804601     -264.291459      -47.298883
  A            2.761441     -263.240041      -48.705644
  A            3.718282     -262.188623      -50.112405
  A            4.675123     -261.137205      -51.519166
  A            5.631963     -260.085788      -52.925927
  A            6.588804     -259.034370      -54.332688
  A            7.545644     -257.982952      -55.739450
  A            8.502485     -256.931535      -57.146211
  A            9.459326     -255.880117      -58.552972
  A           10.416166     -254.828699      -59.959733
  A           11.373007     -253.777281      -61.366494
  A           12.329847     -252.725864      -62.773255
  A           13.286688     -251.674446      -64.180016
  AL          14.243528     -250.623028      -65.586777
  AL          15.200369     -249.571611      -66.993539
  AL          16.157210     -248.520193      -68.400300
  AL          17.114050     -247.468775      -69.807061
  AL          18.070891     -246.417357      -71.213822
  AL          19.027731     -245.365940      -72.620583
  AL          19.984572     -244.314522      -74.027344
  AL          20.941413     -243.263104      -75.434105
  AL          21.898253     -242.211687      -76.840866
  AL          22.855094     -241.160269      -78.247628
  AL          23.811934     -240.108851      -79.654389
  AL          24.768775     -239.057433      -81.061150
  AL          25.725615     -238.006016      -82.467911
  AL          26.682456     -236.954598      -83.874672
  AL          27.639297     -235.903180      -85.281433
  AL          28.596137     -234.851763      -86.688194
  AL          29.552978     -233.800345      -88.094956
  AL          30.509818     -232.748927      -89.501717
  AL          31.466659     -231.697509      -90.908478
  AL          32.423500     -230.646092      -92.315239
  AL          33.380340     -229.594674      -93.722000
  AL          34.337181     -228.543256      -95.128761
  AL          35.294021     -227.491838      -96.535522
  AL          36.250862     -226.440421      -97.942283
  AL          37.207702     -225.389003      -99.349045
  AL          38.164543     -224.337585     -100.755806
  AL          39.121384     -223.286168     -102.162567
  AL          40.078224     -222.234750     -103.569328
  AL          41.035065     -221.183332     -104.976089
  AL          41.991905     -220.131914     -106.382850
  AL          42.948746     -219.080497     -107.789611
  AL          43.905587     -218.029079     -109.196373
  AL          44.862427     -216.977661     -110.603134
  AL          45.819268     -215.926244     -112.009895
  AL          46.776108     -214.874826     -113.416656
  AL          47.732949     -213.823408     -114.823417
  AL          48.689789     -212.771990     -116.230178
  AL          49.646630     -211.720573     -117.636939
  AL          50.603471     -210.669155     -119.043700
  AL          51.560311     -209.617737     -120.450462
  AL          52.517152     -208.566320     -121.857223
  AL          53.473992     -207.514902     -123.263984
  AL          54.430833     -206.463484     -124.670745
  AL          55.387673     -205.412066     -126.077506
  AL          56.344514     -204.360649     -127.484267
  AL          57.301355     -203.309231     -128.891028
  AL          58.258195     -202.257813     -130.297790
  AL          59.215036     -201.206396     -131.704551
  AL          60.171876     -200.154978     -133.111312
  AL          61.128717     -199.103560     -134.518073
  A           44.343086     -198.496616      397.512858
  A           45.020350     -199.166232      395.754186
  A           45.697614     -199.835848      393.995514
  A           46.374878     -200.505463      392.236842
  A           47.052143     -201.175079      390.478170
  A           47.729407     -201.844695      388.719497
  A           48.406671     -202.514311      386.960825
  A           49.083935     -203.183926      385.202153
  A           49.761200     -203.853542      383.443481
  A           50.438464     -204.523158      381.684809
  A           51.115728     -205.192774      379.926136
  A           51.792992     -205.862390      378.167464
  A           52.470257     -206.532005      376.408792
  A           53.147521     -207.201621      374.650120
  A           53.824785     -207.871237      372.891448
  A           54.502049     -208.540853      371.132775
  A           55.179314     -209.210468      369.374103
  A           55.856578     -209.880084      367.615431
  A           56.533842     -210.549700      365.856759
  A           57.211107     -211.219316      364.098087
  AL          57.888371     -211.888931      362.339415
  AL          58.565635     -212.558547      360.580742
  AL          59.242899     -213.228163      358.822070
  AL          59.920164     -213.897779      357.063398
  AL          60.597428     -214.567395      355.304726
  AL          61.274692     -215.237010      353.546054
  AL          61.951956     -215.906626      351.787381
  AL          62.629221     -216.576242      350.028709
  AL          63.306485     -217.245858      348.270037
  AL          63.983749     -217.915473      346.511365
  AL          64.661013     -218.585089      344.752693
  AL          65.338278     -219.254705      342.994021
  AL          66.015542     -219.924321      341.235348
  AL          66.692806     -220.593936      339.476676
  AL          67.370070     -221.263552      337.718004
  AL          68.047335     -221.933168      335.959332
  AL          68.724599     -222.602784      334.200660
  AL          69.401863     -223.272399      332.441987
  AL          70.079127     -223.942015      330.683315
  AL          70.756392     -224.611631      328.924643
  AL          71.433656     -225.281247      327.165971
  AL          72.110920     -225.950863      325.407299
  AL          72.788184     -226.620478      323.648627
  AL          73.465449     -227.290094      321.889954
  AL          74.142713     -227.959710      320.131282
  AL          74.819977     -228.629326      318.372610
  AL          75.497241     -229.298941      316.613938
  AL          76.174506     -229.968557      314.855266
  AL          76.851770     -230.638173      313.096593
  AL          77.529034     -231.307789      311.337921
  AL          78.206298     -231.977404      309.579249
  AL          78.883563     -232.647020      307.820577
  AL          79.560827     -233.316636      306.061905
  AL          80.238091     -233.986252      304.303233
  AL          80.915356     -234.655868      302.544560
  AL          81.592620     -235.325483      300.785888
  AL          82.269884     -235.995099      299.027216
  AL          82.947148     -236.664715      297.268544
  AL          83.624413     -237.334331      295.509872
  AL          84.301677     -238.003946      293.751199
  AL          84.978941     -238.673562      291.992527
  AL          85.656205     -239.343178      290.233855
  AL          86.333470     -240.012794      288.475183
  AL          87.010734     -240.682409      286.716511
  AL          87.687998     -241.352025      284.957838
  AL          88.365262     -242.021641      283.199166
  AL          89.042527     -242.691257      281.440494
  AL          89.719791     -243.360872      279.681822
  AL          90.397055     -244.030488      277.923150
  AL          91.074319     -244.700104      276.164478
  A           69.528593      288.204005      146.183142
  A           67.883673      287.957770      147.293821
  A           66.238753      287.711535      148.404499
  A           64.593834      287.465300      149.515178
  A           62.948914      287.219065      150.625857
  A           61.303994      286.972830      151.736536
  A           59.659074      286.726595      152.847215
  A           58.014155      286.480360      153.957893
  A           56.369235      286.234125      155.068572
  A           54.724315      285.987890      156.179251
  A           53.079395      285.741655      157.289930
  A           51.434476      285.495420      158.400609
  A           49.789556      285.249185      159.511287
  A           48.144636      285.002950      160.621966
  A           46.499716      284.756715      161.732645
  A           44.854797      284.510480      162.843324
  A           43.209877      284.264245      163.954002
  A           41.564957      284.018010      165.064681
  A           39.920037      283.771776      166.175360
  A           38.275118      283.525541      167.286039
  AL          36.630198      283.279306      168.396718
  AL          34.985278      283.033071      169.507396
  AL          33.340358      282.786836      170.618075
  AL          31.695439      282.540601      171.728754
  AL          30.050519      282.294366      172.839433
  AL          28.405599      282.048131      173.950111
  AL          26.760679      281.801896      175.060790
  AL          25.115760      281.555661      176.171469
  AL          23.470840      281.309426      177.282148
  AL          21.825920      281.063191      178.392827
  AL          20.181000      280.816956      179.503505
  AL          18.536081      280.570721      180.614184
  AL          16.891161      280.324486      181.724863
  AL          15.246241      280.078251      182.835542
  AL          13.601321      279.832016      183.946220
  AL          11.956402      279.585781      185.056899
  AL          10.311482      279.339546      186.167578
  AL           8.666562      279.093311      187.278257
  AL           7.021642      278.847076      188.388936
  AL           5.376723      278.600841      189.499614
  AL           3.731803      278.354606      190.610293
  AL           2.086883      278.108371      191.720972
  AL           0.441963      277.862136      192.831651
  AL          -1.202956      277.615901      193.942329
  AL          -2.847876      277.369666      195.053008
  AL          -4.492796      277.123431      196.163687
  AL          -6.137716      276.877196      197.274366
  AL          -7.782635      276.630961      198.385045
  AL          -9.427555      276.384726      199.495723
  AL         -11.072475      276.138491      200.606402
  AL         -12.717395      275.892256      201.717081
  AL         -14.362314      275.646021      202.827760
  AL         -16.007234      275.399786      203.938439
  AL         -17.652154      275.153551      205.049117
  AL         -19.297074      274.907316      206.159796
  AL         -20.941993      274.661081      207.270475
  AL         -22.586913      274.414846      208.381154
  AL         -24.231833      274.168612      209.491832
  AL         -25.876753      273.922377      210.602511
  AL         -27.521672      273.676142      211.713190
  AL         -29.166592      273.429907      212.823869
  AL         -30.811512      273.183672      213.934548
  AL         -32.456432      272.937437      215.045226
  AL         -34.101351      272.691202      216.155905
  AL         -35.746271      272.444967      217.266584
  AL         -37.391191      272.198732      218.377263
  AL         -39.036111      271.952497      219.487941
  AL         -40.681030      271.706262      220.598620
  AL         -42.325950      271.460027      221.709299
  AL         -43.970870      271.213792      222.819978
  A          179.384844       75.471387      126.619455
  A          178.074248       76.429214      125.451163
  A          176.763651       77.387042      124.282872
  A          175.453055       78.344869      123.114581
  A          174.142459       79.302696      121.946289
  A          172.831862       80.260523      120.777998
  A          171.521266       81.218350      119.609707
  A          170.210670       82.176177      118.441415
  A          168.900073       83.134004      117.273124
  A          167.589477       84.091831      116.104832
  A          166.278881       85.049658      114.936541
  A          164.968284       86.007485      113.768250
  A          163.657688       86.965312      112.599958
  A          162.347092       87.923139      111.431667
  A          161.036495       88.880966      110.263376
  A          159.725899       89.838793      109.095084
  A          158.415303       90.796620      107.926793
  A          157.104706       91.754447      106.758502
  A          155.794110       92.712274      105.590210
  A          154.483514       93.670101      104.421919
  AL         153.172917       94.627928      103.253628
  AL         151.862321       95.585755      102.085336
  AL         150.551725       96.543582      100.917045
  AL         149.241128       97.501409       99.748754
  AL         147.930532       98.459236       98.580462
  AL         146.619936       99.417063       97.412171
  AL         145.309340      100.374890       96.243880
  AL         143.998743      101.332717       95.075588
  AL         142.688147      102.290544       93.907297
  AL         141.377551      103.248371       92.739006
  AL         140.066954      104.206198       91.570714
  AL         138.756358      105.164025       90.402423
  AL         137.445762      106.121852       89.234132
  AL         136.135165      107.079679       88.065840
  AL         134.824569      108.037506       86.897549
  AL         133.513973      108.995333       85.729257
  AL         132.203376      109.953160       84.560966
  AL         130.892780      110.910987       83.392675
  AL         129.582184      111.868814       82.224383
  AL         128.271587      112.826641       81.056092
  AL         126.960991      113.784468       79.887801
  AL         125.650395      114.742295       78.719509
  AL         124.339798      115.700122       77.551218
  AL         123.029202      116.657949       76.382927
  AL         121.718606      117.615776       75.214635
  AL         120.408009      118.573603       74.046344
  AL         119.097413      119.531431       72.878053
  AL         117.786817      120.489258       71.709761
  AL         116.476220      121.447085       70.541470
  AL         115.165624      122.404912       69.373179
  AL         113.855028      123.362739       68.204887
  AL         112.544431      124.320566       67.036596
  AL         111.233835      125.278393       65.868305
  AL         109.923239      126.236220       64.700013
  AL         108.612642      127.194047       63.531722
  AL         107.302046      128.151874       62.363431
  AL         105.991450      129.109701       61.195139
  AL         104.680853      130.067528       60.026848
  AL         103.370257      131.025355       58.858557
  AL         102.059661      131.983182       57.690265
  AL         100.749064      132.941009       56.521974
  AL          99.438468      133.898836       55.353683
  AL          98.127872      134.856663       54.185391
  AL          96.817275      135.814490       53.017100
  AL          95.506679      136.772317       51.848808
  AL          94.196083      137.730144       50.680517
  AL          92.885487      138.687971       49.512226
  AL          91.574890      139.645798       48.343934
  AL          90.264294      140.603625       47.175643
  AL          88.953698      141.561452       46.007352
  A         -389.777226     -139.026631        7.688094
  A         -389.481365     -140.926192        8.239577
  A         -389.185503     -142.825753        8.791061
  A         -388.889641     -144.725314        9.342544
  A         -388.593780     -146.624875        9.894028
  A         -388.297918     -148.524436       10.445511
  A         -388.002056     -150.423997       10.996995
  A         -387.706195     -152.323558       11.548478
  A         -387.410333     -154.223119       12.099961
  A         -387.114472     -156.122680       12.651445
  A         -386.818610     -158.022241       13.202928
  A         -386.522748     -159.921802       13.754412
  A         -386.226887     -161.821363       14.305895
  A         -385.931025     -163.720924       14.857379
  A         -385.635163     -165.620485       15.408862
  A         -385.339302     -167.520046       15.960346
  A         -385.043440     -169.419607       16.511829
  A         -384.747579     -171.319168       17.063313
  A         -384.451717     -173.218729       17.614796
  A         -384.155855     -175.118290       18.166280
  AL        -383.859994     -177.017851       18.717763
  AL        -383.564132     -178.917412       19.269246
  AL        -383.268270     -180.816972       19.820730
  AL        -382.972409     -182.716533       20.372213
  AL        -382.676547     -184.616094       20.923697
  AL        -382.380686     -186.515655       21.475180
  AL        -382.084824     -188.415216       22.026664
  AL        -381.788962     -190.314777       22.578147
  AL        -381.493101     -192.214338       23.129631
  AL        -381.197239     -194.113899       23.681114
  AL        -380.901377     -196.013460       24.232598
  AL        -380.605516     -197.913021       24.784081
  AL        -380.309654     -199.812582       25.335565
  AL        -380.013793     -201.712143       25.887048
  AL        -379.717931     -203.611704       26.438531
  AL        -379.422069     -205.511265       26.990015
  AL        -379.126208     -207.410826       27.541498
  AL        -378.830346     -209.310387       28.092982
  AL        -378.534484     -211.209948       28.644465
  AL        -378.238623     -213.109509       29.195949
  AL        -377.942761     -215.009070       29.747432
  AL        -377.646900     -216.908631       30.298916
  AL        -377.351038     -218.808192       30.850399
  AL        -377.055176     -220.707753       31.401883
  AL        -376.759315     -222.607314       31.953366
  AL        -376.463453     -224.506875       32.504850
  AL        -376.167591     -226.406436       33.056333
  AL        -375.871730     -228.305997       33.607817
  AL        -375.575868     -230.205558       34.159300
  AL        -375.280007     -232.105119       34.710783
  AL        -374.984145     -234.004680       35.262267
  AL        -374.688283     -235.904241       35.813750
  AL        -374.392422     -237.803802       36.365234
  AL        -374.096560     -239.703363       36.916717
  AL        -373.800698     -241.602924       37.468201
  AL        -373.504837     -243.502485       38.019684
  AL        -373.208975     -245.402046       38.571168
  AL        -372.913114     -247.301607       39.122651
  AL        -372.617252     -249.201168       39.674135
  AL        -372.321390     -251.100728       40.225618
  AL        -372.025529     -253.000289       40.777102
  AL        -371.729667     -254.899850       41.328585
  AL        -371.433805     -256.799411       41.880068
  AL        -371.137944     -258.698972       42.431552
  AL        -370.842082     -260.598533       42.983035
  AL        -370.546221     -262.498094       43.534519
  AL        -370.250359     -264.397655       44.086002
  AL        -369.954497     -266.297216       44.637486
  AL        -369.658636     -268.196777       45.188969
  AL        -369.362774     -270.096338       45.740453
  A           40.128526      368.944768     -307.886897
  A           39.393366      367.096815     -307.675682
  A           38.658206      365.248863     -307.464468
  A           37.923046      363.400910     -307.253254
  A           37.187886      361.552958     -307.042039
  A           36.452725      359.705006     -306.830825
  A           35.717565      357.857053     -306.619610
  A           34.982405      356.009101     -306.408396
  A           34.247245      354.161148     -306.197182
  A           33.512085      352.313196     -305.985967
  A           32.776925      350.465244     -305.774753
  A           32.041765      348.617291     -305.563538
  A           31.306605      346.769339     -305.352324
  A           30.571445      344.921386     -305.141110
  A           29.836285      343.073434     -304.929895
  A           29.101125      341.225481     -304.718681
  A           28.365965      339.377529     -304.507466
  A           27.630804      337.529577     -304.296252
  A           26.895644      335.681624     -304.085038
  A           26.160484      333.833672     -303.873823
  AL          25.425324      331.985719     -303.662609
  AL          24.690164      330.137767     -303.451394
  AL          23.955004      328.289815     -303.240180
  AL          23.219844      326.441862     -303.028966
  AL          22.484684      324.593910     -302.817751
  AL          21.749524      322.745957     -302.606537
  AL          21.014364      320.898005     -302.395323
  AL          20.279204      319.050052     -302.184108
  AL          19.544043      317.202100     -301.972894
  AL          18.808883      315.354148     -301.761679
  AL          18.073723      313.506195     -301.550465
  AL          17.338563      311.658243     -301.339251
  AL          16.603403      309.810290     -301.128036
  AL          15.868243      307.962338     -300.916822
  AL          15.133083      306.114386     -300.705607
  AL          14.397923      304.266433     -300.494393
  AL          13.662763      302.418481     -300.283179
  AL          12.927603      300.570528     -300.071964
  AL          12.192443      298.722576     -299.860750
  AL          11.457283      296.874624     -299.649535
  AL          10.722122      295.026671     -299.438321
  AL           9.986962      293.178719     -299.227107
  AL           9.251802      291.330766     -299.015892
  AL           8.516642      289.482814     -298.804678
  AL           7.781482      287.634861     -298.593463
  AL           7.046322      285.786909     -298.382249
  AL           6.311162      283.938957     -298.171035
  AL           5.576002      282.091004     -297.959820
  AL           4.840842      280.243052     -297.748606
  AL           4.105682      278.395099     -297.537391
  AL           3.370522      276.547147     -297.326177
  AL           2.635361      274.699195     -297.114963
  AL           1.900201      272.851242     -296.903748
  AL           1.165041      271.003290     -296.692534
  AL           0.429881      269.155337     -296.481319
  AL          -0.305279      267.307385     -296.270105
  AL          -1.040439      265.459432     -296.058891
  AL          -1.775599      263.611480     -295.847676
  AL          -2.510759      261.763528     -295.636462
  AL          -3.245919      259.915575     -295.425248
  AL          -3.981079      258.067623     -295.214033
  AL          -4.716239      256.219670     -295.002819
  AL          -5.451400      254.371718     -294.791604
  AL          -6.186560      252.523766     -294.580390
  AL          -6.921720      250.675813     -294.369176
  AL          -7.656880      248.827861     -294.157961
  AL          -8.392040      246.979908     -293.946747
  AL          -9.127200      245.131956     -293.735532
  AL          -9.862360      243.284003     -293.524318
  AL         -10.597520      241.436051     -293.313104
  A           44.211223      344.206154       65.762698
  A           45.117374      342.423778       65.717719
  A           46.023525      340.641401       65.672741
  A           46.929677      338.859024       65.627763
  A           47.835828      337.076647       65.582785
  A           48.741979      335.294270       65.537807
  A           49.648130      333.511894       65.492828
  A           50.554281      331.729517       65.447850
  A           51.460432      329.947140       65.402872
  A           52.366584      328.164763       65.357894
  A           53.272735      326.382386       65.312916
  A           54.178886      324.600010       65.267937
  A           55.085037      322.817633       65.222959
  A           55.991188      321.035256       65.177981
  A           56.897339      319.252879       65.133003
  A           57.803491      317.470502       65.088025
  A           58.709642      315.688126       65.043046
  A           59.615793      313.905749       64.998068
  A           60.521944      312.123372       64.953090
  A           61.428095      310.340995       64.908112
  AL          62.334246      308.558618       64.863133
  AL          63.240398      306.776242       64.818155
  AL          64.146549      304.993865       64.773177
  AL          65.052700      303.211488       64.728199
  AL          65.958851      301.429111       64.683221
  AL          66.865002      299.646735       64.638242
  AL          67.771153      297.864358       64.593264
  AL          68.677305      296.081981       64.548286
  AL          69.583456      294.299604       64.503308
  AL          70.489607      292.517227       64.458330
  AL          71.395758      290.734851       64.413351
  AL          72.301909      288.952474       64.368373
  AL          73.208060      287.170097       64.323395
  AL          74.114212      285.387720       64.278417
  AL          75.020363      283.605343       64.233439
  AL          75.926514      281.822967       64.188460
  AL          76.832665      280.040590       64.143482
  AL          77.738816      278.258213       64.098504
  AL          78.644967      276.475836       64.053526
  AL          79.551119      274.693459       64.008548
  AL          80.457270      272.911083       63.963569
  AL          81.363421      271.128706       63.918591
  AL          82.269572      269.346329       63.873613
  AL          83.175723      267.563952       63.828635
  AL          84.081874      265.781575       63.783657
  AL          84.988026      263.999199       63.738678
  AL          85.894177      262.216822       63.693700
  AL          86.800328      260.434445       63.648722
  AL          87.706479      258.652068       63.603744
  AL          88.612630      256.869691       63.558766
  AL          89.518781      255.087315       63.513787
  AL          90.424932      253.304938       63.468809
  AL          91.331084      251.522561       63.423831
  AL          92.237235      249.740184       63.378853
  AL          93.143386      247.957808       63.333875
  AL          94.049537      246.175431       63.288896
  AL          94.955688      244.393054       63.243918
  AL          95.861839      242.610677       63.198940
  AL          96.767991      240.828300       63.153962
  AL          97.674142      239.045924       63.108984
  AL          98.580293      237.263547       63.064005
  AL          99.486444      235.481170       63.019027
  AL         100.392595      233.698793       62.974049
  AL         101.298746      231.916416       62.929071
  AL         102.204898      230.134040       62.884093
  AL         103.111049      228.351663       62.839114
  AL         104.017200      226.569286       62.794136
  AL         104.923351      224.786909       62.749158
  AL         105.829502      223.004532       62.704180
  AL         106.735653      221.222156       62.659202
  A         -117.828668      217.982324      128.133533
  A         -117.555774      216.543102      129.495213
  A         -117.282880      215.103881      130.856893
  A         -117.009986      213.664660      132.218572
  A         -116.737092      212.225439      133.580252
  A         -116.464198      210.786218      134.941931
  A         -116.191304      209.346996      136.303611
  A         -115.918410      207.907775      137.665290
  A         -115.645516      206.468554      139.026970
  A         -115.372622      205.029333      140.388649
  A         -115.099728      203.590112      141.750329
  A         -114.826834      202.150891      143.112009
  A         -114.553940      200.711669      144.473688
  A         -114.281046      199.272448      145.835368
  A         -114.008152      197.833227      147.197047
  A         -113.735258      196.394006      148.558727
  A         -113.462364      194.954785      149.920406
  A         -113.189469      193.515563      151.282086
  A         -112.916575      192.076342      152.643766
  A         -112.643681      190.637121      154.005445
  AL        -112.370787      189.197900      155.367125
  AL        -112.097893      187.758679      156.728804
  AL        -111.824999      186.319458      158.090484
  AL        -111.552105      184.880236      159.452163
  AL        -111.279211      183.441015      160.813843
  AL        -111.006317      182.001794      162.175523
  AL        -110.733423      180.562573      163.537202
  AL        -110.460529      179.123352      164.898882
  AL        -110.187635      177.684130      166.260561
  AL        -109.914741      176.244909      167.622241
  AL        -109.641847      174.805688      168.983920
  AL        -109.368953      173.366467      170.345600
  AL        -109.096059      171.927246      171.707279
  AL        -108.823165      170.488025      173.068959
  AL        -108.550271      169.048803      174.430639
  AL        -108.277377      167.609582      175.792318
  AL        -108.004483      166.170361      177.153998
  AL        -107.731589      164.731140      178.515677
  AL        -107.458695      163.291919      179.877357
  AL        -107.185801      161.852697      181.239036
  AL        -106.912907      160.413476      182.600716
  AL        -106.640013      158.974255      183.962396
  AL        -106.367118      157.535034      185.324075
  AL        -106.094224      156.095813      186.685755
  AL        -105.821330      154.656592      188.047434
  AL        -105.548436      153.217370      189.409114
  AL        -105.275542      151.778149      190.770793
  AL        -105.002648      150.338928      192.132473
  AL        -104.729754      148.899707      193.494152
  AL        -104.456860      147.460486      194.855832
  AL        -104.183966      146.021264      196.217512
  AL        -103.911072      144.582043      197.579191
  AL        -103.638178      143.142822      198.940871
  AL        -103.365284      141.703601      200.302550
  AL        -103.092390      140.264380      201.664230
  AL        -102.819496      138.825159      203.025909
  AL        -102.546602      137.385937      204.387589
  AL        -102.273708      135.946716      205.749269
  AL        -102.000814      134.507495      207.110948
  AL        -101.727920      133.068274      208.472628
  AL        -101.455026      131.629053      209.834307
  AL        -101.182132      130.189831      211.195987
  AL        -100.909238      128.750610      212.557666
  AL        -100.636344      127.311389      213.919346
  AL        -100.363450      125.872168      215.281025
  AL        -100.090556      124.432947      216.642705
  AL         -99.817662      122.993726      218.004385
  AL         -99.544767      121.554504      219.366064
  AL         -99.271873      120.115283      220.727744
  AL         -98.998979      118.676062      222.089423
  A         -400.000158      273.617348      169.832906
  A         -399.347071      275.112454      168.676129
  A         -398.693984      276.607561      167.519352
  A         -398.040897      278.102667      166.362575
  A         -397.387810      279.597774      165.205797
  A         -396.734722      281.092880      164.049020
  A         -396.081635      282.587987      162.892243
  A         -395.428548      284.083093      161.735465
  A         -394.775461      285.578200      160.578688
  A         -394.122374      287.073307      159.421911
  A         -393.469287      288.568413      158.265134
  A         -392.816200      290.063520      157.108356
  A         -392.163113      291.558626      155.951579
  A         -391.510026      293.053733      154.794802
  A         -390.856938      294.548839      153.638024
  A         -390.203851      296.043946      152.481247
  A         -389.550764      297.539052      151.324470
  A         -388.897677      299.034159      150.167693
  A         -388.244590      300.529265      149.010915
  A         -387.591503      302.024372      147.854138
  AL        -386.938416      303.519478      146.697361
  AL        -386.285329      305.014585      145.540583
  AL        -385.632241      306.509691      144.383806
  AL        -384.979154      308.004798      143.227029
  AL        -384.326067      309.499904      142.070252
  AL        -383.672980      310.995011      140.913474
  AL        -383.019893      312.490118      139.756697
  AL        -382.366806      313.985224      138.599920
  AL        -381.713719      315.480331      137.443142
  AL        -381.060632      316.975437      136.286365
  AL        -380.407545      318.470544      135.129588
  AL        -379.754457      319.965650      133.972811
  AL        -379.101370      321.460757      132.816033
  AL        -378.448283      322.955863      131.659256
  AL        -377.795196      324.450970      130.502479
  AL        -377.142109      325.946076      129.345701
  AL        -376.489022      327.441183      128.188924
  AL        -375.835935      328.936289      127.032147
  AL        -375.182848      330.431396      125.875370
  AL        -374.529761      331.926502      124.718592
  AL        -373.876673      333.421609      123.561815
  AL        -373.223586      334.916715      122.405038
  AL        -372.570499      336.411822      121.248260
  AL        -371.917412      337.906928      120.091483
  AL        -371.264325      339.402035      118.934706
  AL        -370.611238      340.897142      117.777929
  AL        -369.958151      342.392248      116.621151
  AL        -369.305064      343.887355      115.464374
  AL        -368.651977      345.382461      114.307597
  AL        -367.998889      346.877568      113.150819
  AL        -367.345802      348.372674      111.994042
  AL        -366.692715      349.867781      110.837265
  AL        -366.039628      351.362887      109.680488
  AL        -365.386541      352.857994      108.523710
  AL        -364.733454      354.353100      107.366933
  AL        -364.080367      355.848207      106.210156
  AL        -363.427280      357.343313      105.053378
  AL        -362.774193      358.838420      103.896601
  AL        -362.121105      360.333526      102.739824
  AL        -361.468018      361.828633      101.583047
  AL        -360.814931      363.323739      100.426269
  AL        -360.161844      364.818846       99.269492
  AL        -359.508757      366.313953       98.112715
  AL        -358.855670      367.809059       96.955937
  AL        -358.202583      369.304166       95.799160
  AL        -357.549496      370.799272       94.642383
  AL        -356.896409      372.294379       93.485606
  AL        -356.243321      373.789485       92.328828
  AL        -355.590234      375.284592       91.172051
  AL        -354.937147      376.779698       90.015274
  A          242.605850        5.658779     -195.449106
  A          241.768764        3.909950     -194.958307
  A          240.931677        2.161121     -194.467508
  A          240.094591        0.412292     -193.976709
  A          239.257504       -1.336537     -193.485910
  A          238.420418       -3.085366     -192.995110
  A          237.583331       -4.834194     -192.504311
  A          236.746245       -6.583023     -192.013512
  A          235.909158       -8.331852     -191.522713
  A          235.072072      -10.080681     -191.031914
  A          234.234985      -11.829510     -190.541114
  A          233.397899      -13.578339     -190.050315
  A          232.560812      -15.327167     -189.559516
  A          231.723725      -17.075996     -189.068717
  A          230.886639      -18.824825     -188.577918
  A          230.049552      -20.573654     -188.087118
  A          229.212466      -22.322483     -187.596319
  A          228.375379      -24.071312     -187.105520
  A          227.538293      -25.820140     -186.614721
  A          226.701206      -27.568969     -186.123922
  AL         225.864120      -29.317798     -185.633122
  AL         225.027033      -31.066627     -185.142323
  AL         224.189947      -32.815456     -184.651524
  AL         223.352860      -34.564285     -184.160725
  AL         222.515774      -36.313114     -183.669926
  AL         221.678687      -38.061942     -183.179126
  AL         220.841601      -39.810771     -182.688327
  AL         220.004514      -41.559600     -182.197528
  AL         219.167428      -43.308429     -181.706729
  AL         218.330341      -45.057258     -181.215930
  AL         217.493255      -46.806087     -180.725130
  AL         216.656168      -48.554915     -180.234331
  AL         215.819082      -50.303744     -179.743532
  AL         214.981995      -52.052573     -179.252733
  AL         214.144909      -53.801402     -178.761934
  AL         213.307822      -55.550231     -178.271134
  AL         212.470736      -57.299060     -177.780335
  AL         211.633649      -59.047889     -177.289536
  AL         210.796563      -60.796717     -176.798737
  AL         209.959476      -62.545546     -176.307938
  AL         209.122390      -64.294375     -175.817138
  AL         208.285303      -66.043204     -175.326339
  AL         207.448217      -67.792033     -174.835540
  AL         206.611130      -69.540862     -174.344741
  AL         205.774044      -71.289690     -173.853942
  AL         204.936957      -73.038519     -173.363142
  AL         204.099871      -74.787348     -172.872343
  AL         203.262784      -76.536177     -172.381544
  AL         202.425698      -78.285006     -171.890745
  AL         201.588611      -80.033835     -171.399946
  AL         200.751525      -81.782663     -170.909146
  AL         199.914438      -83.531492     -170.418347
  AL         199.077352      -85.280321     -169.927548
  AL         198.240265      -87.029150     -169.436749
  AL         197.403179      -88.777979     -168.945950
  AL         196.566092      -90.526808     -168.455150
  AL         195.729006      -92.275637     -167.964351
  AL         194.891919      -94.024465     -167.473552
  AL         194.054833      -95.773294     -166.982753
  AL         193.217746      -97.522123     -166.491954
  AL         192.380660      -99.270952     -166.001154
  AL         191.543573     -101.019781     -165.510355
  AL         190.706487     -102.768610     -165.019556
  AL         189.869400     -104.517438     -164.528757
  AL         189.032314     -106.266267     -164.037958
  AL         188.195227     -108.015096     -163.547158
  AL         187.358141     -109.763925     -163.056359
  AL         186.521054     -111.512754     -162.565560
  AL         185.683967     -113.261583     -162.074761
  AL         184.846881     -115.010411     -161.583962
  A         -122.864560      269.633239     -162.541812
  A         -121.663513      270.245538     -164.019167
  A         -120.462466      270.857837     -165.496522
  A         -119.261420      271.470135     -166.973877
  A         -118.060373      272.082434     -168.451231
  A         -116.859326      272.694732     -169.928586
  A         -115.658280      273.307031     -171.405941
  A         -114.457233      273.919330     -172.883296
  A         -113.256186      274.531628     -174.360651
  A         -112.055140      275.143927     -175.838006
  A         -110.854093      275.756225     -177.315360
  A         -109.653046      276.368524     -178.792715
  A         -108.451999      276.980823     -180.270070
  A         -107.250953      277.593121     -181.747425
  A         -106.049906      278.205420     -183.224780
  A         -104.848859      278.817718     -184.702134
  A         -103.647813      279.430017     -186.179489
  A         -102.446766      280.042316     -187.656844
  A         -101.245719      280.654614     -189.134199
  A         -100.044673      281.266913     -190.611554
  AL         -98.843626      281.879211     -192.088909
  AL         -97.642579      282.491510     -193.566263
  AL         -96.441532      283.103809     -195.043618
  AL         -95.240486      283.716107     -196.520973
  AL         -94.039439      284.328406     -197.998328
  AL         -92.838392      284.940704     -199.475683
  AL         -91.637346      285.553003     -200.953037
  AL         -90.436299      286.165302     -202.430392
  AL         -89.235252      286.777600     -203.907747
  AL         -88.034206      287.389899     -205.385102
  AL         -86.833159      288.002197     -206.862457
  AL         -85.632112      288.614496     -208.339811
  AL         -84.431065      289.226795     -209.817166
  AL         -83.230019      289.839093     -211.294521
  AL         -82.028972      290.451392     -212.771876
  AL         -80.827925      291.063691     -214.249231
  AL         -79.626879      291.675989     -215.726586
  AL         -78.425832      292.288288     -217.203940
  AL         -77.224785      292.900586     -218.681295
  AL         -76.023739      293.512885     -220.158650
  AL         -74.822692      294.125184     -221.636005
  AL         -73.621645      294.737482     -223.113360
  AL         -72.420599      295.349781     -224.590714
  AL         -71.219552      295.962079     -226.068069
  AL         -70.018505      296.574378     -227.545424
  AL         -68.817458      297.186677     -229.022779
  AL         -67.616412      297.798975     -230.500134
  AL         -66.415365      298.411274     -231.977489
  AL         -65.214318      299.023572     -233.454843
  AL         -64.013272      299.635871     -234.932198
  AL         -62.812225      300.248170     -236.409553
  AL         -61.611178      300.860468     -237.886908
  AL         -60.410132      301.472767     -239.364263
  AL         -59.209085      302.085065     -240.841617
  AL         -58.008038      302.697364     -242.318972
  AL         -56.806991      303.309663     -243.796327
  AL         -55.605945      303.921961     -245.273682
  AL         -54.404898      304.534260     -246.751037
  AL         -53.203851      305.146558     -248.228391
  AL         -52.002805      305.758857     -249.705746
  AL         -50.801758      306.371156     -251.183101
  AL         -49.600711      306.983454     -252.660456
  AL         -48.399665      307.595753     -254.137811
  AL         -47.198618      308.208051     -255.615166
  AL         -45.997571      308.820350     -257.092520
  AL         -44.796524      309.432649     -258.569875
  AL         -43.595478      310.044947     -260.047230
  AL         -42.394431      310.657246     -261.524585
  AL         -41.193384      311.269544     -263.001940
  AL         -39.992338      311.881843     -264.479294
  A          359.706156      106.408801      195.567916
  A          357.812269      107.033767      195.417551
  A          355.918382      107.658733      195.267185
  A          354.024495      108.283699      195.116820
  A          352.130608      108.908665      194.966455
  A          350.236721      109.533631      194.816089
  A          348.342834      110.158598      194.665724
  A          346.448947      110.783564      194.515359
  A          344.555060      111.408530      194.364993
  A          342.661174      112.033496      194.214628
  A          340.767287      112.658462      194.064263
  A          338.873400      113.283428      193.913897
  A          336.979513      113.908395      193.763532
  A          335.085626      114.533361      193.613167
  A          333.191739      115.158327      193.462801
  A          331.297852      115.783293      193.312436
  A          329.403965      116.408259      193.162071
  A          327.510078      117.033225      193.011705
  A          325.616192      117.658192      192.861340
  A          323.722305      118.283158      192.710975
  AL         321.828418      118.908124      192.560609
  AL         319.934531      119.533090      192.410244
  AL         318.040644      120.158056      192.259879
  AL         316.146757      120.783023      192.109513
  AL         314.252870      121.407989      191.959148
  AL         312.358983      122.032955      191.808783
  AL         310.465096      122.657921      191.658417
  AL         308.571210      123.282887      191.508052
  AL         306.677323      123.907853      191.357687
  AL         304.783436      124.532820      191.207321
  AL         302.889549      125.157786      191.056956
  AL         300.995662      125.782752      190.906591
  AL         299.101775      126.407718      190.756225
  AL         297.207888      127.032684      190.605860
  AL         295.314001      127.657650      190.455495
  AL         293.420114      128.282617      190.305129
  AL         291.526228      128.907583      190.154764
  AL         289.632341      129.532549      190.004399
  AL         287.738454      130.157515      189.854033
  AL         285.844567      130.782481      189.703668
  AL         283.950680      131.407447      189.553302
  AL         282.056793      132.032414      189.402937
  AL         280.162906      132.657380      189.252572
  AL         278.269019      133.282346      189.102206
  AL         276.375132      133.907312      188.951841
  AL         274.481246      134.532278      188.801476
  AL         272.587359      135.157244      188.651110
  AL         270.693472      135.782211      188.500745
  AL         268.799585      136.407177      188.350380
  AL         266.905698      137.032143      188.200014
  AL         265.011811      137.657109      188.049649
  AL         263.117924      138.282075      187.899284
  AL         261.224037      138.907042      187.748918
  AL         259.330150      139.532008      187.598553
  AL         257.436264      140.156974      187.448188
  AL         255.542377      140.781940      187.297822
  AL         253.648490      141.406906      187.147457
  AL         251.754603      142.031872      186.997092
  AL         249.860716      142.656839      186.846726
  AL         247.966829      143.281805      186.696361
  AL         246.072942      143.906771      186.545996
  AL         244.179055      144.531737      186.395630
  AL         242.285168      145.156703      186.245265
  AL         240.391282      145.781669      186.094900
  AL         238.497395      146.406636      185.944534
  AL         236.603508      147.031602      185.794169
  AL         234.709621      147.656568      185.643804
  AL         232.815734      148.281534      185.493438
  AL         230.921847      148.906500      185.343073
  AL         229.027960      149.531466      185.192708
  A          276.897560      356.081006       47.375155
  A          275.132602      355.573916       48.167483
  A          273.367645      355.066825       48.959811
  A          271.602687      354.559734       49.752138
  A          269.837729      354.052643       50.544466
  A          268.072772      353.545552       51.336794
  A          266.307814      353.038461       52.129122
  A          264.542857      352.531370       52.921450
  A          262.777899      352.024279       53.713777
  A          261.012941      351.517188       54.506105
  A          259.247984      351.010097       55.298433
  A          257.483026      350.503006       56.090761
  A          255.718068      349.995915       56.883089
  A          253.953111      349.488825       57.675416
  A          252.188153      348.981734       58.467744
  A          250.423195      348.474643       59.260072
  A          248.658238      347.967552       60.052400
  A          246.893280      347.460461       60.844727
  A          245.128323      346.953370       61.637055
  A          243.363365      346.446279       62.429383
  AL         241.598407      345.939188       63.221711
  AL         239.833450      345.432097       64.014039
  AL         238.068492      344.925006       64.806366
  AL         236.303534      344.417915       65.598694
  AL         234.538577      343.910825       66.391022
  AL         232.773619      343.403734       67.183350
  AL         231.008661      342.896643       67.975678
  AL         229.243704      342.389552       68.768005
  AL         227.478746      341.882461       69.560333
  AL         225.713789      341.375370       70.352661
  AL         223.948831      340.868279       71.144989
  AL         222.183873      340.361188       71.937317
  AL         220.418916      339.854097       72.729644
  AL         218.653958      339.347006       73.521972
  AL         216.889000      338.839915       74.314300
  AL         215.124043      338.332824       75.106628
  AL         213.359085      337.825734       75.898956
  AL         211.594127      337.318643       76.691283
  AL         209.829170      336.811552       77.483611
  AL         208.064212      336.304461       78.275939
  AL         206.299254      335.797370       79.068267
  AL         204.534297      335.290279       79.860595
  AL         202.769339      334.783188       80.652922
  AL         201.004382      334.276097       81.445250
  AL         199.239424      333.769006       82.237578
  AL         197.474466      333.261915       83.029906
  AL         195.709509      332.754824       83.822234
  AL         193.944551      332.247733       84.614561
  AL         192.179593      331.740643       85.406889
  AL         190.414636      331.233552       86.199217
  AL         188.649678      330.726461       86.991545
  AL         186.884720      330.219370       87.783873
  AL         185.119763      329.712279       88.576200
  AL         183.354805      329.205188       89.368528
  AL         181.589848      328.698097       90.160856
  AL         179.824890      328.191006       90.953184
  AL         178.059932      327.683915       91.745512
  AL         176.294975      327.176824       92.537839
  AL         174.530017      326.669733       93.330167
  AL         172.765059      326.162643       94.122495
  AL         171.000102      325.655552       94.914823
  AL         169.235144      325.148461       95.707151
  AL         167.470186      324.641370       96.499478
  AL         165.705229      324.134279       97.291806
  AL         163.940271      323.627188       98.084134
  AL         162.175314      323.120097       98.876462
  AL         160.410356      322.613006       99.668790
  AL         158.645398      322.105915      100.461117
  AL         156.880441      321.598824      101.253445
  AL         155.115483      321.091733      102.045773
  A          181.189704      173.294567     -376.996645
  A          179.269761      173.663380     -376.574988
  A          177.349817      174.032192     -376.153332
  A          175.429874      174.401005     -375.731676
  A          173.509930      174.769818     -375.310020
  A          171.589986      175.138630     -374.888363
  A          169.670043      175.507443     -374.466707
  A          167.750099      175.876256     -374.045051
  A          165.830156      176.245068     -373.623394
  A          163.910212      176.613881     -373.201738
  A          161.990269      176.982694     -372.780082
  A          160.070325      177.351506     -372.358426
  A          158.150382      177.720319     -371.936769
  A          156.230438      178.089132     -371.515113
  A          154.310495      178.457944     -371.093457
  A          152.390551      178.826757     -370.671801
  A          150.470607      179.195570     -370.250144
  A          148.550664      179.564383     -369.828488
  A          146.630720      179.933195     -369.406832
  A          144.710777      180.302008     -368.985176
  AL         142.790833      180.670821     -368.563519
  AL         140.870890      181.039633     -368.141863
  AL         138.950946      181.408446     -367.720207
  AL         137.031003      181.777259     -367.298551
  AL         135.111059      182.146071     -366.876894
  AL         133.191116      182.514884     -366.455238
  AL         131.271172      182.883697     -366.033582
  AL         129.351229      183.252509     -365.611925
  AL         127.431285      183.621322     -365.190269
  AL         125.511341      183.990135     -364.768613
  AL         123.591398      184.358947     -364.346957
  AL         121.671454      184.727760     -363.925300
  AL         119.751511      185.096573     -363.503644
  AL         117.831567      185.465386     -363.081988
  AL         115.911624      185.834198     -362.660332
  AL         113.991680      186.203011     -362.238675
  AL         112.071737      186.571824     -361.817019
  AL         110.151793      186.940636     -361.395363
  AL         108.231850      187.309449     -360.973707
  AL         106.311906      187.678262     -360.552050
  AL         104.391963      188.047074     -360.130394
  AL         102.472019      188.415887     -359.708738
  AL         100.552075      188.784700     -359.287082
  AL          98.632132      189.153512     -358.865425
  AL          96.712188      189.522325     -358.443769
  AL          94.792245      189.891138     -358.022113
  AL          92.872301      190.259950     -357.600456
  AL          90.952358      190.628763     -357.178800
  AL          89.032414      190.997576     -356.757144
  AL          87.112471      191.366389     -356.335488
  AL          85.192527      191.735201     -355.913831
  AL          83.272584      192.104014     -355.492175
  AL          81.352640      192.472827     -355.070519
  AL          79.432696      192.841639     -354.648863
  AL          77.512753      193.210452     -354.227206
  AL          75.592809      193.579265     -353.805550
  AL          73.672866      193.948077     -353.383894
  AL          71.752922      194.316890     -352.962238
  AL          69.832979      194.685703     -352.540581
  AL          67.913035      195.054515     -352.118925
  AL          65.993092      195.423328     -351.697269
  AL          64.073148      195.792141     -351.275613
  AL          62.153205      196.160953     -350.853956
  AL          60.233261      196.529766     -350.432300
  AL          58.313318      196.898579     -350.010644
  AL          56.393374      197.267392     -349.588988
  AL          54.473430      197.636204     -349.167331
  AL          52.553487      198.005017     -348.745675
  AL          50.633543      198.373830     -348.324019
  AL          48.713600      198.742642     -347.902362
  A            6.235873     -311.959955     -331.059937
  A            4.588255     -311.006893     -330.445912
  A            2.940636     -310.053832     -329.831886
  A            1.293018     -309.100770     -329.217861
  A           -0.354601     -308.147709     -328.603836
  A           -2.002219     -307.194648     -327.989810
  A           -3.649838     -306.241586     -327.375785
  A           -5.297456     -305.288525     -326.761760
  A           -6.945075     -304.335463     -326.147734
  A           -8.592694     -303.382402     -325.533709
  A          -10.240312     -302.429341     -324.919684
  A          -11.887931     -301.476279     -324.305658
  A          -13.535549     -300.523218     -323.691633
  A          -15.183168     -299.570156     -323.077608
  A          -16.830786     -298.617095     -322.463582
  A          -18.478405     -297.664034     -321.849557
  A          -20.126023     -296.710972     -321.235532
  A          -21.773642     -295.757911     -320.621506
  A          -23.421260     -294.804849     -320.007481
  A          -25.068879     -293.851788     -319.393456
  AL         -26.716497     -292.898727     -318.779430
  AL         -28.364116     -291.945665     -318.165405
  AL         -30.011735     -290.992604     -317.551380
  AL         -31.659353     -290.039542     -316.937354
  AL         -33.306972     -289.086481     -316.323329
  AL         -34.954590     -288.133420     -315.709304
  AL         -36.602209     -287.180358     -315.095278
  AL         -38.249827     -286.227297     -314.481253
  AL         -39.897446     -285.274235     -313.867227
  AL         -41.545064     -284.321174     -313.253202
  AL         -43.192683     -283.368113     -312.639177
  AL         -44.840301     -282.415051     -312.025151
  AL         -46.487920     -281.461990     -311.411126
  AL         -48.135538     -280.508929     -310.797101
  AL         -49.783157     -279.555867     -310.183075
  AL         -51.430776     -278.602806     -309.569050
  AL         -53.078394     -277.649744     -308.955025
  AL         -54.726013     -276.696683     -308.340999
  AL         -56.373631     -275.743622     -307.726974
  AL         -58.021250     -274.790560     -307.112949
  AL         -59.668868     -273.837499     -306.498923
  AL         -61.316487     -272.884437     -305.884898
  AL         -62.964105     -271.931376     -305.270873
  AL         -64.611724     -270.978315     -304.656847
  AL         -66.259342     -270.025253     -304.042822
  AL         -67.906961     -269.072192     -303.428797
  AL         -69.554579     -268.119130     -302.814771
  AL         -71.202198     -267.166069     -302.200746
  AL         -72.849817     -266.213008     -301.586721
  AL         -74.497435     -265.259946     -300.972695
  AL         -76.145054     -264.306885     -300.358670
  AL         -77.792672     -263.353823     -299.744645
  AL         -79.440291     -262.400762     -299.130619
  AL         -81.087909     -261.447701     -298.516594
  AL         -82.735528     -260.494639     -297.902569
  AL         -84.383146     -259.541578     -297.288543
  AL         -86.030765     -258.588516     -296.674518
  AL         -87.678383     -257.635455     -296.060493
  AL         -89.326002     -256.682394     -295.446467
  AL         -90.973620     -255.729332     -294.832442
  AL         -92.621239     -254.776271     -294.218416
  AL         -94.268858     -253.823209     -293.604391
  AL         -95.916476     -252.870148     -292.990366
  AL         -97.564095     -251.917087     -292.376340
  AL         -99.211713     -250.964025     -291.762315
  AL        -100.859332     -250.010964     -291.148290
  AL        -102.506950     -249.057902     -290.534264
  AL        -104.154569     -248.104841     -289.920239
  AL        -105.802187     -247.151780     -289.306214
  AL        -107.449806     -246.198718     -288.692188
  A         -185.557830       39.415500      170.267197
  A         -183.571330       39.528302      170.469915
  A         -181.584830       39.641105      170.672633
  A         -179.598330       39.753908      170.875351
  A         -177.611831       39.866711      171.078069
  A         -175.625331       39.979513      171.280786
  A         -173.638831       40.092316      171.483504
  A         -171.652332       40.205119      171.686222
  A         -169.665832       40.317922      171.888940
  A         -167.679332       40.430724      172.091658
  A         -165.692833       40.543527      172.294376
  A         -163.706333       40.656330      172.497094
  A         -161.719833       40.769133      172.699812
  A         -159.733334       40.881935      172.902530
  A         -157.746834       40.994738      173.105248
  A         -155.760334       41.107541      173.307966
  A         -153.773835       41.220344      173.510683
  A         -151.787335       41.333146      173.713401
  A         -149.800835       41.445949      173.916119
  A         -147.814336       41.558752      174.118837
  AL        -145.827836       41.671555      174.321555
  AL        -143.841336       41.784357      174.524273
  AL        -141.854836       41.897160      174.726991
  AL        -139.868337       42.009963      174.929709
  AL        -137.881837       42.122766      175.132427
  AL        -135.895337       42.235568      175.335145
  AL        -133.908838       42.348371      175.537862
  AL        -131.922338       42.461174      175.740580
  AL        -129.935838       42.573977      175.943298
  AL        -127.949339       42.686779      176.146016
  AL        -125.962839       42.799582      176.348734
  AL        -123.976339       42.912385      176.551452
  AL        -121.989840       43.025188      176.754170
  AL        -120.003340       43.137990      176.956888
  AL        -118.016840       43.250793      177.159606
  AL        -116.030341       43.363596      177.362324
  AL        -114.043841       43.476399      177.565042
  AL        -112.057341       43.589201      177.767759
  AL        -110.070842       43.702004      177.970477
  AL        -108.084342       43.814807      178.173195
  AL        -106.097842       43.927610      178.375913
  AL        -104.111343       44.040413      178.578631
  AL        -102.124843       44.153215      178.781349
  AL        -100.138343       44.266018      178.984067
  AL         -98.151843       44.378821      179.186785
  AL         -96.165344       44.491624      179.389503
  AL         -94.178844       44.604426      179.592221
  AL         -92.192344       44.717229      179.794939
  AL         -90.205845       44.830032      179.997656
  AL         -88.219345       44.942835      180.200374
  AL         -86.232845       45.055637      180.403092
  AL         -84.246346       45.168440      180.605810
  AL         -82.259846       45.281243      180.808528
  AL         -80.273346       45.394046      181.011246
  AL         -78.286847       45.506848      181.213964
  AL         -76.300347       45.619651      181.416682
  AL         -74.313847       45.732454      181.619400
  AL         -72.327348       45.845257      181.822118
  AL         -70.340848       45.958059      182.024836
  AL         -68.354348       46.070862      182.227553
  AL         -66.367849       46.183665      182.430271
  AL         -64.381349       46.296468      182.632989
  AL         -62.394849       46.409270      182.835707
  AL         -60.408350       46.522073      183.038425
  AL         -58.421850       46.634876      183.241143
  AL         -56.435350       46.747679      183.443861
  AL         -54.448850       46.860481      183.646579
  AL         -52.462351       46.973284      183.849297
  AL         -50.475851       47.086087      184.052015
  AL         -48.489351       47.198890      184.254733
  A          387.034285       73.614334      304.039125
  A          386.154096       71.955226      304.726605
  A          385.273907       70.296118      305.414086
  A          384.393718       68.637011      306.101566
  A          383.513529       66.977903      306.789046
  A          382.633340       65.318796      307.476526
  A          381.753151       63.659688      308.164007
  A          380.872962       62.000580      308.851487
  A          379.992773       60.341473      309.538967
  A          379.112584       58.682365      310.226447
  A          378.232395       57.023257      310.913928
  A          377.352206       55.364150      311.601408
  A          376.472017       53.705042      312.288888
  A          375.591828       52.045934      312.976369
  A          374.711639       50.386827      313.663849
  A          373.831450       48.727719      314.351329
  A          372.951260       47.068612      315.038809
  A          372.071071       45.409504      315.726290
  A          371.190882       43.750396      316.413770
  A          370.310693       42.091289      317.101250
  AL         369.430504       40.432181      317.788730
  AL         368.550315       38.773073      318.476211
  AL         367.670126       37.113966      319.163691
  AL         366.789937       35.454858      319.851171
  AL         365.909748       33.795751      320.538651
  AL         365.029559       32.136643      321.226132
  AL         364.149370       30.477535      321.913612
  AL         363.269181       28.818428      322.601092
  AL         362.388992       27.159320      323.288572
  AL         361.508803       25.500212      323.976053
  AL         360.628614       23.841105      324.663533
  AL         359.748425       22.181997      325.351013
  AL         358.868236       20.522889      326.038493
  AL         357.988047       18.863782      326.725974
  AL         357.107858       17.204674      327.413454
  AL         356.227669       15.545567      328.100934
  AL         355.347480       13.886459      328.788415
  AL         354.467291       12.227351      329.475895
  AL         353.587102       10.568244      330.163375
  AL         352.706912        8.909136      330.850855
  AL         351.826723        7.250028      331.538336
  AL         350.946534        5.590921      332.225816
  AL         350.066345        3.931813      332.913296
  AL         349.186156        2.272705      333.600776
  AL         348.305967        0.613598      334.288257
  AL         347.425778       -1.045510      334.975737
  AL         346.545589       -2.704617      335.663217
  AL         345.665400       -4.363725      336.350697
  AL         344.785211       -6.022833      337.038178
  AL         343.905022       -7.681940      337.725658
  AL         343.024833       -9.341048      338.413138
  AL         342.144644      -11.000156      339.100618
  AL         341.264455      -12.659263      339.788099
  AL         340.384266      -14.318371      340.475579
  AL         339.504077      -15.977478      341.163059
  AL         338.623888      -17.636586      341.850539
  AL         337.743699      -19.295694      342.538020
  AL         336.863510      -20.954801      343.225500
  AL         335.983321      -22.613909      343.912980
  AL         335.103132      -24.273017      344.600461
  AL         334.222943      -25.932124      345.287941
  AL         333.342753      -27.591232      345.975421
  AL         332.462564      -29.250340      346.662901
  AL         331.582375      -30.909447      347.350382
  AL         330.702186      -32.568555      348.037862
  AL         329.821997      -34.227662      348.725342
  AL         328.941808      -35.886770      349.412822
  AL         328.061619      -37.545878      350.100303
  AL         327.181430      -39.204985      350.787783
  AL         326.301241      -40.864093      351.475263
  A          206.280968       88.061068      107.733503
  A          204.438757       87.282517      107.722604
  A          202.596547       86.503965      107.711706
  A          200.754337       85.725414      107.700807
  A          198.912126       84.946863      107.689908
  A          197.069916       84.168311      107.679010
  A          195.227706       83.389760      107.668111
  A          193.385495       82.611208      107.657212
  A          191.543285       81.832657      107.646314
  A          189.701075       81.054105      107.635415
  A          187.858865       80.275554      107.624516
  A          186.016654       79.497002      107.613618
  A          184.174444       78.718451      107.602719
  A          182.332234       77.939899      107.591820
  A          180.490023       77.161348      107.580922
  A          178.647813       76.382796      107.570023
  A          176.805603       75.604245      107.559124
  A          174.963392       74.825693      107.548226
  A          173.121182       74.047142      107.537327
  A          171.278972       73.268590      107.526428
  AL         169.436761       72.490039      107.515530
  AL         167.594551       71.711487      107.504631
  AL         165.752341       70.932936      107.493732
  AL         163.910131       70.154384      107.482834
  AL         162.067920       69.375833      107.471935
  AL         160.225710       68.597281      107.461036
  AL         158.383500       67.818730      107.450138
  AL         156.541289       67.040178      107.439239
  AL         154.699079       66.261627      107.428340
  AL         152.856869       65.483076      107.417442
  AL         151.014658       64.704524      107.406543
  AL         149.172448       63.925973      107.395644
  AL         147.330238       63.147421      107.384746
  AL         145.488027       62.368870      107.373847
  AL         143.645817       61.590318      107.362948
  AL         141.803607       60.811767      107.352050
  AL         139.961397       60.033215      107.341151
  AL         138.119186       59.254664      107.330252
  AL         136.276976       58.476112      107.319354
  AL         134.434766       57.697561      107.308455
  AL         132.592555       56.919009      107.297556
  AL         130.750345       56.140458      107.286658
  AL         128.908135       55.361906      107.275759
  AL         127.065924       54.583355      107.264860
  AL         125.223714       53.804803      107.253962
  AL         123.381504       53.026252      107.243063
  AL         121.539294       52.247700      107.232164
  AL         119.697083       51.469149      107.221266
  AL         117.854873       50.690597      107.210367
  AL         116.012663       49.912046      107.199469
  AL         114.170452       49.133494      107.188570
  AL         112.328242       48.354943      107.177671
  AL         110.486032       47.576391      107.166773
  AL         108.643821       46.797840      107.155874
  AL         106.801611       46.019288      107.144975
  AL         104.959401       45.240737      107.134077
  AL         103.117190       44.462186      107.123178
  AL         101.274980       43.683634      107.112279
  AL          99.432770       42.905083      107.101381
  AL          97.590560       42.126531      107.090482
  AL          95.748349       41.347980      107.079583
  AL          93.906139       40.569428      107.068685
  AL          92.063929       39.790877      107.057786
  AL          90.221718       39.012325      107.046887
  AL          88.379508       38.233774      107.035989
  AL          86.537298       37.455222      107.025090
  AL          84.695087       36.676671      107.014191
  AL          82.852877       35.898119      107.003293
  AL          81.010667       35.119568      106.992394
  AL          79.168456       34.341016      106.981495
  A         -257.694638      166.537110       43.600446
  A         -259.287730      165.520267       42.946162
  A         -260.880822      164.503424       42.291878
  A         -262.473914      163.486580       41.637594
  A         -264.067006      162.469737       40.983310
  A         -265.660098      161.452893       40.329026
  A         -267.253190      160.436050       39.674742
  A         -268.846282      159.419207       39.020457
  A         -270.439374      158.402363       38.366173
  A         -272.032466      157.385520       37.711889
  A         -273.625558      156.368677       37.057605
  A         -275.218649      155.351833       36.403321
  A         -276.811741      154.334990       35.749037
  A         -278.404833      153.318147       35.094752
  A         -279.997925      152.301303       34.440468
  A         -281.591017      151.284460       33.786184
  A         -283.184109      150.267617       33.131900
  A         -284.777201      149.250773       32.477616
  A         -286.370293      148.233930       31.823332
  A         -287.963385      147.217087       31.169047
  AL        -289.556477      146.200243       30.514763
  AL        -291.149569      145.183400       29.860479
  AL        -292.742661      144.166557       29.206195
  AL        -294.335752      143.149713       28.551911
  AL        -295.928844      142.132870       27.897627
  AL        -297.521936      141.116027       27.243342
  AL        -299.115028      140.099183       26.589058
  AL        -300.708120      139.082340       25.934774
  AL        -302.301212      138.065497       25.280490
  AL        -303.894304      137.048653       24.626206
  AL        -305.487396      136.031810       23.971922
  AL        -307.080488      135.014967       23.317638
  AL        -308.673580      133.998123       22.663353
  AL        -310.266672      132.981280       22.009069
  AL        -311.859764      131.964437       21.354785
  AL        -313.452855      130.947593       20.700501
  AL        -315.045947      129.930750       20.046217
  AL        -316.639039      128.913907       19.391933
  AL        -318.232131      127.897063       18.737648
  AL        -319.825223      126.880220       18.083364
  AL        -321.418315      125.863377       17.429080
  AL        -323.011407      124.846533       16.774796
  AL        -324.604499      123.829690       16.120512
  AL        -326.197591      122.812847       15.466228
  AL        -327.790683      121.796003       14.811943
  AL        -329.383775      120.779160       14.157659
  AL        -330.976867      119.762317       13.503375
  AL        -332.569959      118.745473       12.849091
  AL        -334.163050      117.728630       12.194807
  AL        -335.756142      116.711787       11.540523
  AL        -337.349234      115.694943       10.886239
  AL        -338.942326      114.678100       10.231954
  AL        -340.535418      113.661257        9.577670
  AL        -342.128510      112.644413        8.923386
  AL        -343.721602      111.627570        8.269102
  AL        -345.314694      110.610727        7.614818
  AL        -346.907786      109.593883        6.960534
  AL        -348.500878      108.577040        6.306249
  AL        -350.093970      107.560197        5.651965
  AL        -351.687062      106.543353        4.997681
  AL        -353.280153      105.526510        4.343397
  AL        -354.873245      104.509666        3.689113
  AL        -356.466337      103.492823        3.034829
  AL        -358.059429      102.475980        2.380544
  AL        -359.652521      101.459136        1.726260
  AL        -361.245613      100.442293        1.071976
  AL        -362.838705       99.425450        0.417692
  AL        -364.431797       98.408606       -0.236592
  AL        -366.024889       97.391763       -0.890876
  AL        -367.617981       96.374920       -1.545160
  A         -195.831915       -0.727236       13.551448
  A         -193.945396       -0.158748       13.894764
  A         -192.058877        0.409741       14.238080
  A         -190.172357        0.978229       14.581397
  A         -188.285838        1.546717       14.924713
  A         -186.399319        2.115206       15.268029
  A         -184.512800        2.683694       15.611346
  A         -182.626280        3.252183       15.954662
  A         -180.739761        3.820671       16.297978
  A         -178.853242        4.389160       16.641295
  A         -176.966723        4.957648       16.984611
  A         -175.080204        5.526137       17.327927
  A         -173.193684        6.094625       17.671244
  A         -171.307165        6.663114       18.014560
  A         -169.420646        7.231602       18.357876
  A         -167.534127        7.800090       18.701192
  A         -165.647607        8.368579       19.044509
  A         -163.761088        8.937067       19.387825
  A         -161.874569        9.505556       19.731141
  A         -159.988050       10.074044       20.074458
  AL        -158.101530       10.642533       20.417774
  AL        -156.215011       11.211021       20.761090
  AL        -154.328492       11.779510       21.104407
  AL        -152.441973       12.347998       21.447723
  AL        -150.555454       12.916486       21.791039
  AL        -148.668934       13.484975       22.134356
  AL        -146.782415       14.053463       22.477672
  AL        -144.895896       14.621952       22.820988
  AL        -143.009377       15.190440       23.164305
  AL        -141.122857       15.758929       23.507621
  AL        -139.236338       16.327417       23.850937
  AL        -137.349819       16.895906       24.194254
  AL        -135.463300       17.464394       24.537570
  AL        -133.576781       18.032882       24.880886
  AL        -131.690261       18.601371       25.224203
  AL        -129.803742       19.169859       25.567519
  AL        -127.917223       19.738348       25.910835
  AL        -126.030704       20.306836       26.254152
  AL        -124.144184       20.875325       26.597468
  AL        -122.257665       21.443813       26.940784
  AL        -120.371146       22.012302       27.284101
  AL        -118.484627       22.580790       27.627417
  AL        -116.598108       23.149279       27.970733
  AL        -114.711588       23.717767       28.314050
  AL        -112.825069       24.286255       28.657366
  AL        -110.938550       24.854744       29.000682
  AL        -109.052031       25.423232       29.343999
  AL        -107.165511       25.991721       29.687315
  AL        -105.278992       26.560209       30.030631
  AL        -103.392473       27.128698       30.373947
  AL        -101.505954       27.697186       30.717264
  AL         -99.619435       28.265675       31.060580
  AL         -97.732915       28.834163       31.403896
  AL         -95.846396       29.402651       31.747213
  AL         -93.959877       29.971140       32.090529
  AL         -92.073358       30.539628       32.433845
  AL         -90.186838       31.108117       32.777162
  AL         -88.300319       31.676605       33.120478
  AL         -86.413800       32.245094       33.463794
  AL         -84.527281       32.813582       33.807111
  AL         -82.640761       33.382071       34.150427
  AL         -80.754242       33.950559       34.493743
  AL         -78.867723       34.519047       34.837060
  AL         -76.981204       35.087536       35.180376
  AL         -75.094685       35.656024       35.523692
  AL         -73.208165       36.224513       35.867009
  AL         -71.321646       36.793001       36.210325
  AL         -69.435127       37.361490       36.553641
  AL         -67.548608       37.929978       36.896958
  AL         -65.662088       38.498467       37.240274
  A         -296.580950     -378.150999      342.438626
  A         -297.687263     -376.564111      341.930827
  A         -298.793576     -374.977224      341.423027
  A         -299.899888     -373.390337      340.915227
  A         -301.006201     -371.803450      340.407428
  A         -302.112514     -370.216562      339.899628
  A         -303.218827     -368.629675      339.391829
  A         -304.325140     -367.042788      338.884029
  A         -305.431453     -365.455900      338.376230
  A         -306.537766     -363.869013      337.868430
  A         -307.644079     -362.282126      337.360630
  A         -308.750392     -360.695239      336.852831
  A         -309.856705     -359.108351      336.345031
  A         -310.963018     -357.521464      335.837232
  A         -312.069331     -355.934577      335.329432
  A         -313.175644     -354.347689      334.821632
  A         -314.281957     -352.760802      334.313833
  A         -315.388270     -351.173915      333.806033
  A         -316.494583     -349.587028      333.298234
  A         -317.600895     -348.000140      332.790434
  AL        -318.707208     -346.413253      332.282635
  AL        -319.813521     -344.826366      331.774835
  AL        -320.919834     -343.239478      331.267035
  AL        -322.026147     -341.652591      330.759236
  AL        -323.132460     -340.065704      330.251436
  AL        -324.238773     -338.478817      329.743637
  AL        -325.345086     -336.891929      329.235837
  AL        -326.451399     -335.305042      328.728037
  AL        -327.557712     -333.718155      328.220238
  AL        -328.664025     -332.131267      327.712438
  AL        -329.770338     -330.544380      327.204639
  AL        -330.876651     -328.957493      326.696839
  AL        -331.982964     -327.370605      326.189039
  AL        -333.089277     -325.783718      325.681240
  AL        -334.195590     -324.196831      325.173440
  AL        -335.301902     -322.609944      324.665641
  AL        -336.408215     -321.023056      324.157841
  AL        -337.514528     -319.436169      323.650042
  AL        -338.620841     -317.849282      323.142242
  AL        -339.727154     -316.262394      322.634442
  AL        -340.833467     -314.675507      322.126643
  AL        -341.939780     -313.088620      321.618843
  AL        -343.046093     -311.501733      321.111044
  AL        -344.152406     -309.914845      320.603244
  AL        -345.258719     -308.327958      320.095444
  AL        -346.365032     -306.741071      319.587645
  AL        -347.471345     -305.154183      319.079845
  AL        -348.577658     -303.567296      318.572046
  AL        -349.683971     -301.980409      318.064246
  AL        -350.790284     -300.393522      317.556446
  AL        -351.896597     -298.806634      317.048647
  AL        -353.002909     -297.219747      316.540847
  AL        -354.109222     -295.632860      316.033048
  AL        -355.215535     -294.045972      315.525248
  AL        -356.321848     -292.459085      315.017449
  AL        -357.428161     -290.872198      314.509649
  AL        -358.534474     -289.285311      314.001849
  AL        -359.640787     -287.698423      313.494050
  AL        -360.747100     -286.111536      312.986250
  AL        -361.853413     -284.524649      312.478451
  AL        -362.959726     -282.937761      311.970651
  AL        -364.066039     -281.350874      311.462851
  AL        -365.172352     -279.763987      310.955052
  AL        -366.278665     -278.177100      310.447252
  AL        -367.384978     -276.590212      309.939453
  AL        -368.491291     -275.003325      309.431653
  AL        -369.597603     -273.416438      308.923853
  AL        -370.703916     -271.829550      308.416054
  AL        -371.810229     -270.242663      307.908254
  AL        -372.916542     -268.655776      307.400455
  A         -202.746997      -91.631039     -273.127564
  A         -200.761694      -91.818810     -272.974865
  A         -198.776392      -92.006580     -272.822165
  A         -196.791090      -92.194350     -272.669466
  A         -194.805787      -92.382121     -272.516767
  A         -192.820485      -92.569891     -272.364068
  A         -190.835183      -92.757661     -272.211368
  A         -188.849881      -92.945432     -272.058669
  A         -186.864578      -93.133202     -271.905970
  A         -184.879276      -93.320972     -271.753271
  A         -182.893974      -93.508743     -271.600572
  A         -180.908671      -93.696513     -271.447872
  A         -178.923369      -93.884283     -271.295173
  A         -176.938067      -94.072054     -271.142474
  A         -174.952764      -94.259824     -270.989775
  A         -172.967462      -94.447594     -270.837075
  A         -170.982160      -94.635365     -270.684376
  A         -168.996858      -94.823135     -270.531677
  A         -167.011555      -95.010906     -270.378978
  A         -165.026253      -95.198676     -270.226278
  AL        -163.040951      -95.386446     -270.073579
  AL        -161.055648      -95.574217     -269.920880
  AL        -159.070346      -95.761987     -269.768181
  AL        -157.085044      -95.949757     -269.615481
  AL        -155.099741      -96.137528     -269.462782
  AL        -153.114439      -96.325298     -269.310083
  AL        -151.129137      -96.513068     -269.157384
  AL        -149.143834      -96.700839     -269.004684
  AL        -147.158532      -96.888609     -268.851985
  AL        -145.173230      -97.076379     -268.699286
  AL        -143.187928      -97.264150     -268.546587
  AL        -141.202625      -97.451920     -268.393887
  AL        -139.217323      -97.639691     -268.241188
  AL        -137.232021      -97.827461     -268.088489
  AL        -135.246718      -98.015231     -267.935790
  AL        -133.261416      -98.203002     -267.783091
  AL        -131.276114      -98.390772     -267.630391
  AL        -129.290811      -98.578542     -267.477692
  AL        -127.305509      -98.766313     -267.324993
  AL        -125.320207      -98.954083     -267.172294
  AL        -123.334905      -99.141853     -267.019594
  AL        -121.349602      -99.329624     -266.866895
  AL        -119.364300      -99.517394     -266.714196
  AL        -117.378998      -99.705164     -266.561497
  AL        -115.393695      -99.892935     -266.408797
  AL        -113.408393     -100.080705     -266.256098
  AL        -111.423091     -100.268476     -266.103399
  AL        -109.437788     -100.456246     -265.950700
  AL        -107.452486     -100.644016     -265.798000
  AL        -105.467184     -100.831787     -265.645301
  AL        -103.481882     -101.019557     -265.492602
  AL        -101.496579     -101.207327     -265.339903
  AL         -99.511277     -101.395098     -265.187203
  AL         -97.525975     -101.582868     -265.034504
  AL         -95.540672     -101.770638     -264.881805
  AL         -93.555370     -101.958409     -264.729106
  AL         -91.570068     -102.146179     -264.576406
  AL         -89.584765     -102.333949     -264.423707
  AL         -87.599463     -102.521720     -264.271008
  AL         -85.614161     -102.709490     -264.118309
  AL         -83.628858     -102.897260     -263.965610
  AL         -81.643556     -103.085031     -263.812910
  AL         -79.658254     -103.272801     -263.660211
  AL         -77.672952     -103.460572     -263.507512
  AL         -75.687649     -103.648342     -263.354813
  AL         -73.702347     -103.836112     -263.202113
  AL         -71.717045     -104.023883     -263.049414
  AL         -69.731742     -104.211653     -262.896715
  AL         -67.746440     -104.399423     -262.744016
  AL         -65.761138     -104.587194     -262.591316
  A          -45.371421      106.364689     -192.742292
  A          -47.002142      105.210509     -192.835128
  A          -48.632862      104.056330     -192.927965
  A          -50.263583      102.902150     -193.020802
  A          -51.894304      101.747970     -193.113638
  A          -53.525025      100.593790     -193.206475
  A          -55.155746       99.439611     -193.299312
  A          -56.786467       98.285431     -193.392148
  A          -58.417187       97.131251     -193.484985
  A          -60.047908       95.977071     -193.577822
  A          -61.678629       94.822892     -193.670658
  A          -63.309350       93.668712     -193.763495
  A          -64.940071       92.514532     -193.856331
  A          -66.570792       91.360352     -193.949168
  A          -68.201513       90.206173     -194.042005
  A          -69.832233       89.051993     -194.134841
  A          -71.462954       87.897813     -194.227678
  A          -73.093675       86.743633     -194.320515
  A          -74.724396       85.589454     -194.413351
  A          -76.355117       84.435274     -194.506188
  AL         -77.985838       83.281094     -194.599024
  AL         -79.616558       82.126914     -194.691861
  AL         -81.247279       80.972735     -194.784698
  AL         -82.878000       79.818555     -194.877534
  AL         -84.508721       78.664375     -194.970371
  AL         -86.139442       77.510195     -195.063208
  AL         -87.770163       76.356016     -195.156044
  AL         -89.400883       75.201836     -195.248881
  AL         -91.031604       74.047656     -195.341717
  AL         -92.662325       72.893476     -195.434554
  AL         -94.293046       71.739297     -195.527391
  AL         -95.923767       70.585117     -195.620227
  AL         -97.554488       69.430937     -195.713064
  AL         -99.185208       68.276757     -195.805901
  AL        -100.815929       67.122578     -195.898737
  AL        -102.446650       65.968398     -195.991574
  AL        -104.077371       64.814218     -196.084410
  AL        -105.708092       63.660038     -196.177247
  AL        -107.338813       62.505858     -196.270084
  AL        -108.969534       61.351679     -196.362920
  AL        -110.600254       60.197499     -196.455757
  AL        -112.230975       59.043319     -196.548594
  AL        -113.861696       57.889139     -196.641430
  AL        -115.492417       56.734960     -196.734267
  AL        -117.123138       55.580780     -196.827103
  AL        -118.753859       54.426600     -196.919940
  AL        -120.384579       53.272420     -197.012777
  AL        -122.015300       52.118241     -197.105613
  AL        -123.646021       50.964061     -197.198450
  AL        -125.276742       49.809881     -197.291287
  AL        -126.907463       48.655701     -197.384123
  AL        -128.538184       47.501522     -197.476960
  AL        -130.168904       46.347342     -197.569797
  AL        -131.799625       45.193162     -197.662633
  AL        -133.430346       44.038982     -197.755470
  AL        -135.061067       42.884803     -197.848306
  AL        -136.691788       41.730623     -197.941143
  AL        -138.322509       40.576443     -198.033980
  AL        -139.953229       39.422263     -198.126816
  AL        -141.583950       38.268084     -198.219653
  AL        -143.214671       37.113904     -198.312490
  AL        -144.845392       35.959724     -198.405326
  AL        -146.476113       34.805544     -198.498163
  AL        -148.106834       33.651365     -198.590999
  AL        -149.737555       32.497185     -198.683836
  AL        -151.368275       31.343005     -198.776673
  AL        -152.998996       30.188825     -198.869509
  AL        -154.629717       29.034646     -198.962346
  AL        -156.260438       27.880466     -199.055183
  AL        -157.891159       26.726286     -199.148019
  A          -36.080070     -267.846175      -54.800309
  A          -38.009330     -268.345890      -54.968359
  A          -39.938590     -268.845605      -55.136408
  A          -41.867850     -269.345321      -55.304458
  A          -43.797110     -269.845036      -55.472507
  A          -45.726370     -270.344751      -55.640557
  A          -47.655629     -270.844467      -55.808606
  A          -49.584889     -271.344182      -55.976656
  A          -51.514149     -271.843897      -56.144705
  A          -53.443409     -272.343613      -56.312755
  A          -55.372669     -272.843328      -56.480804
  A          -57.301929     -273.343043      -56.648854
  A          -59.231189     -273.842759      -56.816903
  A          -61.160449     -274.342474      -56.984953
  A          -63.089709     -274.842190      -57.153003
  A          -65.018969     -275.341905      -57.321052
  A          -66.948229     -275.841620      -57.489102
  A          -68.877489     -276.341336      -57.657151
  A          -70.806749     -276.841051      -57.825201
  A          -72.736009     -277.340766      -57.993250
  AL         -74.665269     -277.840482      -58.161300
  AL         -76.594529     -278.340197      -58.329349
  AL         -78.523789     -278.839912      -58.497399
  AL         -80.453049     -279.339628      -58.665448
  AL         -82.382308     -279.839343      -58.833498
  AL         -84.311568     -280.339058      -59.001547
  AL         -86.240828     -280.838774      -59.169597
  AL         -88.170088     -281.338489      -59.337646
  AL         -90.099348     -281.838204      -59.505696
  AL         -92.028608     -282.337920      -59.673745
  AL         -93.957868     -282.837635      -59.841795
  AL         -95.887128     -283.337350      -60.009844
  AL         -97.816388     -283.837066      -60.177894
  AL         -99.745648     -284.336781      -60.345943
  AL        -101.674908     -284.836496      -60.513993
  AL        -103.604168     -285.336212      -60.682042
  AL        -105.533428     -285.835927      -60.850092
  AL        -107.462688     -286.335643      -61.018142
  AL        -109.391948     -286.835358      -61.186191
  AL        -111.321208     -287.335073      -61.354241
  AL        -113.250468     -287.834789      -61.522290
  AL        -115.179728     -288.334504      -61.690340
  AL        -117.108987     -288.834219      -61.858389
  AL        -119.038247     -289.333935      -62.026439
  AL        -120.967507     -289.833650      -62.194488
  AL        -122.896767     -290.333365      -62.362538
  AL        -124.826027     -290.833081      -62.530587
  AL        -126.755287     -291.332796      -62.698637
  AL        -128.684547     -291.832511      -62.866686
  AL        -130.613807     -292.332227      -63.034736
  AL        -132.543067     -292.831942      -63.202785
  AL        -134.472327     -293.331657      -63.370835
  AL        -136.401587     -293.831373      -63.538884
  AL        -138.330847     -294.331088      -63.706934
  AL        -140.260107     -294.830803      -63.874983
  AL        -142.189367     -295.330519      -64.043033
  AL        -144.118627     -295.830234      -64.211082
  AL        -146.047887     -296.329949      -64.379132
  AL        -147.977147     -296.829665      -64.547181
  AL        -149.906407     -297.329380      -64.715231
  AL        -151.835666     -297.829096      -64.883281
  AL        -153.764926     -298.328811      -65.051330
  AL        -155.694186     -298.828526      -65.219380
  AL        -157.623446     -299.328242      -65.387429
  AL        -159.552706     -299.827957      -65.555479
  AL        -161.481966     -300.327672      -65.723528
  AL        -163.411226     -300.827388      -65.891578
  AL        -165.340486     -301.327103      -66.059627
  AL        -167.269746     -301.826818      -66.227677
  AL        -169.199006     -302.326534      -66.395726
  A         -154.838448     -238.712629      239.643504
  A         -153.537576     -240.127567      240.196390
  A         -152.236703     -241.542504      240.749276
  A         -150.935831     -242.957441      241.302163
  A         -149.634958     -244.372379      241.855049
  A         -148.334086     -245.787316      242.407935
  A         -147.033213     -247.202253      242.960821
  A         -145.732341     -248.617191      243.513707
  A         -144.431468     -250.032128      244.066594
  A         -143.130596     -251.447065      244.619480
  A         -141.829724     -252.862003      245.172366
  A         -140.528851     -254.276940      245.725252
  A         -139.227979     -255.691877      246.278138
  A         -137.927106     -257.106815      246.831025
  A         -136.626234     -258.521752      247.383911
  A         -135.325361     -259.936690      247.936797
  A         -134.024489     -261.351627      248.489683
  A         -132.723616     -262.766564      249.042570
  A         -131.422744     -264.181502      249.595456
  A         -130.121871     -265.596439      250.148342
  AL        -128.820999     -267.011376      250.701228
  AL        -127.520127     -268.426314      251.254114
  AL        -126.219254     -269.841251      251.807001
  AL        -124.918382     -271.256188      252.359887
  AL        -123.617509     -272.671126      252.912773
  AL        -122.316637     -274.086063      253.465659
  AL        -121.015764     -275.501000      254.018545
  AL        -119.714892     -276.915938      254.571432
  AL        -118.414019     -278.330875      255.124318
  AL        -117.113147     -279.745812      255.677204
  AL        -115.812275     -281.160750      256.230090
  AL        -114.511402     -282.575687      256.782976
  AL        -113.210530     -283.990624      257.335863
  AL        -111.909657     -285.405562      257.888749
  AL        -110.608785     -286.820499      258.441635
  AL        -109.307912     -288.235437      258.994521
  AL        -108.007040     -289.650374      259.547408
  AL        -106.706167     -291.065311      260.100294
  AL        -105.405295     -292.480249      260.653180
  AL        -104.104422     -293.895186      261.206066
  AL        -102.803550     -295.310123      261.758952
  AL        -101.502678     -296.725061      262.311839
  AL        -100.201805     -298.139998      262.864725
  AL         -98.900933     -299.554935      263.417611
  AL         -97.600060     -300.969873      263.970497
  AL         -96.299188     -302.384810      264.523383
  AL         -94.998315     -303.799747      265.076270
  AL         -93.697443     -305.214685      265.629156
  AL         -92.396570     -306.629622      266.182042
  AL         -91.095698     -308.044559      266.734928
  AL         -89.794826     -309.459497      267.287814
  AL         -88.493953     -310.874434      267.840701
  AL         -87.193081     -312.289371      268.393587
  AL         -85.892208     -313.704309      268.946473
  AL         -84.591336     -315.119246      269.499359
  AL         -83.290463     -316.534184      270.052246
  AL         -81.989591     -317.949121      270.605132
  AL         -80.688718     -319.364058      271.158018
  AL         -79.387846     -320.778996      271.710904
  AL         -78.086973     -322.193933      272.263790
  AL         -76.786101     -323.608870      272.816677
  AL         -75.485229     -325.023808      273.369563
  AL         -74.184356     -326.438745      273.922449
  AL         -72.883484     -327.853682      274.475335
  AL         -71.582611     -329.268620      275.028221
  AL         -70.281739     -330.683557      275.581108
  AL         -68.980866     -332.098494      276.133994
  AL         -67.679994     -333.513432      276.686880
  AL         -66.379121     -334.928369      277.239766
  AL         -65.078249     -336.343306      277.792652
  A          116.261479       55.382322      225.119554
  A          115.415911       57.027283      225.880553
  A          114.570342       58.672243      226.641552
  A          113.724774       60.317203      227.402551
  A          112.879205       61.962164      228.163550
  A          112.033637       63.607124      228.924549
  A          111.188068       65.252084      229.685548
  A          110.342500       66.897045      230.446547
  A          109.496932       68.542005      231.207546
  A          108.651363       70.186965      231.968545
  A          107.805795       71.831926      232.729544
  A          106.960226       73.476886      233.490543
  A          106.114658       75.121846      234.251542
  A          105.269090       76.766807      235.012541
  A          104.423521       78.411767      235.773540
  A          103.577953       80.056727      236.534539
  A          102.732384       81.701688      237.295538
  A          101.886816       83.346648      238.056537
  A          101.041248       84.991608      238.817536
  A          100.195679       86.636569      239.578535
  AL          99.350111       88.281529      240.339534
  AL          98.504542       89.926490      241.100533
  AL          97.658974       91.571450      241.861532
  AL          96.813405       93.216410      242.622531
  AL          95.967837       94.861371      243.383530
  AL          95.122269       96.506331      244.144529
  AL          94.276700       98.151291      244.905528
  AL          93.431132       99.796252      245.666527
  AL          92.585563      101.441212      246.427526
  AL          91.739995      103.086172      247.188525
  AL          90.894427      104.731133      247.949524
  AL          90.048858      106.376093      248.710524
  AL          89.203290      108.021053      249.471523
  AL          88.357721      109.666014      250.232522
  AL          87.512153      111.310974      250.993521
  AL          86.666585      112.955934      251.754520
  AL          85.821016      114.600895      252.515519
  AL          84.975448      116.245855      253.276518
  AL          84.129879      117.890815      254.037517
  AL          83.284311      119.535776      254.798516
  AL          82.438743      121.180736      255.559515
  AL          81.593174      122.825697      256.320514
  AL          80.747606      124.470657      257.081513
  AL          79.902037      126.115617      257.842512
  AL          79.056469      127.760578      258.603511
  AL          78.210900      129.405538      259.364510
  AL          77.365332      131.050498      260.125509
  AL          76.519764      132.695459      260.886508
  AL          75.674195      134.340419      261.647507
  AL          74.828627      135.985379      262.408506
  AL          73.983058      137.630340      263.169505
  AL          73.137490      139.275300      263.930504
  AL          72.291922      140.920260      264.691503
  AL          71.446353      142.565221      265.452502
  AL          70.600785      144.210181      266.213501
  AL          69.755216      145.855141      266.974500
  AL          68.909648      147.500102      267.735499
  AL          68.064080      149.145062      268.496498
  AL          67.218511      150.790022      269.257497
  AL          66.372943      152.434983      270.018496
  AL          65.527374      154.079943      270.779495
  AL          64.681806      155.724904      271.540494
  AL          63.836237      157.369864      272.301493
  AL          62.990669      159.014824      273.062492
  AL          62.145101      160.659785      273.823491
  AL          61.299532      162.304745      274.584490
  AL          60.453964      163.949705      275.345489
  AL          59.608395      165.594666      276.106488
  AL          58.762827      167.239626      276.867487
  AL          57.917259      168.884586      277.628486
  A          306.702856        6.166561      -53.458989
  A          307.186901        7.902224      -54.326845
  A          307.670946        9.637888      -55.194700
  A          308.154991       11.373551      -56.062556
  A          308.639036       13.109214      -56.930412
  A          309.123081       14.844877      -57.798267
  A          309.607126       16.580541      -58.666123
  A          310.091172       18.316204      -59.533978
  A          310.575217       20.051867      -60.401834
  A          311.059262       21.787530      -61.269690
  A          311.543307       23.523194      -62.137545
  A          312.027352       25.258857      -63.005401
  A          312.511397       26.994520      -63.873257
  A          312.995442       28.730183      -64.741112
  A          313.479487       30.465847      -65.608968
  A          313.963532       32.201510      -66.476823
  A          314.447577       33.937173      -67.344679
  A          314.931622       35.672837      -68.212535
  A          315.415668       37.408500      -69.080390
  A          315.899713       39.144163      -69.948246
  AL         316.383758       40.879826      -70.816102
  AL         316.867803       42.615490      -71.683957
  AL         317.351848       44.351153      -72.551813
  AL         317.835893       46.086816      -73.419668
  AL         318.319938       47.822479      -74.287524
  AL         318.803983       49.558143      -75.155380
  AL         319.288028       51.293806      -76.023235
  AL         319.772073       53.029469      -76.891091
  AL         320.256118       54.765132      -77.758947
  AL         320.740164       56.500796      -78.626802
  AL         321.224209       58.236459      -79.494658
  AL         321.708254       59.972122      -80.362513
  AL         322.192299       61.707786      -81.230369
  AL         322.676344       63.443449      -82.098225
  AL         323.160389       65.179112      -82.966080
  AL         323.644434       66.914775      -83.833936
  AL         324.128479       68.650439      -84.701792
  AL         324.612524       70.386102      -85.569647
  AL         325.096569       72.121765      -86.437503
  AL         325.580614       73.857428      -87.305358
  AL         326.064659       75.593092      -88.173214
  AL         326.548705       77.328755      -89.041070
  AL         327.032750       79.064418      -89.908925
  AL         327.516795       80.800081      -90.776781
  AL         328.000840       82.535745      -91.644637
  AL         328.484885       84.271408      -92.512492
  AL         328.968930       86.007071      -93.380348
  AL         329.452975       87.742734      -94.248203
  AL         329.937020       89.478398      -95.116059
  AL         330.421065       91.214061      -95.983915
  AL         330.905110       92.949724      -96.851770
  AL         331.389155       94.685388      -97.719626
  AL         331.873201       96.421051      -98.587482
  AL         332.357246       98.156714      -99.455337
  AL         332.841291       99.892377     -100.323193
  AL         333.325336      101.628041     -101.191048
  AL         333.809381      103.363704     -102.058904
  AL         334.293426      105.099367     -102.926760
  AL         334.777471      106.835030     -103.794615
  AL         335.261516      108.570694     -104.662471
  AL         335.745561      110.306357     -105.530327
  AL         336.229606      112.042020     -106.398182
  AL         336.713651      113.777683     -107.266038
  AL         337.197697      115.513347     -108.133893
  AL         337.681742      117.249010     -109.001749
  AL         338.165787      118.984673     -109.869605
  AL         338.649832      120.720337     -110.737460
  AL         339.133877      122.456000     -111.605316
  AL         339.617922      124.191663     -112.473172
  AL         340.101967      125.927326     -113.341027
  A          308.622184     -153.985398      121.141041
  A          307.125851     -154.583174      122.325800
  A          305.629519     -155.180950      123.510559
  A          304.133187     -155.778726      124.695318
  A          302.636855     -156.376502      125.880078
  A          301.140523     -156.974278      127.064837
  A          299.644191     -157.572054      128.249596
  A          298.147859     -158.169830      129.434355
  A          296.651527     -158.767606      130.619114
  A          295.155194     -159.365382      131.803873
  A          293.658862     -159.963158      132.988632
  A          292.162530     -160.560934      134.173391
  A          290.666198     -161.158709      135.358150
  A          289.169866     -161.756485      136.542909
  A          287.673534     -162.354261      137.727669
  A          286.177202     -162.952037      138.912428
  A          284.680870     -163.549813      140.097187
  A          283.184537     -164.147589      141.281946
  A          281.688205     -164.745365      142.466705
  A          280.191873     -165.343141      143.651464
  AL         278.695541     -165.940917      144.836223
  AL         277.199209     -166.538693      146.020982
  AL         275.702877     -167.136469      147.205741
  AL         274.206545     -167.734245      148.390500
  AL         272.710213     -168.332021      149.575260
  AL         271.213880     -168.929796      150.760019
  AL         269.717548     -169.527572      151.944778
  AL         268.221216     -170.125348      153.129537
  AL         266.724884     -170.723124      154.314296
  AL         265.228552     -171.320900      155.499055
  AL         263.732220     -171.918676      156.683814
  AL         262.235888     -172.516452      157.868573
  AL         260.739556     -173.114228      159.053332
  AL         259.243224     -173.712004      160.238091
  AL         257.746891     -174.309780      161.422851
  AL         256.250559     -174.907556      162.607610
  AL         254.754227     -175.505332      163.792369
  AL         253.257895     -176.103108      164.977128
  AL         251.761563     -176.700884      166.161887
  AL         250.265231     -177.298659      167.346646
  AL         248.768899     -177.896435      168.531405
  AL         247.272567     -178.494211      169.716164
  AL         245.776234     -179.091987      170.900923
  AL         244.279902     -179.689763      172.085682
  AL         242.783570     -180.287539      173.270442
  AL         241.287238     -180.885315      174.455201
  AL         239.790906     -181.483091      175.639960
  AL         238.294574     -182.080867      176.824719
  AL         236.798242     -182.678643      178.009478
  AL         235.301910     -183.276419      179.194237
  AL         233.805577     -183.874195      180.378996
  AL         232.309245     -184.471971      181.563755
  AL         230.812913     -185.069746      182.748514
  AL         229.316581     -185.667522      183.933273
  AL         227.820249     -186.265298      185.118033
  AL         226.323917     -186.863074      186.302792
  AL         224.827585     -187.460850      187.487551
  AL         223.331253     -188.058626      188.672310
  AL         221.834920     -188.656402      189.857069
  AL         220.338588     -189.254178      191.041828
  AL         218.842256     -189.851954      192.226587
  AL         217.345924     -190.449730      193.411346
  AL         215.849592     -191.047506      194.596105
  AL         214.353260     -191.645282      195.780864
  AL         212.856928     -192.243058      196.965624
  AL         211.360596     -192.840834      198.150383
  AL         209.864264     -193.438609      199.335142
  AL         208.367931     -194.036385      200.519901
  AL         206.871599     -194.634161      201.704660
  AL         205.375267     -195.231937      202.889419
  A         -202.946230      121.373666     -162.422667
  A         -203.743931      122.724831     -161.182495
  A         -204.541632      124.075995     -159.942323
  A         -205.339333      125.427160     -158.702151
  A         -206.137034      126.778325     -157.461978
  A         -206.934734      128.129490     -156.221806
  A         -207.732435      129.480654     -154.981634
  A         -208.530136      130.831819     -153.741461
  A         -209.327837      132.182984     -152.501289
  A         -210.125538      133.534148     -151.261117
  A         -210.923239      134.885313     -150.020944
  A         -211.720939      136.236478     -148.780772
  A         -212.518640      137.587642     -147.540600
  A         -213.316341      138.938807     -146.300427
  A         -214.114042      140.289972     -145.060255
  A         -214.911743      141.641137     -143.820083
  A         -215.709444      142.992301     -142.579911
  A         -216.507144      144.343466     -141.339738
  A         -217.304845      145.694631     -140.099566
  A         -218.102546      147.045795     -138.859394
  AL        -218.900247      148.396960     -137.619221
  AL        -219.697948      149.748125     -136.379049
  AL        -220.495649      151.099289     -135.138877
  AL        -221.293349      152.450454     -133.898704
  AL        -222.091050      153.801619     -132.658532
  AL        -222.888751      155.152783     -131.418360
  AL        -223.686452      156.503948     -130.178187
  AL        -224.484153      157.855113     -128.938015
  AL        -225.281854      159.206278     -127.697843
  AL        -226.079554      160.557442     -126.457671
  AL        -226.877255      161.908607     -125.217498
  AL        -227.674956      163.259772     -123.977326
  AL        -228.472657      164.610936     -122.737154
  AL        -229.270358      165.962101     -121.496981
  AL        -230.068058      167.313266     -120.256809
  AL        -230.865759      168.664430     -119.016637
  AL        -231.663460      170.015595     -117.776464
  AL        -232.461161      171.366760     -116.536292
  AL        -233.258862      172.717925     -115.296120
  AL        -234.056563      174.069089     -114.055947
  AL        -234.854263      175.420254     -112.815775
  AL        -235.651964      176.771419     -111.575603
  AL        -236.449665      178.122583     -110.335431
  AL        -237.247366      179.473748     -109.095258
  AL        -238.045067      180.824913     -107.855086
  AL        -238.842768      182.176077     -106.614914
  AL        -239.640468      183.527242     -105.374741
  AL        -240.438169      184.878407     -104.134569
  AL        -241.235870      186.229571     -102.894397
  AL        -242.033571      187.580736     -101.654224
  AL        -242.831272      188.931901     -100.414052
  AL        -243.628973      190.283066      -99.173880
  AL        -244.426673      191.634230      -97.933707
  AL        -245.224374      192.985395      -96.693535
  AL        -246.022075      194.336560      -95.453363
  AL        -246.819776      195.687724      -94.213191
  AL        -247.617477      197.038889      -92.973018
  AL        -248.415178      198.390054      -91.732846
  AL        -249.212878      199.741218      -90.492674
  AL        -250.010579      201.092383      -89.252501
  AL        -250.808280      202.443548      -88.012329
  AL        -251.605981      203.794712      -86.772157
  AL        -252.403682      205.145877      -85.531984
  AL        -253.201383      206.497042      -84.291812
  AL        -253.999083      207.848207      -83.051640
  AL        -254.796784      209.199371      -81.811467
  AL        -255.594485      210.550536      -80.571295
  AL        -256.392186      211.901701      -79.331123
  AL        -257.189887      213.252865      -78.090951
  AL        -257.987587      214.604030      -76.850778
  A          362.848251     -306.156033     -245.805087
  A          362.254759     -305.029772     -247.347586
  A          361.661267     -303.903512     -248.890085
  A          361.067776     -302.777251     -250.432585
  A          360.474284     -301.650990     -251.975084
  A          359.880792     -300.524729     -253.517584
  A          359.287301     -299.398469     -255.060083
  A          358.693809     -298.272208     -256.602582
  A          358.100317     -297.145947     -258.145082
  A          357.506826     -296.019686     -259.687581
  A          356.913334     -294.893426     -261.230081
  A          356.319842     -293.767165     -262.772580
  A          355.726351     -292.640904     -264.315079
  A          355.132859     -291.514643     -265.857579
  A          354.539368     -290.388382     -267.400078
  A          353.945876     -289.262122     -268.942578
  A          353.352384     -288.135861     -270.485077
  A          352.758893     -287.009600     -272.027576
  A          352.165401     -285.883339     -273.570076
  A          351.571909     -284.757079     -275.112575
  AL         350.978418     -283.630818     -276.655074
  AL         350.384926     -282.504557     -278.197574
  AL         349.791434     -281.378296     -279.740073
  AL         349.197943     -280.252036     -281.282573
  AL         348.604451     -279.125775     -282.825072
  AL         348.010959     -277.999514     -284.367571
  AL         347.417468     -276.873253     -285.910071
  AL         346.823976     -275.746993     -287.452570
  AL         346.230484     -274.620732     -288.995070
  AL         345.636993     -273.494471     -290.537569
  AL         345.043501     -272.368210     -292.080068
  AL         344.450009     -271.241950     -293.622568
  AL         343.856518     -270.115689     -295.165067
  AL         343.263026     -268.989428     -296.707567
  AL         342.669534     -267.863167     -298.250066
  AL         342.076043     -266.736907     -299.792565
  AL         341.482551     -265.610646     -301.335065
  AL         340.889059     -264.484385     -302.877564
  AL         340.295568     -263.358124     -304.420063
  AL         339.702076     -262.231864     -305.962563
  AL         339.108584     -261.105603     -307.505062
  AL         338.515093     -259.979342     -309.047562
  AL         337.921601     -258.853081     -310.590061
  AL         337.328109     -257.726821     -312.132560
  AL         336.734618     -256.600560     -313.675060
  AL         336.141126     -255.474299     -315.217559
  AL         335.547634     -254.348038     -316.760059
  AL         334.954143     -253.221778     -318.302558
  AL         334.360651     -252.095517     -319.845057
  AL         333.767159     -250.969256     -321.387557
  AL         333.173668     -249.842995     -322.930056
  AL         332.580176     -248.716735     -324.472556
  AL         331.986684     -247.590474     -326.015055
  AL         331.393193     -246.464213     -327.557554
  AL         330.799701     -245.337952     -329.100054
  AL         330.206210     -244.211692     -330.642553
  AL         329.612718     -243.085431     -332.185052
  AL         329.019226     -241.959170     -333.727552
  AL         328.425735     -240.832909     -335.270051
  AL         327.832243     -239.706649     -336.812551
  AL         327.238751     -238.580388     -338.355050
  AL         326.645260     -237.454127     -339.897549
  AL         326.051768     -236.327866     -341.440049
  AL         325.458276     -235.201606     -342.982548
  AL         324.864785     -234.075345     -344.525048
  AL         324.271293     -232.949084     -346.067547
  AL         323.677801     -231.822823     -347.610046
  AL         323.084310     -230.696563     -349.152546
  AL         322.490818     -229.570302     -350.695045
  AL         321.897326     -228.444041     -352.237545
  A          200.314699      -74.900383      -80.525820
  A          201.997914      -75.926462      -80.863386
  A          203.681129      -76.952541      -81.200953
  A          205.364343      -77.978619      -81.538519
  A          207.047558      -79.004698      -81.876085
  A          208.730772      -80.030777      -82.213651
  A          210.413987      -81.056856      -82.551218
  A          212.097201      -82.082935      -82.888784
  A          213.780416      -83.109014      -83.226350
  A          215.463630      -84.135093      -83.563917
  A          217.146845      -85.161171      -83.901483
  A          218.830059      -86.187250      -84.239049
  A          220.513274      -87.213329      -84.576615
  A          222.196488      -88.239408      -84.914182
  A          223.879703      -89.265487      -85.251748
  A          225.562917      -90.291566      -85.589314
  A          227.246132      -91.317645      -85.926881
  A          228.929347      -92.343723      -86.264447
  A          230.612561      -93.369802      -86.602013
  A          232.295776      -94.395881      -86.939579
  AL         233.978990      -95.421960      -87.277146
  AL         235.662205      -96.448039      -87.614712
  AL         237.345419      -97.474118      -87.952278
  AL         239.028634      -98.500197      -88.289845
  AL         240.711848      -99.526275      -88.627411
  AL         242.395063     -100.552354      -88.964977
  AL         244.078277     -101.578433      -89.302543
  AL         245.761492     -102.604512      -89.640110
  AL         247.444706     -103.630591      -89.977676
  AL         249.127921     -104.656670      -90.315242
  AL         250.811136     -105.682749      -90.652808
  AL         252.494350     -106.708828      -90.990375
  AL         254.177565     -107.734906      -91.327941
  AL         255.860779     -108.760985      -91.665507
  AL         257.543994     -109.787064      -92.003074
  AL         259.227208     -110.813143      -92.340640
  AL         260.910423     -111.839222      -92.678206
  AL         262.593637     -112.865301      -93.015772
  AL         264.276852     -113.891380      -93.353339
  AL         265.960066     -114.917458      -93.690905
  AL         267.643281     -115.943537      -94.028471
  AL         269.326495     -116.969616      -94.366038
  AL         271.009710     -117.995695      -94.703604
  AL         272.692924     -119.021774      -95.041170
  AL         274.376139     -120.047853      -95.378736
  AL         276.059354     -121.073932      -95.716303
  AL         277.742568     -122.100010      -96.053869
  AL         279.425783     -123.126089      -96.391435
  AL         281.108997     -124.152168      -96.729002
  AL         282.792212     -125.178247      -97.066568
  AL         284.475426     -126.204326      -97.404134
  AL         286.158641     -127.230405      -97.741700
  AL         287.841855     -128.256484      -98.079267
  AL         289.525070     -129.282562      -98.416833
  AL         291.208284     -130.308641      -98.754399
  AL         292.891499     -131.334720      -99.091966
  AL         294.574713     -132.360799      -99.429532
  AL         296.257928     -133.386878      -99.767098
  AL         297.941143     -134.412957     -100.104664
  AL         299.624357     -135.439036     -100.442231
  AL         301.307572     -136.465114     -100.779797
  AL         302.990786     -137.491193     -101.117363
  AL         304.674001     -138.517272     -101.454930
  AL         306.357215     -139.543351     -101.792496
  AL         308.040430     -140.569430     -102.130062
  AL         309.723644     -141.595509     -102.467628
  AL         311.406859     -142.621588     -102.805195
  AL         313.090073     -143.647667     -103.142761
  AL         314.773288     -144.673745     -103.480327
  AL         316.456502     -145.699824     -103.817893
  A           30.817920       88.992413     -218.483936
  A           31.582333       90.474760     -217.380160
  A           32.346746       91.957108     -216.276385
  A           33.111159       93.439455     -215.172610
  A           33.875572       94.921802     -214.068835
  A           34.639985       96.404149     -212.965060
  A           35.404398       97.886496     -211.861285
  A           36.168811       99.368843     -210.757510
  A           36.933224      100.851191     -209.653734
  A           37.697637      102.333538     -208.549959
  A           38.462050      103.815885     -207.446184
  A           39.226463      105.298232     -206.342409
  A           39.990876      106.780579     -205.238634
  A           40.755289      108.262926     -204.134859
  A           41.519702      109.745274     -203.031084
  A           42.284115      111.227621     -201.927308
  A           43.048528      112.709968     -200.823533
  A           43.812941      114.192315     -199.719758
  A           44.577354      115.674662     -198.615983
  A           45.341767      117.157010     -197.512208
  AL          46.106180      118.639357     -196.408433
  AL          46.870593      120.121704     -195.304657
  AL          47.635006      121.604051     -194.200882
  AL          48.399420      123.086398     -193.097107
  AL          49.163833      124.568745     -191.993332
  AL          49.928246      126.051093     -190.889557
  AL          50.692659      127.533440     -189.785782
  AL          51.457072      129.015787     -188.682007
  AL          52.221485      130.498134     -187.578231
  AL          52.985898      131.980481     -186.474456
  AL          53.750311      133.462828     -185.370681
  AL          54.514724      134.945176     -184.266906
  AL          55.279137      136.427523     -183.163131
  AL          56.043550      137.909870     -182.059356
  AL          56.807963      139.392217     -180.955581
  AL          57.572376      140.874564     -179.851805
  AL          58.336789      142.356912     -178.748030
  AL          59.101202      143.839259     -177.644255
  AL          59.865615      145.321606     -176.540480
  AL          60.630028      146.803953     -175.436705
  AL          61.394441      148.286300     -174.332930
  AL          62.158854      149.768647     -173.229155
  AL          62.923267      151.250995     -172.125379
  AL          63.687680      152.733342     -171.021604
  AL          64.452093      154.215689     -169.917829
  AL          65.216506      155.698036     -168.814054
  AL          65.980919      157.180383     -167.710279
  AL          66.745332      158.662730     -166.606504
  AL          67.509745      160.145078     -165.502729
  AL          68.274158      161.627425     -164.398953
  AL          69.038571      163.109772     -163.295178
  AL          69.802984      164.592119     -162.191403
  AL          70.567397      166.074466     -161.087628
  AL          71.331810      167.556814     -159.983853
  AL          72.096223      169.039161     -158.880078
  AL          72.860636      170.521508     -157.776303
  AL          73.625049      172.003855     -156.672527
  AL          74.389463      173.486202     -155.568752
  AL          75.153876      174.968549     -154.464977
  AL          75.918289      176.450897     -153.361202
  AL          76.682702      177.933244     -152.257427
  AL          77.447115      179.415591     -151.153652
  AL          78.211528      180.897938     -150.049877
  AL          78.975941      182.380285     -148.946101
  AL          79.740354      183.862632     -147.842326
  AL          80.504767      185.344980     -146.738551
  AL          81.269180      186.827327     -145.634776
  AL          82.033593      188.309674     -144.531001
  AL          82.798006      189.792021     -143.427226
  AL          83.562419      191.274368     -142.323451
  A         -155.031388      170.933107        7.385803
  A         -154.265594      171.204661        9.213320
  A         -153.499801      171.476214       11.040837
  A         -152.734008      171.747767       12.868354
  A         -151.968215      172.019320       14.695872
  A         -151.202422      172.290874       16.523389
  A         -150.436628      172.562427       18.350906
  A         -149.670835      172.833980       20.178424
  A         -148.905042      173.105534       22.005941
  A         -148.139249      173.377087       23.833458
  A         -147.373455      173.648640       25.660976
  A         -146.607662      173.920193       27.488493
  A         -145.841869      174.191747       29.316010
  A         -145.076076      174.463300       31.143528
  A         -144.310283      174.734853       32.971045
  A         -143.544489      175.006407       34.798562
  A         -142.778696      175.277960       36.626080
  A         -142.012903      175.549513       38.453597
  A         -141.247110      175.821067       40.281114
  A         -140.481316      176.092620       42.108632
  AL        -139.715523      176.364173       43.936149
  AL        -138.949730      176.635726       45.763666
  AL        -138.183937      176.907280       47.591183
  AL        -137.418143      177.178833       49.418701
  AL        -136.652350      177.450386       51.246218
  AL        -135.886557      177.721940       53.073735
  AL        -135.120764      177.993493       54.901253
  AL        -134.354971      178.265046       56.728770
  AL        -133.589177      178.536599       58.556287
  AL        -132.823384      178.808153       60.383805
  AL        -132.057591      179.079706       62.211322
  AL        -131.291798      179.351259       64.038839
  AL        -130.526004      179.622813       65.866357
  AL        -129.760211      179.894366       67.693874
  AL        -128.994418      180.165919       69.521391
  AL        -128.228625      180.437473       71.348909
  AL        -127.462832      180.709026       73.176426
  AL        -126.697038      180.980579       75.003943
  AL        -125.931245      181.252132       76.831461
  AL        -125.165452      181.523686       78.658978
  AL        -124.399659      181.795239       80.486495
  AL        -123.633865      182.066792       82.314012
  AL        -122.868072      182.338346       84.141530
  AL        -122.102279      182.609899       85.969047
  AL        -121.336486      182.881452       87.796564
  AL        -120.570692      183.153005       89.624082
  AL        -119.804899      183.424559       91.451599
  AL        -119.039106      183.696112       93.279116
  AL        -118.273313      183.967665       95.106634
  AL        -117.507520      184.239219       96.934151
  AL        -116.741726      184.510772       98.761668
  AL        -115.975933      184.782325      100.589186
  AL        -115.210140      185.053879      102.416703
  AL        -114.444347      185.325432      104.244220
  AL        -113.678553      185.596985      106.071738
  AL        -112.912760      185.868538      107.899255
  AL        -112.146967      186.140092      109.726772
  AL        -111.381174      186.411645      111.554290
  AL        -110.615381      186.683198      113.381807
  AL        -109.849587      186.954752      115.209324
  AL        -109.083794      187.226305      117.036842
  AL        -108.318001      187.497858      118.864359
  AL        -107.552208      187.769411      120.691876
  AL        -106.786414      188.040965      122.519393
  AL        -106.020621      188.312518      124.346911
  AL        -105.254828      188.584071      126.174428
  AL        -104.489035      188.855625      128.001945
  AL        -103.723241      189.127178      129.829463
  AL        -102.957448      189.398731      131.656980
  AL        -102.191655      189.670284      133.484497
  A          272.991910     -203.331763      386.459111
  A          273.100349     -201.334836      386.482000
  A          273.208788     -199.337909      386.504888
  A          273.317228     -197.340982      386.527777
  A          273.425667     -195.344055      386.550666
  A          273.534106     -193.347128      386.573555
  A          273.642546     -191.350202      386.596443
  A          273.750985     -189.353275      386.619332
  A          273.859424     -187.356348      386.642221
  A          273.967864     -185.359421      386.665110
  A          274.076303     -183.362494      386.687999
  A          274.184742     -181.365567      386.710887
  A          274.293182     -179.368640      386.733776
  A          274.401621     -177.371713      386.756665
  A          274.510060     -175.374786      386.779554
  A          274.618500     -173.377860      386.802442
  A          274.726939     -171.380933      386.825331
  A          274.835378     -169.384006      386.848220
  A          274.943818     -167.387079      386.871109
  A          275.052257     -165.390152      386.893998
  AL         275.160696     -163.393225      386.916886
  AL         275.269136     -161.396298      386.939775
  AL         275.377575     -159.399371      386.962664
  AL         275.486014     -157.402444      386.985553
  AL         275.594454     -155.405517      387.008442
  AL         275.702893     -153.408591      387.031330
  AL         275.811332     -151.411664      387.054219
  AL         275.919772     -149.414737      387.077108
  AL         276.028211     -147.417810      387.099997
  AL         276.136650     -145.420883      387.122885
  AL         276.245090     -143.423956      387.145774
  AL         276.353529     -141.427029      387.168663
  AL         276.461968     -139.430102      387.191552
  AL         276.570408     -137.433175      387.214441
  AL         276.678847     -135.436249      387.237329
  AL         276.787286     -133.439322      387.260218
  AL         276.895726     -131.442395      387.283107
  AL         277.004165     -129.445468      387.305996
  AL         277.112604     -127.448541      387.328884
  AL         277.221044     -125.451614      387.351773
  AL         277.329483     -123.454687      387.374662
  AL         277.437922     -121.457760      387.397551
  AL         277.546362     -119.460833      387.420440
  AL         277.654801     -117.463907      387.443328
  AL         277.763240     -115.466980      387.466217
  AL         277.871680     -113.470053      387.489106
  AL         277.980119     -111.473126      387.511995
  AL         278.088558     -109.476199      387.534883
  AL         278.196998     -107.479272      387.557772
  AL         278.305437     -105.482345      387.580661
  AL         278.413876     -103.485418      387.603550
  AL         278.522316     -101.488491      387.626439
  AL         278.630755      -99.491564      387.649327
  AL         278.739194      -97.494638      387.672216
  AL         278.847634      -95.497711      387.695105
  AL         278.956073      -93.500784      387.717994
  AL         279.064512      -91.503857      387.740882
  AL         279.172952      -89.506930      387.763771
  AL         279.281391      -87.510003      387.786660
  AL         279.389830      -85.513076      387.809549
  AL         279.498270      -83.516149      387.832438
  AL         279.606709      -81.519222      387.855326
  AL         279.715148      -79.522296      387.878215
  AL         279.823588      -77.525369      387.901104
  AL         279.932027      -75.528442      387.923993
  AL         280.040466      -73.531515      387.946881
  AL         280.148906      -71.534588      387.969770
  AL         280.257345      -69.537661      387.992659
  AL         280.365784      -67.540734      388.015548
  AL         280.474224      -65.543807      388.038437
  A          192.543845      199.389589       75.867627
  A          194.132174      200.149290       74.918909
  A          195.720503      200.908991       73.970191
  A          197.308832      201.668692       73.021473
  A          198.897161      202.428393       72.072755
  A          200.485490      203.188094       71.124037
  A          202.073819      203.947795       70.175320
  A          203.662148      204.707496       69.226602
  A          205.250477      205.467197       68.277884
  A          206.838806      206.226898       67.329166
  A          208.427135      206.986599       66.380448
  A          210.015464      207.746300       65.431730
  A          211.603793      208.506001       64.483013
  A          213.192122      209.265703       63.534295
  A          214.780450      210.025404       62.585577
  A          216.368779      210.785105       61.636859
  A          217.957108      211.544806       60.688141
  A          219.545437      212.304507       59.739423
  A          221.133766      213.064208       58.790706
  A          222.722095      213.823909       57.841988
  AL         224.310424      214.583610       56.893270
  AL         225.898753      215.343311       55.944552
  AL         227.487082      216.103012       54.995834
  AL         229.075411      216.862713       54.047116
  AL         230.663740      217.622414       53.098399
  AL         232.252069      218.382115       52.149681
  AL         233.840398      219.141816       51.200963
  AL         235.428727      219.901517       50.252245
  AL         237.017056      220.661218       49.303527
  AL         238.605385      221.420919       48.354809
  AL         240.193713      222.180620       47.406091
  AL         241.782042      222.940321       46.457374
  AL         243.370371      223.700022       45.508656
  AL         244.958700      224.459723       44.559938
  AL         246.547029      225.219424       43.611220
  AL         248.135358      225.979125       42.662502
  AL         249.723687      226.738826       41.713784
  AL         251.312016      227.498527       40.765067
  AL         252.900345      228.258228       39.816349
  AL         254.488674      229.017929       38.867631
  AL         256.077003      229.777630       37.918913
  AL         257.665332      230.537331       36.970195
  AL         259.253661      231.297032       36.021477
  AL         260.841990      232.056733       35.072760
  AL         262.430319      232.816435       34.124042
  AL         264.018648      233.576136       33.175324
  AL         265.606976      234.335837       32.226606
  AL         267.195305      235.095538       31.277888
  AL         268.783634      235.855239       30.329170
  AL         270.371963      236.614940       29.380453
  AL         271.960292      237.374641       28.431735
  AL         273.548621      238.134342       27.483017
  AL         275.136950      238.894043       26.534299
  AL         276.725279      239.653744       25.585581
  AL         278.313608      240.413445       24.636863
  AL         279.901937      241.173146       23.688146
  AL         281.490266      241.932847       22.739428
  AL         283.078595      242.692548       21.790710
  AL         284.666924      243.452249       20.841992
  AL         286.255253      244.211950       19.893274
  AL         287.843582      244.971651       18.944556
  AL         289.431911      245.731352       17.995839
  AL         291.020239      246.491053       17.047121
  AL         292.608568      247.250754       16.098403
  AL         294.196897      248.010455       15.149685
  AL         295.785226      248.770156       14.200967
  AL         297.373555      249.529857       13.252249
  AL         298.961884      250.289558       12.303532
  AL         300.550213      251.049259       11.354814
  AL         302.138542      251.808960       10.406096
  A          138.697587      -32.184068      303.215639
  A          137.068395      -31.423737      304.091783
  A          135.439202      -30.663407      304.967927
  A          133.810009      -29.903076      305.844071
  A          132.180816      -29.142746      306.720215
  A          130.551624      -28.382415      307.596359
  A          128.922431      -27.622085      308.472503
  A          127.293238      -26.861754      309.348647
  A          125.664045      -26.101424      310.224791
  A          124.034852      -25.341093      311.100935
  A          122.405660      -24.580762      311.977079
  A          120.776467      -23.820432      312.853223
  A          119.147274      -23.060101      313.729367
  A          117.518081      -22.299771      314.605511
  A          115.888889      -21.539440      315.481655
  A          114.259696      -20.779110      316.357799
  A          112.630503      -20.018779      317.233943
  A          111.001310      -19.258449      318.110087
  A          109.372117      -18.498118      318.986231
  A          107.742925      -17.737788      319.862375
  AL         106.113732      -16.977457      320.738520
  AL         104.484539      -16.217127      321.614664
  AL         102.855346      -15.456796      322.490808
  AL         101.226154      -14.696466      323.366952
  AL          99.596961      -13.936135      324.243096
  AL          97.967768      -13.175804      325.119240
  AL          96.338575      -12.415474      325.995384
  AL          94.709382      -11.655143      326.871528
  AL          93.080190      -10.894813      327.747672
  AL          91.450997      -10.134482      328.623816
  AL          89.821804       -9.374152      329.499960
  AL          88.192611       -8.613821      330.376104
  AL          86.563418       -7.853491      331.252248
  AL          84.934226       -7.093160      332.128392
  AL          83.305033       -6.332830      333.004536
  AL          81.675840       -5.572499      333.880680
  AL          80.046647       -4.812169      334.756824
  AL          78.417455       -4.051838      335.632968
  AL          76.788262       -3.291508      336.509112
  AL          75.159069       -2.531177      337.385256
  AL          73.529876       -1.770846      338.261400
  AL          71.900683       -1.010516      339.137544
  AL          70.271491       -0.250185      340.013688
  AL          68.642298        0.510145      340.889832
  AL          67.013105        1.270476      341.765976
  AL          65.383912        2.030806      342.642120
  AL          63.754720        2.791137      343.518264
  AL          62.125527        3.551467      344.394408
  AL          60.496334        4.311798      345.270552
  AL          58.867141        5.072128      346.146696
  AL          57.237948        5.832459      347.022840
  AL          55.608756        6.592789      347.898984
  AL          53.979563        7.353120      348.775129
  AL          52.350370        8.113450      349.651273
  AL          50.721177        8.873781      350.527417
  AL          49.091985        9.634112      351.403561
  AL          47.462792       10.394442      352.279705
  AL          45.833599       11.154773      353.155849
  AL          44.204406       11.915103      354.031993
  AL          42.575213       12.675434      354.908137
  AL          40.946021       13.435764      355.784281
  AL          39.316828       14.196095      356.660425
  AL          37.687635       14.956425      357.536569
  AL          36.058442       15.716756      358.412713
  AL          34.429249       16.477086      359.288857
  AL          32.800057       17.237417      360.165001
  AL          31.170864       17.997747      361.041145
  AL          29.541671       18.758078      361.917289
  AL          27.912478       19.518408      362.793433
  AL          26.283286       20.278739      363.669577
  A           95.190735       45.159366      325.842864
  A           93.406707       44.265162      325.975704
  A           91.622680       43.370959      326.108544
  A           89.838653       42.476755      326.241384
  A           88.054626       41.582551      326.374224
  A           86.270599       40.688347      326.507064
  A           84.486571       39.794144      326.639904
  A           82.702544       38.899940      326.772744
  A           80.918517       38.005736      326.905584
  A           79.134490       37.111532      327.038424
  A           77.350462       36.217329      327.171264
  A           75.566435       35.323125      327.304105
  A           73.782408       34.428921      327.436945
  A           71.998381       33.534717      327.569785
  A           70.214354       32.640513      327.702625
  A           68.430326       31.746310      327.835465
  A           66.646299       30.852106      327.968305
  A           64.862272       29.957902      328.101145
  A           63.078245       29.063698      328.233985
  A           61.294217       28.169495      328.366825
  AL          59.510190       27.275291      328.499665
  AL          57.726163       26.381087      328.632505
  AL          55.942136       25.486883      328.765345
  AL          54.158108       24.592680      328.898186
  AL          52.374081       23.698476      329.031026
  AL          50.590054       22.804272      329.163866
  AL          48.806027       21.910068      329.296706
  AL          47.022000       21.015865      329.429546
  AL          45.237972       20.121661      329.562386
  AL          43.453945       19.227457      329.695226
  AL          41.669918       18.333253      329.828066
  AL          39.885891       17.439050      329.960906
  AL          38.101863       16.544846      330.093746
  AL          36.317836       15.650642      330.226586
  AL          34.533809       14.756438      330.359426
  AL          32.749782       13.862235      330.492267
  AL          30.965755       12.968031      330.625107
  AL          29.181727       12.073827      330.757947
  AL          27.397700       11.179623      330.890787
  AL          25.613673       10.285420      331.023627
  AL          23.829646        9.391216      331.156467
  AL          22.045618        8.497012      331.289307
  AL          20.261591        7.602808      331.422147
  AL          18.477564        6.708604      331.554987
  AL          16.693537        5.814401      331.687827
  AL          14.909509        4.920197      331.820667
  AL          13.125482        4.025993      331.953507
  AL          11.341455        3.131789      332.086347
  AL           9.557428        2.237586      332.219188
  AL           7.773401        1.343382      332.352028
  AL           5.989373        0.449178      332.484868
  AL           4.205346       -0.445026      332.617708
  AL           2.421319       -1.339229      332.750548
  AL           0.637292       -2.233433      332.883388
  AL          -1.146736       -3.127637      333.016228
  AL          -2.930763       -4.021841      333.149068
  AL          -4.714790       -4.916044      333.281908
  AL          -6.498817       -5.810248      333.414748
  AL          -8.282845       -6.704452      333.547588
  AL         -10.066872       -7.598656      333.680428
  AL         -11.850899       -8.492859      333.813269
  AL         -13.634926       -9.387063      333.946109
  AL         -15.418953      -10.281267      334.078949
  AL         -17.202981      -11.175471      334.211789
  AL         -18.987008      -12.069674      334.344629
  AL         -20.771035      -12.963878      334.477469
  AL         -22.555062      -13.858082      334.610309
  AL         -24.339090      -14.752286      334.743149
  AL         -26.123117      -15.646489      334.875989
  AL         -27.907144      -16.540693      335.008829
  A           29.942616      -98.268663      -65.038811
  A           28.046749      -97.941923      -65.585555
  A           26.150882      -97.615184      -66.132300
  A           24.255015      -97.288444      -66.679045
  A           22.359148      -96.961705      -67.225790
  A           20.463281      -96.634966      -67.772535
  A           18.567414      -96.308226      -68.319279
  A           16.671547      -95.981487      -68.866024
  A           14.775680      -95.654747      -69.412769
  A           12.879813      -95.328008      -69.959514
  A           10.983946      -95.001269      -70.506259
  A            9.088079      -94.674529      -71.053003
  A            7.192212      -94.347790      -71.599748
  A            5.296345      -94.021050      -72.146493
  A            3.400479      -93.694311      -72.693238
  A            1.504612      -93.367571      -73.239983
  A           -0.391255      -93.040832      -73.786727
  A           -2.287122      -92.714093      -74.333472
  A           -4.182989      -92.387353      -74.880217
  A           -6.078856      -92.060614      -75.426962
  AL          -7.974723      -91.733874      -75.973707
  AL          -9.870590      -91.407135      -76.520451
  AL         -11.766457      -91.080396      -77.067196
  AL         -13.662324      -90.753656      -77.613941
  AL         -15.558191      -90.426917      -78.160686
  AL         -17.454058      -90.100177      -78.707431
  AL         -19.349925      -89.773438      -79.254175
  AL         -21.245792      -89.446698      -79.800920
  AL         -23.141659      -89.119959      -80.347665
  AL         -25.037526      -88.793220      -80.894410
  AL         -26.933393      -88.466480      -81.441155
  AL         -28.829260      -88.139741      -81.987899
  AL         -30.725126      -87.813001      -82.534644
  AL         -32.620993      -87.486262      -83.081389
  AL         -34.516860      -87.159523      -83.628134
  AL         -36.412727      -86.832783      -84.174879
  AL         -38.308594      -86.506044      -84.721623
  AL         -40.204461      -86.179304      -85.268368
  AL         -42.100328      -85.852565      -85.815113
  AL         -43.996195      -85.525826      -86.361858
  AL         -45.892062      -85.199086      -86.908603
  AL         -47.787929      -84.872347      -87.455347
  AL         -49.683796      -84.545607      -88.002092
  AL         -51.579663      -84.218868      -88.548837
  AL         -53.475530      -83.892128      -89.095582
  AL         -55.371397      -83.565389      -89.642327
  AL         -57.267264      -83.238650      -90.189071
  AL         -59.163131      -82.911910      -90.735816
  AL         -61.058998      -82.585171      -91.282561
  AL         -62.954865      -82.258431      -91.829306
  AL         -64.850732      -81.931692      -92.376051
  AL         -66.746598      -81.604953      -92.922795
  AL         -68.642465      -81.278213      -93.469540
  AL         -70.538332      -80.951474      -94.016285
  AL         -72.434199      -80.624734      -94.563030
  AL         -74.330066      -80.297995      -95.109775
  AL         -76.225933      -79.971255      -95.656519
  AL         -78.121800      -79.644516      -96.203264
  AL         -80.017667      -79.317777      -96.750009
  AL         -81.913534      -78.991037      -97.296754
  AL         -83.809401      -78.664298      -97.843499
  AL         -85.705268      -78.337558      -98.390243
  AL         -87.601135      -78.010819      -98.936988
  AL         -89.497002      -77.684080      -99.483733
  AL         -91.392869      -77.357340     -100.030478
  AL         -93.288736      -77.030601     -100.577223
  AL         -95.184603      -76.703861     -101.123967
  AL         -97.080470      -76.377122     -101.670712
  AL         -98.976337      -76.050383     -102.217457
  AL        -100.872204      -75.723643     -102.764202
  A           10.305050     -290.169728       39.211366
  A           11.432620     -289.155547       37.907517
  A           12.560191     -288.141366       36.603668
  A           13.687761     -287.127184       35.299820
  A           14.815332     -286.113003       33.995971
  A           15.942903     -285.098822       32.692123
  A           17.070473     -284.084641       31.388274
  A           18.198044     -283.070460       30.084426
  A           19.325614     -282.056278       28.780577
  A           20.453185     -281.042097       27.476729
  A           21.580756     -280.027916       26.172880
  A           22.708326     -279.013735       24.869032
  A           23.835897     -277.999554       23.565183
  A           24.963467     -276.985372       22.261335
  A           26.091038     -275.971191       20.957486
  A           27.218609     -274.957010       19.653637
  A           28.346179     -273.942829       18.349789
  A           29.473750     -272.928648       17.045940
  A           30.601321     -271.914466       15.742092
  A           31.728891     -270.900285       14.438243
  AL          32.856462     -269.886104       13.134395
  AL          33.984032     -268.871923       11.830546
  AL          35.111603     -267.857742       10.526698
  AL          36.239174     -266.843560        9.222849
  AL          37.366744     -265.829379        7.919001
  AL          38.494315     -264.815198        6.615152
  AL          39.621885     -263.801017        5.311304
  AL          40.749456     -262.786835        4.007455
  AL          41.877027     -261.772654        2.703606
  AL          43.004597     -260.758473        1.399758
  AL          44.132168     -259.744292        0.095909
  AL          45.259738     -258.730111       -1.207939
  AL          46.387309     -257.715929       -2.511788
  AL          47.514880     -256.701748       -3.815636
  AL          48.642450     -255.687567       -5.119485
  AL          49.770021     -254.673386       -6.423333
  AL          50.897591     -253.659205       -7.727182
  AL          52.025162     -252.645023       -9.031030
  AL          53.152733     -251.630842      -10.334879
  AL          54.280303     -250.616661      -11.638727
  AL          55.407874     -249.602480      -12.942576
  AL          56.535444     -248.588299      -14.246425
  AL          57.663015     -247.574117      -15.550273
  AL          58.790586     -246.559936      -16.854122
  AL          59.918156     -245.545755      -18.157970
  AL          61.045727     -244.531574      -19.461819
  AL          62.173297     -243.517393      -20.765667
  AL          63.300868     -242.503211      -22.069516
  AL          64.428439     -241.489030      -23.373364
  AL          65.556009     -240.474849      -24.677213
  AL          66.683580     -239.460668      -25.981061
  AL          67.811150     -238.446487      -27.284910
  AL          68.938721     -237.432305      -28.588758
  AL          70.066292     -236.418124      -29.892607
  AL          71.193862     -235.403943      -31.196456
  AL          72.321433     -234.389762      -32.500304
  AL          73.449003     -233.375580      -33.804153
  AL          74.576574     -232.361399      -35.108001
  AL          75.704145     -231.347218      -36.411850
  AL          76.831715     -230.333037      -37.715698
  AL          77.959286     -229.318856      -39.019547
  AL          79.086856     -228.304674      -40.323395
  AL          80.214427     -227.290493      -41.627244
  AL          81.341998     -226.276312      -42.931092
  AL          82.469568     -225.262131      -44.234941
  AL          83.597139     -224.247950      -45.538789
  AL          84.724710     -223.233768      -46.842638
  AL          85.852280     -222.219587      -48.146487
  AL          86.979851     -221.205406      -49.450335
  AL          88.107421     -220.191225      -50.754184
  A         -392.128473       52.281623     -135.528670
  A         -391.053932       50.601969     -135.373339
  A         -389.979392       48.922316     -135.218007
  A         -388.904851       47.242663     -135.062676
  A         -387.830310       45.563010     -134.907345
  A         -386.755770       43.883357     -134.752014
  A         -385.681229       42.203704     -134.596683
  A         -384.606689       40.524050     -134.441352
  A         -383.532148       38.844397     -134.286021
  A         -382.457607       37.164744     -134.130690
  A         -381.383067       35.485091     -133.975358
  A         -380.308526       33.805438     -133.820027
  A         -379.233986       32.125785     -133.664696
  A         -378.159445       30.446131     -133.509365
  A         -377.084904       28.766478     -133.354034
  A         -376.010364       27.086825     -133.198703
  A         -374.935823       25.407172     -133.043372
  A         -373.861283       23.727519     -132.888041
  A         -372.786742       22.047866     -132.732709
  A         -371.712201       20.368212     -132.577378
  AL        -370.637661       18.688559     -132.422047
  AL        -369.563120       17.008906     -132.266716
  AL        -368.488580       15.329253     -132.111385
  AL        -367.414039       13.649600     -131.956054
  AL        -366.339498       11.969947     -131.800723
  AL        -365.264958       10.290293     -131.645392
  AL        -364.190417        8.610640     -131.490060
  AL        -363.115877        6.930987     -131.334729
  AL        -362.041336        5.251334     -131.179398
  AL        -360.966795        3.571681     -131.024067
  AL        -359.892255        1.892028     -130.868736
  AL        -358.817714        0.212374     -130.713405
  AL        -357.743174       -1.467279     -130.558074
  AL        -356.668633       -3.146932     -130.402743
  AL        -355.594092       -4.826585     -130.247411
  AL        -354.519552       -6.506238     -130.092080
  AL        -353.445011       -8.185891     -129.936749
  AL        -352.370471       -9.865545     -129.781418
  AL        -351.295930      -11.545198     -129.626087
  AL        -350.221389      -13.224851     -129.470756
  AL        -349.146849      -14.904504     -129.315425
  AL        -348.072308      -16.584157     -129.160094
  AL        -346.997768      -18.263810     -129.004762
  AL        -345.923227      -19.943463     -128.849431
  AL        -344.848686      -21.623117     -128.694100
  AL        -343.774146      -23.302770     -128.538769
  AL        -342.699605      -24.982423     -128.383438
  AL        -341.625065      -26.662076     -128.228107
  AL        -340.550524      -28.341729     -128.072776
  AL        -339.475984      -30.021382     -127.917445
  AL        -338.401443      -31.701036     -127.762114
  AL        -337.326902      -33.380689     -127.606782
  AL        -336.252362      -35.060342     -127.451451
  AL        -335.177821      -36.739995     -127.296120
  AL        -334.103281      -38.419648     -127.140789
  AL        -333.028740      -40.099301     -126.985458
  AL        -331.954199      -41.778955     -126.830127
  AL        -330.879659      -43.458608     -126.674796
  AL        -329.805118      -45.138261     -126.519465
  AL        -328.730578      -46.817914     -126.364133
  AL        -327.656037      -48.497567     -126.208802
  AL        -326.581496      -50.177220     -126.053471
  AL        -325.506956      -51.856874     -125.898140
  AL        -324.432415      -53.536527     -125.742809
  AL        -323.357875      -55.216180     -125.587478
  AL        -322.283334      -56.895833     -125.432147
  AL        -321.208793      -58.575486     -125.276816
  AL        -320.134253      -60.255139     -125.121484
  AL        -319.059712      -61.934793     -124.966153
  AL        -317.985172      -63.614446     -124.810822
  A         -193.075775      -21.099792        4.275546
  A         -191.545457      -20.184834        5.181625
  A         -190.015139      -19.269877        6.087704
  A         -188.484821      -18.354919        6.993783
  A         -186.954502      -17.439962        7.899862
  A         -185.424184      -16.525005        8.805942
  A         -183.893866      -15.610047        9.712021
  A         -182.363548      -14.695090       10.618100
  A         -180.833230      -13.780132       11.524179
  A         -179.302912      -12.865175       12.430258
  A         -177.772593      -11.950218       13.336337
  A         -176.242275      -11.035260       14.242416
  A         -174.711957      -10.120303       15.148495
  A         -173.181639       -9.205345       16.054574
  A         -171.651321       -8.290388       16.960653
  A         -170.121003       -7.375431       17.866732
  A         -168.590684       -6.460473       18.772811
  A         -167.060366       -5.545516       19.678890
  A         -165.530048       -4.630558       20.584969
  A         -163.999730       -3.715601       21.491048
  AL        -162.469412       -2.800643       22.397127
  AL        -160.939094       -1.885686       23.303206
  AL        -159.408775       -0.970729       24.209285
  AL        -157.878457       -0.055771       25.115364
  AL        -156.348139        0.859186       26.021443
  AL        -154.817821        1.774144       26.927522
  AL        -153.287503        2.689101       27.833602
  AL        -151.757185        3.604058       28.739681
  AL        -150.226866        4.519016       29.645760
  AL        -148.696548        5.433973       30.551839
  AL        -147.166230        6.348931       31.457918
  AL        -145.635912        7.263888       32.363997
  AL        -144.105594        8.178845       33.270076
  AL        -142.575276        9.093803       34.176155
  AL        -141.044957       10.008760       35.082234
  AL        -139.514639       10.923718       35.988313
  AL        -137.984321       11.838675       36.894392
  AL        -136.454003       12.753633       37.800471
  AL        -134.923685       13.668590       38.706550
  AL        -133.393367       14.583547       39.612629
  AL        -131.863048       15.498505       40.518708
  AL        -130.332730       16.413462       41.424787
  AL        -128.802412       17.328420       42.330866
  AL        -127.272094       18.243377       43.236945
  AL        -125.741776       19.158334       44.143024
  AL        -124.211458       20.073292       45.049103
  AL        -122.681139       20.988249       45.955183
  AL        -121.150821       21.903207       46.861262
  AL        -119.620503       22.818164       47.767341
  AL        -118.090185       23.733122       48.673420
  AL        -116.559867       24.648079       49.579499
  AL        -115.029549       25.563036       50.485578
  AL        -113.499230       26.477994       51.391657
  AL        -111.968912       27.392951       52.297736
  AL        -110.438594       28.307909       53.203815
  AL        -108.908276       29.222866       54.109894
  AL        -107.377958       30.137823       55.015973
  AL        -105.847640       31.052781       55.922052
  AL        -104.317321       31.967738       56.828131
  AL        -102.787003       32.882696       57.734210
  AL        -101.256685       33.797653       58.640289
  AL         -99.726367       34.712610       59.546368
  AL         -98.196049       35.627568       60.452447
  AL         -96.665731       36.542525       61.358526
  AL         -95.135412       37.457483       62.264605
  AL         -93.605094       38.372440       63.170684
  AL         -92.074776       39.287398       64.076763
  AL         -90.544458       40.202355       64.982843
  AL         -89.014140       41.117312       65.888922
  AL         -87.483822       42.032270       66.795001
  A         -293.049387      170.136701       20.375488
  A         -294.110842      169.595910       21.981993
  A         -295.172298      169.055120       23.588497
  A         -296.233754      168.514329       25.195002
  A         -297.295209      167.973539       26.801507
  A         -298.356665      167.432749       28.408012
  A         -299.418121      166.891958       30.014516
  A         -300.479576      166.351168       31.621021
  A         -301.541032      165.810377       33.227526
  A         -302.602488      165.269587       34.834031
  A         -303.663943      164.728796       36.440536
  A         -304.725399      164.188006       38.047040
  A         -305.786855      163.647215       39.653545
  A         -306.848311      163.106425       41.260050
  A         -307.909766      162.565635       42.866555
  A         -308.971222      162.024844       44.473059
  A         -310.032678      161.484054       46.079564
  A         -311.094133      160.943263       47.686069
  A         -312.155589      160.402473       49.292574
  A         -313.217045      159.861682       50.899078
  AL        -314.278500      159.320892       52.505583
  AL        -315.339956      158.780101       54.112088
  AL        -316.401412      158.239311       55.718593
  AL        -317.462867      157.698521       57.325097
  AL        -318.524323      157.157730       58.931602
  AL        -319.585779      156.616940       60.538107
  AL        -320.647234      156.076149       62.144612
  AL        -321.708690      155.535359       63.751116
  AL        -322.770146      154.994568       65.357621
  AL        -323.831602      154.453778       66.964126
  AL        -324.893057      153.912988       68.570631
  AL        -325.954513      153.372197       70.177135
  AL        -327.015969      152.831407       71.783640
  AL        -328.077424      152.290616       73.390145
  AL        -329.138880      151.749826       74.996650
  AL        -330.200336      151.209035       76.603154
  AL        -331.261791      150.668245       78.209659
  AL        -332.323247      150.127454       79.816164
  AL        -333.384703      149.586664       81.422669
  AL        -334.446158      149.045874       83.029173
  AL        -335.507614      148.505083       84.635678
  AL        -336.569070      147.964293       86.242183
  AL        -337.630525      147.423502       87.848688
  AL        -338.691981      146.882712       89.455192
  AL        -339.753437      146.341921       91.061697
  AL        -340.814892      145.801131       92.668202
  AL        -341.876348      145.260340       94.274707
  AL        -342.937804      144.719550       95.881211
  AL        -343.999260      144.178760       97.487716
  AL        -345.060715      143.637969       99.094221
  AL        -346.122171      143.097179      100.700726
  AL        -347.183627      142.556388      102.307230
  AL        -348.245082      142.015598      103.913735
  AL        -349.306538      141.474807      105.520240
  AL        -350.367994      140.934017      107.126745
  AL        -351.429449      140.393226      108.733249
  AL        -352.490905      139.852436      110.339754
  AL        -353.552361      139.311646      111.946259
  AL        -354.613816      138.770855      113.552764
  AL        -355.675272      138.230065      115.159268
  AL        -356.736728      137.689274      116.765773
  AL        -357.798183      137.148484      118.372278
  AL        -358.859639      136.607693      119.978783
  AL        -359.921095      136.066903      121.585287
  AL        -360.982551      135.526113      123.191792
  AL        -362.044006      134.985322      124.798297
  AL        -363.105462      134.444532      126.404802
  AL        -364.166918      133.903741      128.011307
  AL        -365.228373      133.362951      129.617811
  AL        -366.289829      132.822160      131.224316
  A           99.567167       87.241353     -239.605082
  A          100.452723       86.597650     -241.278831
  A          101.338280       85.953947     -242.952580
  A          102.223837       85.310244     -244.626329
  A          103.109393       84.666541     -246.300078
  A          103.994950       84.022838     -247.973828
  A          104.880506       83.379136     -249.647577
  A          105.766063       82.735433     -251.321326
  A          106.651620       82.091730     -252.995075
  A          107.537176       81.448027     -254.668824
  A          108.422733       80.804324     -256.342573
  A          109.308289       80.160621     -258.016322
  A          110.193846       79.516918     -259.690071
  A          111.079403       78.873216     -261.363821
  A          111.964959       78.229513     -263.037570
  A          112.850516       77.585810     -264.711319
  A          113.736072       76.942107     -266.385068
  A          114.621629       76.298404     -268.058817
  A          115.507186       75.654701     -269.732566
  A          116.392742       75.010998     -271.406315
  AL         117.278299       74.367296     -273.080065
  AL         118.163855       73.723593     -274.753814
  AL         119.049412       73.079890     -276.427563
  AL         119.934969       72.436187     -278.101312
  AL         120.820525       71.792484     -279.775061
  AL         121.706082       71.148781     -281.448810
  AL         122.591638       70.505079     -283.122559
  AL         123.477195       69.861376     -284.796308
  AL         124.362752       69.217673     -286.470058
  AL         125.248308       68.573970     -288.143807
  AL         126.133865       67.930267     -289.817556
  AL         127.019421       67.286564     -291.491305
  AL         127.904978       66.642861     -293.165054
  AL         128.790534       65.999159     -294.838803
  AL         129.676091       65.355456     -296.512552
  AL         130.561648       64.711753     -298.186302
  AL         131.447204       64.068050     -299.860051
  AL         132.332761       63.424347     -301.533800
  AL         133.218317       62.780644     -303.207549
  AL         134.103874       62.136942     -304.881298
  AL         134.989431       61.493239     -306.555047
  AL         135.874987       60.849536     -308.228796
  AL         136.760544       60.205833     -309.902545
  AL         137.646100       59.562130     -311.576295
  AL         138.531657       58.918427     -313.250044
  AL         139.417214       58.274724     -314.923793
  AL         140.302770       57.631022     -316.597542
  AL         141.188327       56.987319     -318.271291
  AL         142.073883       56.343616     -319.945040
  AL         142.959440       55.699913     -321.618789
  AL         143.844997       55.056210     -323.292539
  AL         144.730553       54.412507     -324.966288
  AL         145.616110       53.768805     -326.640037
  AL         146.501666       53.125102     -328.313786
  AL         147.387223       52.481399     -329.987535
  AL         148.272780       51.837696     -331.661284
  AL         149.158336       51.193993     -333.335033
  AL         150.043893       50.550290     -335.008782
  AL         150.929449       49.906587     -336.682532
  AL         151.815006       49.262885     -338.356281
  AL         152.700563       48.619182     -340.030030
  AL         153.586119       47.975479     -341.703779
  AL         154.471676       47.331776     -343.377528
  AL         155.357232       46.688073     -345.051277
  AL         156.242789       46.044370     -346.725026
  AL         157.128346       45.400667     -348.398776
  AL         158.013902       44.756965     -350.072525
  AL         158.899459       44.113262     -351.746274
  AL         159.785015       43.469559     -353.420023
  AL         160.670572       42.825856     -355.093772
  A          249.613399     -151.014573        1.269506
  A          251.295323     -151.988321        0.797334
  A          252.977247     -152.962069        0.325162
  A          254.659171     -153.935816       -0.147009
  A          256.341096     -154.909564       -0.619181
  A          258.023020     -155.883312       -1.091353
  A          259.704944     -156.857059       -1.563525
  A          261.386868     -157.830807       -2.035697
  A          263.068793     -158.804555       -2.507869
  A          264.750717     -159.778302       -2.980041
  A          266.432641     -160.752050       -3.452213
  A          268.114565     -161.725798       -3.924385
  A          269.796490     -162.699545       -4.396557
  A          271.478414     -163.673293       -4.868729
  A          273.160338     -164.647041       -5.340901
  A          274.842262     -165.620788       -5.813073
  A          276.524186     -166.594536       -6.285245
  A          278.206111     -167.568283       -6.757417
  A          279.888035     -168.542031       -7.229589
  A          281.569959     -169.515779       -7.701761
  AL         283.251883     -170.489526       -8.173933
  AL         284.933808     -171.463274       -8.646105
  AL         286.615732     -172.437022       -9.118277
  AL         288.297656     -173.410769       -9.590449
  AL         289.979580     -174.384517      -10.062621
  AL         291.661505     -175.358265      -10.534793
  AL         293.343429     -176.332012      -11.006965
  AL         295.025353     -177.305760      -11.479137
  AL         296.707277     -178.279508      -11.951309
  AL         298.389202     -179.253255      -12.423481
  AL         300.071126     -180.227003      -12.895653
  AL         301.753050     -181.200751      -13.367825
  AL         303.434974     -182.174498      -13.839997
  AL         305.116898     -183.148246      -14.312169
  AL         306.798823     -184.121994      -14.784341
  AL         308.480747     -185.095741      -15.256513
  AL         310.162671     -186.069489      -15.728685
  AL         311.844595     -187.043236      -16.200857
  AL         313.526520     -188.016984      -16.673029
  AL         315.208444     -188.990732      -17.145201
  AL         316.890368     -189.964479      -17.617373
  AL         318.572292     -190.938227      -18.089545
  AL         320.254217     -191.911975      -18.561717
  AL         321.936141     -192.885722      -19.033889
  AL         323.618065     -193.859470      -19.506061
  AL         325.299989     -194.833218      -19.978233
  AL         326.981914     -195.806965      -20.450405
  AL         328.663838     -196.780713      -20.922577
  AL         330.345762     -197.754461      -21.394749
  AL         332.027686     -198.728208      -21.866921
  AL         333.709610     -199.701956      -22.339093
  AL         335.391535     -200.675704      -22.811265
  AL         337.073459     -201.649451      -23.283437
  AL         338.755383     -202.623199      -23.755609
  AL         340.437307     -203.596947      -24.227781
  AL         342.119232     -204.570694      -24.699953
  AL         343.801156     -205.544442      -25.172125
  AL         345.483080     -206.518189      -25.644297
  AL         347.165004     -207.491937      -26.116469
  AL         348.846929     -208.465685      -26.588641
  AL         350.528853     -209.439432      -27.060813
  AL         352.210777     -210.413180      -27.532985
  AL         353.892701     -211.386928      -28.005157
  AL         355.574626     -212.360675      -28.477329
  AL         357.256550     -213.334423      -28.949501
  AL         358.938474     -214.308171      -29.421673
  AL         360.620398     -215.281918      -29.893844
  AL         362.302322     -216.255666      -30.366016
  AL         363.984247     -217.229414      -30.838188
  AL         365.666171     -218.203161      -31.310360
  A         -176.155150     -252.882023      198.046304
  A         -176.709072     -254.803777      198.052108
  A         -177.262994     -256.725530      198.057912
  A         -177.816915     -258.647284      198.063715
  A         -178.370837     -260.569038      198.069519
  A         -178.924759     -262.490791      198.075323
  A         -179.478681     -264.412545      198.081126
  A         -180.032603     -266.334298      198.086930
  A         -180.586525     -268.256052      198.092734
  A         -181.140446     -270.177806      198.098537
  A         -181.694368     -272.099559      198.104341
  A         -182.248290     -274.021313      198.110145
  A         -182.802212     -275.943067      198.115948
  A         -183.356134     -277.864820      198.121752
  A         -183.910056     -279.786574      198.127556
  A         -184.463977     -281.708327      198.133359
  A         -185.017899     -283.630081      198.139163
  A         -185.571821     -285.551835      198.144967
  A         -186.125743     -287.473588      198.150770
  A         -186.679665     -289.395342      198.156574
  AL        -187.233587     -291.317095      198.162377
  AL        -187.787508     -293.238849      198.168181
  AL        -188.341430     -295.160603      198.173985
  AL        -188.895352     -297.082356      198.179788
  AL        -189.449274     -299.004110      198.185592
  AL        -190.003196     -300.925863      198.191396
  AL        -190.557118     -302.847617      198.197199
  AL        -191.111039     -304.769371      198.203003
  AL        -191.664961     -306.691124      198.208807
  AL        -192.218883     -308.612878      198.214610
  AL        -192.772805     -310.534631      198.220414
  AL        -193.326727     -312.456385      198.226218
  AL        -193.880648     -314.378139      198.232021
  AL        -194.434570     -316.299892      198.237825
  AL        -194.988492     -318.221646      198.243629
  AL        -195.542414     -320.143399      198.249432
  AL        -196.096336     -322.065153      198.255236
  AL        -196.650258     -323.986907      198.261040
  AL        -197.204179     -325.908660      198.266843
  AL        -197.758101     -327.830414      198.272647
  AL        -198.312023     -329.752168      198.278451
  AL        -198.865945     -331.673921      198.284254
  AL        -199.419867     -333.595675      198.290058
  AL        -199.973789     -335.517428      198.295861
  AL        -200.527710     -337.439182      198.301665
  AL        -201.081632     -339.360936      198.307469
  AL        -201.635554     -341.282689      198.313272
  AL        -202.189476     -343.204443      198.319076
  AL        -202.743398     -345.126196      198.324880
  AL        -203.297320     -347.047950      198.330683
  AL        -203.851241     -348.969704      198.336487
  AL        -204.405163     -350.891457      198.342291
  AL        -204.959085     -352.813211      198.348094
  AL        -205.513007     -354.734964      198.353898
  AL        -206.066929     -356.656718      198.359702
  AL        -206.620851     -358.578472      198.365505
  AL        -207.174772     -360.500225      198.371309
  AL        -207.728694     -362.421979      198.377113
  AL        -208.282616     -364.343732      198.382916
  AL        -208.836538     -366.265486      198.388720
  AL        -209.390460     -368.187240      198.394524
  AL        -209.944382     -370.108993      198.400327
  AL        -210.498303     -372.030747      198.406131
  AL        -211.052225     -373.952500      198.411934
  AL        -211.606147     -375.874254      198.417738
  AL        -212.160069     -377.796008      198.423542
  AL        -212.713991     -379.717761      198.429345
  AL        -213.267913     -381.639515      198.435149
  AL        -213.821834     -383.561268      198.440953
  AL        -214.375756     -385.483022      198.446756
  A         -184.174529      384.720317     -223.522419
  A         -182.234226      384.453573     -223.117361
  A         -180.293923      384.186829     -222.712304
  A         -178.353620      383.920085     -222.307247
  A         -176.413316      383.653341     -221.902190
  A         -174.473013      383.386598     -221.497133
  A         -172.532710      383.119854     -221.092076
  A         -170.592407      382.853110     -220.687019
  A         -168.652104      382.586366     -220.281962
  A         -166.711800      382.319622     -219.876905
  A         -164.771497      382.052878     -219.471848
  A         -162.831194      381.786134     -219.066791
  A         -160.890891      381.519390     -218.661734
  A         -158.950588      381.252646     -218.256677
  A         -157.010284      380.985902     -217.851620
  A         -155.069981      380.719158     -217.446563
  A         -153.129678      380.452415     -217.041506
  A         -151.189375      380.185671     -216.636449
  A         -149.249072      379.918927     -216.231391
  A         -147.308768      379.652183     -215.826334
  AL        -145.368465      379.385439     -215.421277
  AL        -143.428162      379.118695     -215.016220
  AL        -141.487859      378.851951     -214.611163
  AL        -139.547556      378.585207     -214.206106
  AL        -137.607253      378.318463     -213.801049
  AL        -135.666949      378.051719     -213.395992
  AL        -133.726646      377.784976     -212.990935
  AL        -131.786343      377.518232     -212.585878
  AL        -129.846040      377.251488     -212.180821
  AL        -127.905737      376.984744     -211.775764
  AL        -125.965433      376.718000     -211.370707
  AL        -124.025130      376.451256     -210.965650
  AL        -122.084827      376.184512     -210.560593
  AL        -120.144524      375.917768     -210.155536
  AL        -118.204221      375.651024     -209.750479
  AL        -116.263917      375.384280     -209.345421
  AL        -114.323614      375.117537     -208.940364
  AL        -112.383311      374.850793     -208.535307
  AL        -110.443008      374.584049     -208.130250
  AL        -108.502705      374.317305     -207.725193
  AL        -106.562401      374.050561     -207.320136
  AL        -104.622098      373.783817     -206.915079
  AL        -102.681795      373.517073     -206.510022
  AL        -100.741492      373.250329     -206.104965
  AL         -98.801189      372.983585     -205.699908
  AL         -96.860886      372.716841     -205.294851
  AL         -94.920582      372.450098     -204.889794
  AL         -92.980279      372.183354     -204.484737
  AL         -91.039976      371.916610     -204.079680
  AL         -89.099673      371.649866     -203.674623
  AL         -87.159370      371.383122     -203.269566
  AL         -85.219066      371.116378     -202.864509
  AL         -83.278763      370.849634     -202.459451
  AL         -81.338460      370.582890     -202.054394
  AL         -79.398157      370.316146     -201.649337
  AL         -77.457854      370.049402     -201.244280
  AL         -75.517550      369.782658     -200.839223
  AL         -73.577247      369.515915     -200.434166
  AL         -71.636944      369.249171     -200.029109
  AL         -69.696641      368.982427     -199.624052
  AL         -67.756338      368.715683     -199.218995
  AL         -65.816035      368.448939     -198.813938
  AL         -63.875731      368.182195     -198.408881
  AL         -61.935428      367.915451     -198.003824
  AL         -59.995125      367.648707     -197.598767
  AL         -58.054822      367.381963     -197.193710
  AL         -56.114519      367.115219     -196.788653
  AL         -54.174215      366.848476     -196.383596
  AL         -52.233912      366.581732     -195.978539
  AL         -50.293609      366.314988     -195.573481
  A         -128.791889     -173.226732      113.694494
  A         -127.901344     -171.435942      113.694619
  A         -127.010799     -169.645151      113.694744
  A         -126.120254     -167.854361      113.694868
  A         -125.229710     -166.063571      113.694993
  A         -124.339165     -164.272780      113.695118
  A         -123.448620     -162.481990      113.695242
  A         -122.558075     -160.691200      113.695367
  A         -121.667530     -158.900409      113.695492
  A         -120.776986     -157.109619      113.695616
  A         -119.886441     -155.318829      113.695741
  A         -118.995896     -153.528038      113.695866
  A         -118.105351     -151.737248      113.695990
  A         -117.214806     -149.946458      113.696115
  A         -116.324262     -148.155668      113.696240
  A         -115.433717     -146.364877      113.696365
  A         -114.543172     -144.574087      113.696489
  A         -113.652627     -142.783297      113.696614
  A         -112.762082     -140.992506      113.696739
  A         -111.871537     -139.201716      113.696863
  AL        -110.980993     -137.410926      113.696988
  AL        -110.090448     -135.620135      113.697113
  AL        -109.199903     -133.829345      113.697237
  AL        -108.309358     -132.038555      113.697362
  AL        -107.418813     -130.247764      113.697487
  AL        -106.528269     -128.456974      113.697611
  AL        -105.637724     -126.666184      113.697736
  AL        -104.747179     -124.875394      113.697861
  AL        -103.856634     -123.084603      113.697985
  AL        -102.966089     -121.293813      113.698110
  AL        -102.075545     -119.503023      113.698235
  AL        -101.185000     -117.712232      113.698360
  AL        -100.294455     -115.921442      113.698484
  AL         -99.403910     -114.130652      113.698609
  AL         -98.513365     -112.339861      113.698734
  AL         -97.622821     -110.549071      113.698858
  AL         -96.732276     -108.758281      113.698983
  AL         -95.841731     -106.967490      113.699108
  AL         -94.951186     -105.176700      113.699232
  AL         -94.060641     -103.385910      113.699357
  AL         -93.170097     -101.595119      113.699482
  AL         -92.279552      -99.804329      113.699606
  AL         -91.389007      -98.013539      113.699731
  AL         -90.498462      -96.222749      113.699856
  AL         -89.607917      -94.431958      113.699980
  AL         -88.717372      -92.641168      113.700105
  AL         -87.826828      -90.850378      113.700230
  AL         -86.936283      -89.059587      113.700355
  AL         -86.045738      -87.268797      113.700479
  AL         -85.155193      -85.478007      113.700604
  AL         -84.264648      -83.687216      113.700729
  AL         -83.374104      -81.896426      113.700853
  AL         -82.483559      -80.105636      113.700978
  AL         -81.593014      -78.314845      113.701103
  AL         -80.702469      -76.524055      113.701227
  AL         -79.811924      -74.733265      113.701352
  AL         -78.921380      -72.942475      113.701477
  AL         -78.030835      -71.151684      113.701601
  AL         -77.140290      -69.360894      113.701726
  AL         -76.249745      -67.570104      113.701851
  AL         -75.359200      -65.779313      113.701975
  AL         -74.468656      -63.988523      113.702100
  AL         -73.578111      -62.197733      113.702225
  AL         -72.687566      -60.406942      113.702350
  AL         -71.797021      -58.616152      113.702474
  AL         -70.906476      -56.825362      113.702599
  AL         -70.015932      -55.034571      113.702724
  AL         -69.125387      -53.243781      113.702848
  AL         -68.234842      -51.452991      113.702973
  AL         -67.344297      -49.662201      113.703098
  A          258.348426      103.215316     -197.550553
  A          259.782699      104.090136     -198.635702
  A          261.216973      104.964957     -199.720851
  A          262.651247      105.839778     -200.805999
  A          264.085521      106.714598     -201.891148
  A          265.519795      107.589419     -202.976296
  A          266.954069      108.464239     -204.061445
  A          268.388342      109.339060     -205.146594
  A          269.822616      110.213881     -206.231742
  A          271.256890      111.088701     -207.316891
  A          272.691164      111.963522     -208.402039
  A          274.125438      112.838342     -209.487188
  A          275.559712      113.713163     -210.572337
  A          276.993985      114.587984     -211.657485
  A          278.428259      115.462804     -212.742634
  A          279.862533      116.337625     -213.827782
  A          281.296807      117.212445     -214.912931
  A          282.731081      118.087266     -215.998080
  A          284.165355      118.962087     -217.083228
  A          285.599629      119.836907     -218.168377
  AL         287.033902      120.711728     -219.253525
  AL         288.468176      121.586548     -220.338674
  AL         289.902450      122.461369     -221.423823
  AL         291.336724      123.336190     -222.508971
  AL         292.770998      124.211010     -223.594120
  AL         294.205272      125.085831     -224.679268
  AL         295.639545      125.960651     -225.764417
  AL         297.073819      126.835472     -226.849565
  AL         298.508093      127.710293     -227.934714
  AL         299.942367      128.585113     -229.019863
  AL         301.376641      129.459934     -230.105011
  AL         302.810915      130.334754     -231.190160
  AL         304.245188      131.209575     -232.275308
  AL         305.679462      132.084396     -233.360457
  AL         307.113736      132.959216     -234.445606
  AL         308.548010      133.834037     -235.530754
  AL         309.982284      134.708857     -236.615903
  AL         311.416558      135.583678     -237.701051
  AL         312.850832      136.458499     -238.786200
  AL         314.285105      137.333319     -239.871349
  AL         315.719379      138.208140     -240.956497
  AL         317.153653      139.082960     -242.041646
  AL         318.587927      139.957781     -243.126794
  AL         320.022201      140.832601     -244.211943
  AL         321.456475      141.707422     -245.297092
  AL         322.890748      142.582243     -246.382240
  AL         324.325022      143.457063     -247.467389
  AL         325.759296      144.331884     -248.552537
  AL         327.193570      145.206704     -249.637686
  AL         328.627844      146.081525     -250.722835
  AL         330.062118      146.956346     -251.807983
  AL         331.496391      147.831166     -252.893132
  AL         332.930665      148.705987     -253.978280
  AL         334.364939      149.580807     -255.063429
  AL         335.799213      150.455628     -256.148578
  AL         337.233487      151.330449     -257.233726
  AL         338.667761      152.205269     -258.318875
  AL         340.102034      153.080090     -259.404023
  AL         341.536308      153.954910     -260.489172
  AL         342.970582      154.829731     -261.574321
  AL         344.404856      155.704552     -262.659469
  AL         345.839130      156.579372     -263.744618
  AL         347.273404      157.454193     -264.829766
  AL         348.707678      158.329013     -265.914915
  AL         350.141951      159.203834     -267.000063
  AL         351.576225      160.078655     -268.085212
  AL         353.010499      160.953475     -269.170361
  AL         354.444773      161.828296     -270.255509
  AL         355.879047      162.703116     -271.340658
  AL         357.313321      163.577937     -272.425806
  A           12.911831      295.908695      148.713184
  A           13.900492      294.495831      147.700088
  A           14.889153      293.082966      146.686992
  A           15.877814      291.670101      145.673896
  A           16.866475      290.257237      144.660800
  A           17.855135      288.844372      143.647704
  A           18.843796      287.431507      142.634609
  A           19.832457      286.018643      141.621513
  A           20.821118      284.605778      140.608417
  A           21.809779      283.192913      139.595321
  A           22.798440      281.780049      138.582225
  A           23.787101      280.367184      137.569129
  A           24.775762      278.954319      136.556034
  A           25.764422      277.541455      135.542938
  A           26.753083      276.128590      134.529842
  A           27.741744      274.715726      133.516746
  A           28.730405      273.302861      132.503650
  A           29.719066      271.889996      131.490554
  A           30.707727      270.477132      130.477459
  A           31.696388      269.064267      129.464363
  AL          32.685049      267.651402      128.451267
  AL          33.673710      266.238538      127.438171
  AL          34.662370      264.825673      126.425075
  AL          35.651031      263.412808      125.411979
  AL          36.639692      261.999944      124.398884
  AL          37.628353      260.587079      123.385788
  AL          38.617014      259.174215      122.372692
  AL          39.605675      257.761350      121.359596
  AL          40.594336      256.348485      120.346500
  AL          41.582997      254.935621      119.333404
  AL          42.571658      253.522756      118.320309
  AL          43.560318      252.109891      117.307213
  AL          44.548979      250.697027      116.294117
  AL          45.537640      249.284162      115.281021
  AL          46.526301      247.871297      114.267925
  AL          47.514962      246.458433      113.254830
  AL          48.503623      245.045568      112.241734
  AL          49.492284      243.632703      111.228638
  AL          50.480945      242.219839      110.215542
  AL          51.469605      240.806974      109.202446
  AL          52.458266      239.394110      108.189350
  AL          53.446927      237.981245      107.176255
  AL          54.435588      236.568380      106.163159
  AL          55.424249      235.155516      105.150063
  AL          56.412910      233.742651      104.136967
  AL          57.401571      232.329786      103.123871
  AL          58.390232      230.916922      102.110775
  AL          59.378893      229.504057      101.097680
  AL          60.367553      228.091192      100.084584
  AL          61.356214      226.678328       99.071488
  AL          62.344875      225.265463       98.058392
  AL          63.333536      223.852599       97.045296
  AL          64.322197      222.439734       96.032200
  AL          65.310858      221.026869       95.019105
  AL          66.299519      219.614005       94.006009
  AL          67.288180      218.201140       92.992913
  AL          68.276841      216.788275       91.979817
  AL          69.265501      215.375411       90.966721
  AL          70.254162      213.962546       89.953625
  AL          71.242823      212.549681       88.940530
  AL          72.231484      211.136817       87.927434
  AL          73.220145      209.723952       86.914338
  AL          74.208806      208.311087       85.901242
  AL          75.197467      206.898223       84.888146
  AL          76.186128      205.485358       83.875050
  AL          77.174789      204.072494       82.861955
  AL          78.163449      202.659629       81.848859
  AL          79.152110      201.246764       80.835763
  AL          80.140771      199.833900       79.822667
  AL          81.129432      198.421035       78.809571
  A          173.811111     -143.197921     -110.439942
  A          172.619348     -144.134103     -109.134850
  A          171.427586     -145.070285     -107.829759
  A          170.235823     -146.006468     -106.524667
  A          169.044060     -146.942650     -105.219576
  A          167.852297     -147.878832     -103.914485
  A          166.660534     -148.815015     -102.609393
  A          165.468771     -149.751197     -101.304302
  A          164.277008     -150.687380      -99.999210
  A          163.085245     -151.623562      -98.694119
  A          161.893482     -152.559744      -97.389027
  A          160.701720     -153.495927      -96.083936
  A          159.509957     -154.432109      -94.778844
  A          158.318194     -155.368292      -93.473753
  A          157.126431     -156.304474      -92.168661
  A          155.934668     -157.240656      -90.863570
  A          154.742905     -158.176839      -89.558478
  A          153.551142     -159.113021      -88.253387
  A          152.359379     -160.049204      -86.948295
  A          151.167616     -160.985386      -85.643204
  AL         149.975854     -161.921568      -84.338112
  AL         148.784091     -162.857751      -83.033021
  AL         147.592328     -163.793933      -81.727930
  AL         146.400565     -164.730116      -80.422838
  AL         145.208802     -165.666298      -79.117747
  AL         144.017039     -166.602480      -77.812655
  AL         142.825276     -167.538663      -76.507564
  AL         141.633513     -168.474845      -75.202472
  AL         140.441750     -169.411027      -73.897381
  AL         139.249988     -170.347210      -72.592289
  AL         138.058225     -171.283392      -71.287198
  AL         136.866462     -172.219575      -69.982106
  AL         135.674699     -173.155757      -68.677015
  AL         134.482936     -174.091939      -67.371923
  AL         133.291173     -175.028122      -66.066832
  AL         132.099410     -175.964304      -64.761740
  AL         130.907647     -176.900487      -63.456649
  AL         129.715884     -177.836669      -62.151557
  AL         128.524122     -178.772851      -60.846466
  AL         127.332359     -179.709034      -59.541375
  AL         126.140596     -180.645216      -58.236283
  AL         124.948833     -181.581399      -56.931192
  AL         123.757070     -182.517581      -55.626100
  AL         122.565307     -183.453763      -54.321009
  AL         121.373544     -184.389946      -53.015917
  AL         120.181781     -185.326128      -51.710826
  AL         118.990018     -186.262311      -50.405734
  AL         117.798256     -187.198493      -49.100643
  AL         116.606493     -188.134675      -47.795551
  AL         115.414730     -189.070858      -46.490460
  AL         114.222967     -190.007040      -45.185368
  AL         113.031204     -190.943222      -43.880277
  AL         111.839441     -191.879405      -42.575185
  AL         110.647678     -192.815587      -41.270094
  AL         109.455915     -193.751770      -39.965003
  AL         108.264152     -194.687952      -38.659911
  AL         107.072390     -195.624134      -37.354820
  AL         105.880627     -196.560317      -36.049728
  AL         104.688864     -197.496499      -34.744637
  AL         103.497101     -198.432682      -33.439545
  AL         102.305338     -199.368864      -32.134454
  AL         101.113575     -200.305046      -30.829362
  AL          99.921812     -201.241229      -29.524271
  AL          98.730049     -202.177411      -28.219179
  AL          97.538286     -203.113594      -26.914088
  AL          96.346524     -204.049776      -25.608996
  AL          95.154761     -204.985958      -24.303905
  AL          93.962998     -205.922141      -22.998813
  AL          92.771235     -206.858323      -21.693722
  AL          91.579472     -207.794506      -20.388630
  A          378.536384       12.569948       57.298661
  A          378.031846       12.999561       55.411633
  A          377.527309       13.429174       53.524605
  A          377.022772       13.858786       51.637577
  A          376.518234       14.288399       49.750549
  A          376.013697       14.718012       47.863521
  A          375.509160       15.147625       45.976493
  A          375.004622       15.577238       44.089465
  A          374.500085       16.006851       42.202437
  A          373.995548       16.436464       40.315409
  A          373.491011       16.866077       38.428380
  A          372.986473       17.295690       36.541352
  A          372.481936       17.725303       34.654324
  A          371.977399       18.154916       32.767296
  A          371.472861       18.584529       30.880268
  A          370.968324       19.014141       28.993240
  A          370.463787       19.443754       27.106212
  A          369.959249       19.873367       25.219184
  A          369.454712       20.302980       23.332156
  A          368.950175       20.732593       21.445128
  AL         368.445638       21.162206       19.558100
  AL         367.941100       21.591819       17.671072
  AL         367.436563       22.021432       15.784044
  AL         366.932026       22.451045       13.897016
  AL         366.427488       22.880658       12.009988
  AL         365.922951       23.310271       10.122960
  AL         365.418414       23.739884        8.235932
  AL         364.913876       24.169496        6.348904
  AL         364.409339       24.599109        4.461876
  AL         363.904802       25.028722        2.574848
  AL         363.400265       25.458335        0.687820
  AL         362.895727       25.887948       -1.199209
  AL         362.391190       26.317561       -3.086237
  AL         361.886653       26.747174       -4.973265
  AL         361.382115       27.176787       -6.860293
  AL         360.877578       27.606400       -8.747321
  AL         360.373041       28.036013      -10.634349
  AL         359.868503       28.465626      -12.521377
  AL         359.363966       28.895239      -14.408405
  AL         358.859429       29.324851      -16.295433
  AL         358.354891       29.754464      -18.182461
  AL         357.850354       30.184077      -20.069489
  AL         357.345817       30.613690      -21.956517
  AL         356.841280       31.043303      -23.843545
  AL         356.336742       31.472916      -25.730573
  AL         355.832205       31.902529      -27.617601
  AL         355.327668       32.332142      -29.504629
  AL         354.823130       32.761755      -31.391657
  AL         354.318593       33.191368      -33.278685
  AL         353.814056       33.620981      -35.165713
  AL         353.309518       34.050594      -37.052741
  AL         352.804981       34.480206      -38.939769
  AL         352.300444       34.909819      -40.826798
  AL         351.795907       35.339432      -42.713826
  AL         351.291369       35.769045      -44.600854
  AL         350.786832       36.198658      -46.487882
  AL         350.282295       36.628271      -48.374910
  AL         349.777757       37.057884      -50.261938
  AL         349.273220       37.487497      -52.148966
  AL         348.768683       37.917110      -54.035994
  AL         348.264145       38.346723      -55.923022
  AL         347.759608       38.776336      -57.810050
  AL         347.255071       39.205948      -59.697078
  AL         346.750534       39.635561      -61.584106
  AL         346.245996       40.065174      -63.471134
  AL         345.741459       40.494787      -65.358162
  AL         345.236922       40.924400      -67.245190
  AL         344.732384       41.354013      -69.132218
  AL         344.227847       41.783626      -71.019246
  AL         343.723310       42.213239      -72.906274
  A           -9.430213      -74.447196      226.038841
  A           -8.300162      -75.077108      227.564028
  A           -7.170110      -75.707020      229.089215
  A           -6.040059      -76.336931      230.614402
  A           -4.910008      -76.966843      232.139589
  A           -3.779957      -77.596755      233.664776
  A           -2.649906      -78.226667      235.189963
  A           -1.519854      -78.856579      236.715150
  A           -0.389803      -79.486491      238.240337
  A            0.740248      -80.116403      239.765524
  A            1.870299      -80.746314      241.290711
  A            3.000350      -81.376226      242.815898
  A            4.130402      -82.006138      244.341085
  A            5.260453      -82.636050      245.866272
  A            6.390504      -83.265962      247.391459
  A            7.520555      -83.895874      248.916646
  A            8.650606      -84.525786      250.441833
  A            9.780658      -85.155697      251.967020
  A           10.910709      -85.785609      253.492207
  A           12.040760      -86.415521      255.017394
  AL          13.170811      -87.045433      256.542581
  AL          14.300862      -87.675345      258.067768
  AL          15.430914      -88.305257      259.592955
  AL          16.560965      -88.935169      261.118142
  AL          17.691016      -89.565080      262.643329
  AL          18.821067      -90.194992      264.168516
  AL          19.951118      -90.824904      265.693703
  AL          21.081170      -91.454816      267.218890
  AL          22.211221      -92.084728      268.744077
  AL          23.341272      -92.714640      270.269264
  AL          24.471323      -93.344552      271.794451
  AL          25.601374      -93.974463      273.319638
  AL          26.731426      -94.604375      274.844825
  AL          27.861477      -95.234287      276.370012
  AL          28.991528      -95.864199      277.895199
  AL          30.121579      -96.494111      279.420386
  AL          31.251630      -97.124023      280.945573
  AL          32.381682      -97.753935      282.470760
  AL          33.511733      -98.383846      283.995947
  AL          34.641784      -99.013758      285.521134
  AL          35.771835      -99.643670      287.046321
  AL          36.901886     -100.273582      288.571508
  AL          38.031938     -100.903494      290.096694
  AL          39.161989     -101.533406      291.621881
  AL          40.292040     -102.163318      293.147068
  AL          41.422091     -102.793230      294.672255
  AL          42.552142     -103.423141      296.197442
  AL          43.682194     -104.053053      297.722629
  AL          44.812245     -104.682965      299.247816
  AL          45.942296     -105.312877      300.773003
  AL          47.072347     -105.942789      302.298190
  AL          48.202398     -106.572701      303.823377
  AL          49.332450     -107.202613      305.348564
  AL          50.462501     -107.832524      306.873751
  AL          51.592552     -108.462436      308.398938
  AL          52.722603     -109.092348      309.924125
  AL          53.852654     -109.722260      311.449312
  AL          54.982706     -110.352172      312.974499
  AL          56.112757     -110.982084      314.499686
  AL          57.242808     -111.611996      316.024873
  AL          58.372859     -112.241907      317.550060
  AL          59.502910     -112.871819      319.075247
  AL          60.632962     -113.501731      320.600434
  AL          61.763013     -114.131643      322.125621
  AL          62.893064     -114.761555      323.650808
  AL          64.023115     -115.391467      325.175995
  AL          65.153166     -116.021379      326.701182
  AL          66.283218     -116.651290      328.226369
  AL          67.413269     -117.281202      329.751556
  AL          68.543320     -117.911114      331.276743
  A          202.505535      298.568051     -174.441435
  A          201.584264      297.761482     -172.860073
  A          200.662992      296.954913     -171.278711
  A          199.741721      296.148344     -169.697349
  A          198.820449      295.341775     -168.115987
  A          197.899178      294.535206     -166.534625
  A          196.977907      293.728638     -164.953263
  A          196.056635      292.922069     -163.371901
  A          195.135364      292.115500     -161.790540
  A          194.214092      291.308931     -160.209178
  A          193.292821      290.502362     -158.627816
  A          192.371549      289.695793     -157.046454
  A          191.450278      288.889225     -155.465092
  A          190.529006      288.082656     -153.883730
  A          189.607735      287.276087     -152.302368
  A          188.686464      286.469518     -150.721006
  A          187.765192      285.662949     -149.139644
  A          186.843921      284.856381     -147.558282
  A          185.922649      284.049812     -145.976920
  A          185.001378      283.243243     -144.395558
  AL         184.080106      282.436674     -142.814196
  AL         183.158835      281.630105     -141.232834
  AL         182.237563      280.823536     -139.651472
  AL         181.316292      280.016968     -138.070110
  AL         180.395021      279.210399     -136.488748
  AL         179.473749      278.403830     -134.907386
  AL         178.552478      277.597261     -133.326024
  AL         177.631206      276.790692     -131.744662
  AL         176.709935      275.984123     -130.163300
  AL         175.788663      275.177555     -128.581938
  AL         174.867392      274.370986     -127.000576
  AL         173.946120      273.564417     -125.419214
  AL         173.024849      272.757848     -123.837852
  AL         172.103578      271.951279     -122.256490
  AL         171.182306      271.144711     -120.675129
  AL         170.261035      270.338142     -119.093767
  AL         169.339763      269.531573     -117.512405
  AL         168.418492      268.725004     -115.931043
  AL         167.497220      267.918435     -114.349681
  AL         166.575949      267.111866     -112.768319
  AL         165.654677      266.305298     -111.186957
  AL         164.733406      265.498729     -109.605595
  AL         163.812135      264.692160     -108.024233
  AL         162.890863      263.885591     -106.442871
  AL         161.969592      263.079022     -104.861509
  AL         161.048320      262.272453     -103.280147
  AL         160.127049      261.465885     -101.698785
  AL         159.205777      260.659316     -100.117423
  AL         158.284506      259.852747      -98.536061
  AL         157.363234      259.046178      -96.954699
  AL         156.441963      258.239609      -95.373337
  AL         155.520692      257.433040      -93.791975
  AL         154.599420      256.626472      -92.210613
  AL         153.678149      255.819903      -90.629251
  AL         152.756877      255.013334      -89.047889
  AL         151.835606      254.206765      -87.466527
  AL         150.914334      253.400196      -85.885165
  AL         149.993063      252.593628      -84.303803
  AL         149.071791      251.787059      -82.722441
  AL         148.150520      250.980490      -81.141079
  AL         147.229249      250.173921      -79.559717
  AL         146.307977      249.367352      -77.978356
  AL         145.386706      248.560783      -76.396994
  AL         144.465434      247.754215      -74.815632
  AL         143.544163      246.947646      -73.234270
  AL         142.622891      246.141077      -71.652908
  AL         141.701620      245.334508      -70.071546
  AL         140.780348      244.527939      -68.490184
  AL         139.859077      243.721370      -66.908822
  AL         138.937806      242.914802      -65.327460
  A          142.074667       64.142343     -194.005376
  A          143.805951       63.158765     -193.817685
  A          145.537236       62.175186     -193.629995
  A          147.268520       61.191608     -193.442304
  A          148.999804       60.208029     -193.254613
  A          150.731089       59.224451     -193.066923
  A          152.462373       58.240872     -192.879232
  A          154.193658       57.257294     -192.691541
  A          155.924942       56.273716     -192.503851
  A          157.656226       55.290137     -192.316160
  A          159.387511       54.306559     -192.128470
  A          161.118795       53.322980     -191.940779
  A          162.850080       52.339402     -191.753088
  A          164.581364       51.355823     -191.565398
  A          166.312648       50.372245     -191.377707
  A          168.043933       49.388667     -191.190016
  A          169.775217       48.405088     -191.002326
  A          171.506502       47.421510     -190.814635
  A          173.237786       46.437931     -190.626944
  A          174.969070       45.454353     -190.439254
  AL         176.700355       44.470775     -190.251563
  AL         178.431639       43.487196     -190.063872
  AL         180.162924       42.503618     -189.876182
  AL         181.894208       41.520039     -189.688491
  AL         183.625493       40.536461     -189.500801
  AL         185.356777       39.552882     -189.313110
  AL         187.088061       38.569304     -189.125419
  AL         188.819346       37.585726     -188.937729
  AL         190.550630       36.602147     -188.750038
  AL         192.281915       35.618569     -188.562347
  AL         194.013199       34.634990     -188.374657
  AL         195.744483       33.651412     -188.186966
  AL         197.475768       32.667833     -187.999275
  AL         199.207052       31.684255     -187.811585
  AL         200.938337       30.700677     -187.623894
  AL         202.669621       29.717098     -187.436203
  AL         204.400905       28.733520     -187.248513
  AL         206.132190       27.749941     -187.060822
  AL         207.863474       26.766363     -186.873131
  AL         209.594759       25.782784     -186.685441
  AL         211.326043       24.799206     -186.497750
  AL         213.057327       23.815628     -186.310060
  AL         214.788612       22.832049     -186.122369
  AL         216.519896       21.848471     -185.934678
  AL         218.251181       20.864892     -185.746988
  AL         219.982465       19.881314     -185.559297
  AL         221.713749       18.897735     -185.371606
  AL         223.445034       17.914157     -185.183916
  AL         225.176318       16.930579     -184.996225
  AL         226.907603       15.947000     -184.808534
  AL         228.638887       14.963422     -184.620844
  AL         230.370172       13.979843     -184.433153
  AL         232.101456       12.996265     -184.245462
  AL         233.832740       12.012686     -184.057772
  AL         235.564025       11.029108     -183.870081
  AL         237.295309       10.045530     -183.682391
  AL         239.026594        9.061951     -183.494700
  AL         240.757878        8.078373     -183.307009
  AL         242.489162        7.094794     -183.119319
  AL         244.220447        6.111216     -182.931628
  AL         245.951731        5.127637     -182.743937
  AL         247.683016        4.144059     -182.556247
  AL         249.414300        3.160481     -182.368556
  AL         251.145584        2.176902     -182.180865
  AL         252.876869        1.193324     -181.993175
  AL         254.608153        0.209745     -181.805484
  AL         256.339438       -0.773833     -181.617793
  AL         258.070722       -1.757412     -181.430103
  AL         259.802006       -2.740990     -181.242412
  AL         261.533291       -3.724568     -181.054721
  A         -209.437801       59.797302      127.967520
  A         -209.817967       60.044797      129.915395
  A         -210.198133       60.292291      131.863271
  A         -210.578299       60.539785      133.811147
  A         -210.958465       60.787280      135.759023
  A         -211.338631       61.034774      137.706899
  A         -211.718797       61.282268      139.654775
  A         -212.098963       61.529763      141.602651
  A         -212.479129       61.777257      143.550527
  A         -212.859295       62.024751      145.498403
  A         -213.239460       62.272245      147.446278
  A         -213.619626       62.519740      149.394154
  A         -213.999792       62.767234      151.342030
  A         -214.379958       63.014728      153.289906
  A         -214.760124       63.262223      155.237782
  A         -215.140290       63.509717      157.185658
  A         -215.520456       63.757211      159.133534
  A         -215.900622       64.004706      161.081410
  A         -216.280788       64.252200      163.029286
  A         -216.660954       64.499694      164.977161
  AL        -217.041120       64.747189      166.925037
  AL        -217.421285       64.994683      168.872913
  AL        -217.801451       65.242177      170.820789
  AL        -218.181617       65.489671      172.768665
  AL        -218.561783       65.737166      174.716541
  AL        -218.941949       65.984660      176.664417
  AL        -219.322115       66.232154      178.612293
  AL        -219.702281       66.479649      180.560168
  AL        -220.082447       66.727143      182.508044
  AL        -220.462613       66.974637      184.455920
  AL        -220.842779       67.222132      186.403796
  AL        -221.222944       67.469626      188.351672
  AL        -221.603110       67.717120      190.299548
  AL        -221.983276       67.964615      192.247424
  AL        -222.363442       68.212109      194.195300
  AL        -222.743608       68.459603      196.143176
  AL        -223.123774       68.707097      198.091051
  AL        -223.503940       68.954592      200.038927
  AL        -223.884106       69.202086      201.986803
  AL        -224.264272       69.449580      203.934679
  AL        -224.644438       69.697075      205.882555
  AL        -225.024603       69.944569      207.830431
  AL        -225.404769       70.192063      209.778307
  AL        -225.784935       70.439558      211.726183
  AL        -226.165101       70.687052      213.674058
  AL        -226.545267       70.934546      215.621934
  AL        -226.925433       71.182041      217.569810
  AL        -227.305599       71.429535      219.517686
  AL        -227.685765       71.677029      221.465562
  AL        -228.065931       71.924523      223.413438
  AL        -228.446097       72.172018      225.361314
  AL        -228.826262       72.419512      227.309190
  AL        -229.206428       72.667006      229.257066
  AL        -229.586594       72.914501      231.204941
  AL        -229.966760       73.161995      233.152817
  AL        -230.346926       73.409489      235.100693
  AL        -230.727092       73.656984      237.048569
  AL        -231.107258       73.904478      238.996445
  AL        -231.487424       74.151972      240.944321
  AL        -231.867590       74.399466      242.892197
  AL        -232.247756       74.646961      244.840073
  AL        -232.627922       74.894455      246.787948
  AL        -233.008087       75.141949      248.735824
  AL        -233.388253       75.389444      250.683700
  AL        -233.768419       75.636938      252.631576
  AL        -234.148585       75.884432      254.579452
  AL        -234.528751       76.131927      256.527328
  AL        -234.908917       76.379421      258.475204
  AL        -235.289083       76.626915      260.423080
  AL        -235.669249       76.874410      262.370956
  A          227.729897      258.986814      300.359760
  A          229.063091      257.495979      300.357455
  A          230.396285      256.005144      300.355151
  A          231.729478      254.514309      300.352847
  A          233.062672      253.023474      300.350542
  A          234.395866      251.532640      300.348238
  A          235.729060      250.041805      300.345934
  A          237.062254      248.550970      300.343629
  A          238.395448      247.060135      300.341325
  A          239.728642      245.569300      300.339021
  A          241.061836      244.078465      300.336716
  A          242.395030      242.587630      300.334412
  A          243.728224      241.096796      300.332108
  A          245.061418      239.605961      300.329803
  A          246.394612      238.115126      300.327499
  A          247.727806      236.624291      300.325195
  A          249.061000      235.133456      300.322890
  A          250.394194      233.642621      300.320586
  A          251.727388      232.151786      300.318282
  A          253.060582      230.660952      300.315977
  AL         254.393776      229.170117      300.313673
  AL         255.726970      227.679282      300.311369
  AL         257.060164      226.188447      300.309064
  AL         258.393358      224.697612      300.306760
  AL         259.726552      223.206777      300.304456
  AL         261.059746      221.715942      300.302151
  AL         262.392939      220.225108      300.299847
  AL         263.726133      218.734273      300.297543
  AL         265.059327      217.243438      300.295238
  AL         266.392521      215.752603      300.292934
  AL         267.725715      214.261768      300.290630
  AL         269.058909      212.770933      300.288326
  AL         270.392103      211.280098      300.286021
  AL         271.725297      209.789264      300.283717
  AL         273.058491      208.298429      300.281413
  AL         274.391685      206.807594      300.279108
  AL         275.724879      205.316759      300.276804
  AL         277.058073      203.825924      300.274500
  AL         278.391267      202.335089      300.272195
  AL         279.724461      200.844254      300.269891
  AL         281.057655      199.353420      300.267587
  AL         282.390849      197.862585      300.265282
  AL         283.724043      196.371750      300.262978
  AL         285.057237      194.880915      300.260674
  AL         286.390431      193.390080      300.258369
  AL         287.723625      191.899245      300.256065
  AL         289.056819      190.408410      300.253761
  AL         290.390013      188.917576      300.251456
  AL         291.723207      187.426741      300.249152
  AL         293.056401      185.935906      300.246848
  AL         294.389594      184.445071      300.244543
  AL         295.722788      182.954236      300.242239
  AL         297.055982      181.463401      300.239935
  AL         298.389176      179.972566      300.237630
  AL         299.722370      178.481732      300.235326
  AL         301.055564      176.990897      300.233022
  AL         302.388758      175.500062      300.230717
  AL         303.721952      174.009227      300.228413
  AL         305.055146      172.518392      300.226109
  AL         306.388340      171.027557      300.223804
  AL         307.721534      169.536723      300.221500
  AL         309.054728      168.045888      300.219196
  AL         310.387922      166.555053      300.216891
  AL         311.721116      165.064218      300.214587
  AL         313.054310      163.573383      300.212283
  AL         314.387504      162.082548      300.209979
  AL         315.720698      160.591713      300.207674
  AL         317.053892      159.100879      300.205370
  AL         318.387086      157.610044      300.203066
  AL         319.720280      156.119209      300.200761
  A          207.076779       87.074740     -317.239527
  A          205.396565       86.115494     -316.732844
  A          203.716351       85.156247     -316.226162
  A          202.036137       84.197001     -315.719479
  A          200.355923       83.237755     -315.212796
  A          198.675709       82.278509     -314.706113
  A          196.995495       81.319262     -314.199430
  A          195.315281       80.360016     -313.692747
  A          193.635067       79.400770     -313.186064
  A          191.954853       78.441523     -312.679381
  A          190.274639       77.482277     -312.172699
  A          188.594425       76.523031     -311.666016
  A          186.914211       75.563785     -311.159333
  A          185.233997       74.604538     -310.652650
  A          183.553783       73.645292     -310.145967
  A          181.873569       72.686046     -309.639284
  A          180.193356       71.726800     -309.132601
  A          178.513142       70.767553     -308.625918
  A          176.832928       69.808307     -308.119236
  A          175.152714       68.849061     -307.612553
  AL         173.472500       67.889814     -307.105870
  AL         171.792286       66.930568     -306.599187
  AL         170.112072       65.971322     -306.092504
  AL         168.431858       65.012076     -305.585821
  AL         166.751644       64.052829     -305.079138
  AL         165.071430       63.093583     -304.572455
  AL         163.391216       62.134337     -304.065773
  AL         161.711002       61.175090     -303.559090
  AL         160.030788       60.215844     -303.052407
  AL         158.350574       59.256598     -302.545724
  AL         156.670360       58.297352     -302.039041
  AL         154.990146       57.338105     -301.532358
  AL         153.309932       56.378859     -301.025675
  AL         151.629718       55.419613     -300.518992
  AL         149.949504       54.460367     -300.012310
  AL         148.269290       53.501120     -299.505627
  AL         146.589076       52.541874     -298.998944
  AL         144.908862       51.582628     -298.492261
  AL         143.228648       50.623381     -297.985578
  AL         141.548434       49.664135     -297.478895
  AL         139.868220       48.704889     -296.972212
  AL         138.188006       47.745643     -296.465529
  AL         136.507792       46.786396     -295.958847
  AL         134.827578       45.827150     -295.452164
  AL         133.147364       44.867904     -294.945481
  AL         131.467150       43.908657     -294.438798
  AL         129.786936       42.949411     -293.932115
  AL         128.106722       41.990165     -293.425432
  AL         126.426508       41.030919     -292.918749
  AL         124.746294       40.071672     -292.412066
  AL         123.066080       39.112426     -291.905384
  AL         121.385866       38.153180     -291.398701
  AL         119.705652       37.193933     -290.892018
  AL         118.025438       36.234687     -290.385335
  AL         116.345224       35.275441     -289.878652
  AL         114.665010       34.316195     -289.371969
  AL         112.984796       33.356948     -288.865286
  AL         111.304582       32.397702     -288.358603
  AL         109.624368       31.438456     -287.851921
  AL         107.944154       30.479210     -287.345238
  AL         106.263940       29.519963     -286.838555
  AL         104.583726       28.560717     -286.331872
  AL         102.903512       27.601471     -285.825189
  AL         101.223298       26.642224     -285.318506
  AL          99.543084       25.682978     -284.811823
  AL          97.862870       24.723732     -284.305140
  AL          96.182656       23.764486     -283.798458
  AL          94.502442       22.805239     -283.291775
  AL          92.822228       21.845993     -282.785092
  AL          91.142014       20.886747     -282.278409
  A         -248.629042      222.058534      116.361497
  A         -248.891711      223.473994      117.749834
  A         -249.154380      224.889453      119.138171
  A         -249.417049      226.304913      120.526508
  A         -249.679718      227.720372      121.914845
  A         -249.942387      229.135832      123.303181
  A         -250.205056      230.551291      124.691518
  A         -250.467725      231.966751      126.079855
  A         -250.730394      233.382210      127.468192
  A         -250.993063      234.797670      128.856529
  A         -251.255732      236.213129      130.244866
  A         -251.518401      237.628589      131.633203
  A         -251.781070      239.044048      133.021540
  A         -252.043738      240.459508      134.409877
  A         -252.306407      241.874967      135.798214
  A         -252.569076      243.290427      137.186551
  A         -252.831745      244.705886      138.574888
  A         -253.094414      246.121345      139.963225
  A         -253.357083      247.536805      141.351562
  A         -253.619752      248.952264      142.739899
  AL        -253.882421      250.367724      144.128236
  AL        -254.145090      251.783183      145.516573
  AL        -254.407759      253.198643      146.904910
  AL        -254.670428      254.614102      148.293247
  AL        -254.933097      256.029562      149.681584
  AL        -255.195766      257.445021      151.069921
  AL        -255.458435      258.860481      152.458258
  AL        -255.721104      260.275940      153.846595
  AL        -255.983773      261.691400      155.234932
  AL        -256.246442      263.106859      156.623269
  AL        -256.509110      264.522319      158.011605
  AL        -256.771779      265.937778      159.399942
  AL        -257.034448      267.353238      160.788279
  AL        -257.297117      268.768697      162.176616
  AL        -257.559786      270.184156      163.564953
  AL        -257.822455      271.599616      164.953290
  AL        -258.085124      273.015075      166.341627
  AL        -258.347793      274.430535      167.729964
  AL        -258.610462      275.845994      169.118301
  AL        -258.873131      277.261454      170.506638
  AL        -259.135800      278.676913      171.894975
  AL        -259.398469      280.092373      173.283312
  AL        -259.661138      281.507832      174.671649
  AL        -259.923807      282.923292      176.059986
  AL        -260.186476      284.338751      177.448323
  AL        -260.449145      285.754211      178.836660
  AL        -260.711814      287.169670      180.224997
  AL        -260.974482      288.585130      181.613334
  AL        -261.237151      290.000589      183.001671
  AL        -261.499820      291.416049      184.390008
  AL        -261.762489      292.831508      185.778345
  AL        -262.025158      294.246967      187.166682
  AL        -262.287827      295.662427      188.555019
  AL        -262.550496      297.077886      189.943356
  AL        -262.813165      298.493346      191.331693
  AL        -263.075834      299.908805      192.720029
  AL        -263.338503      301.324265      194.108366
  AL        -263.601172      302.739724      195.496703
  AL        -263.863841      304.155184      196.885040
  AL        -264.126510      305.570643      198.273377
  AL        -264.389179      306.986103      199.661714
  AL        -264.651848      308.401562      201.050051
  AL        -264.914517      309.817022      202.438388
  AL        -265.177186      311.232481      203.826725
  AL        -265.439855      312.647941      205.215062
  AL        -265.702523      314.063400      206.603399
  AL        -265.965192      315.478859      207.991736
  AL        -266.227861      316.894319      209.380073
  AL        -266.490530      318.309778      210.768410
  AL        -266.753199      319.725238      212.156747
  A          387.997689      101.907060     -196.655741
  A          386.639673      103.370289     -196.534276
  A          385.281657      104.833518     -196.412811
  A          383.923642      106.296747     -196.291346
  A          382.565626      107.759976     -196.169881
  A          381.207610      109.223205     -196.048416
  A          379.849594      110.686434     -195.926951
  A          378.491578      112.149663     -195.805486
  A          377.133562      113.612892     -195.684021
  A          375.775547      115.076122     -195.562556
  A          374.417531      116.539351     -195.441092
  A          373.059515      118.002580     -195.319627
  A          371.701499      119.465809     -195.198162
  A          370.343483      120.929038     -195.076697
  A          368.985467      122.392267     -194.955232
  A          367.627452      123.855496     -194.833767
  A          366.269436      125.318725     -194.712302
  A          364.911420      126.781954     -194.590837
  A          363.553404      128.245183     -194.469372
  A          362.195388      129.708412     -194.347907
  AL         360.837373      131.171641     -194.226442
  AL         359.479357      132.634870     -194.104977
  AL         358.121341      134.098099     -193.983512
  AL         356.763325      135.561328     -193.862047
  AL         355.405309      137.024557     -193.740582
  AL         354.047293      138.487787     -193.619117
  AL         352.689278      139.951016     -193.497652
  AL         351.331262      141.414245     -193.376187
  AL         349.973246      142.877474     -193.254722
  AL         348.615230      144.340703     -193.133257
  AL         347.257214      145.803932     -193.011792
  AL         345.899198      147.267161     -192.890327
  AL         344.541183      148.730390     -192.768862
  AL         343.183167      150.193619     -192.647397
  AL         341.825151      151.656848     -192.525932
  AL         340.467135      153.120077     -192.404467
  AL         339.109119      154.583306     -192.283002
  AL         337.751104      156.046535     -192.161537
  AL         336.393088      157.509764     -192.040072
  AL         335.035072      158.972993     -191.918607
  AL         333.677056      160.436222     -191.797142
  AL         332.319040      161.899451     -191.675677
  AL         330.961024      163.362681     -191.554212
  AL         329.603009      164.825910     -191.432747
  AL         328.244993      166.289139     -191.311282
  AL         326.886977      167.752368     -191.189817
  AL         325.528961      169.215597     -191.068352
  AL         324.170945      170.678826     -190.946887
  AL         322.812929      172.142055     -190.825422
  AL         321.454914      173.605284     -190.703957
  AL         320.096898      175.068513     -190.582492
  AL         318.738882      176.531742     -190.461027
  AL         317.380866      177.994971     -190.339562
  AL         316.022850      179.458200     -190.218097
  AL         314.664835      180.921429     -190.096632
  AL         313.306819      182.384658     -189.975167
  AL         311.948803      183.847887     -189.853702
  AL         310.590787      185.311116     -189.732237
  AL         309.232771      186.774346     -189.610772
  AL         307.874755      188.237575     -189.489308
  AL         306.516740      189.700804     -189.367843
  AL         305.158724      191.164033     -189.246378
  AL         303.800708      192.627262     -189.124913
  AL         302.442692      194.090491     -189.003448
  AL         301.084676      195.553720     -188.881983
  AL         299.726660      197.016949     -188.760518
  AL         298.368645      198.480178     -188.639053
  AL         297.010629      199.943407     -188.517588
  AL         295.652613      201.406636     -188.396123
  AL         294.294597      202.869865     -188.274658
  A           52.396330       94.755922      103.134758
  A           50.581145       95.585234      103.266467
  A           48.765961       96.414546      103.398177
  A           46.950777       97.243858      103.529886
  A           45.135592       98.073170      103.661596
  A           43.320408       98.902482      103.793305
  A           41.505224       99.731794      103.925015
  A           39.690039      100.561106      104.056724
  A           37.874855      101.390418      104.188434
  A           36.059671      102.219730      104.320143
  A           34.244486      103.049042      104.451853
  A           32.429302      103.878354      104.583562
  A           30.614118      104.707666      104.715272
  A           28.798933      105.536978      104.846982
  A           26.983749      106.366290      104.978691
  A           25.168564      107.195602      105.110401
  A           23.353380      108.024914      105.242110
  A           21.538196      108.854226      105.373820
  A           19.723011      109.683538      105.505529
  A           17.907827      110.512850      105.637239
  AL          16.092643      111.342162      105.768948
  AL          14.277458      112.171474      105.900658
  AL          12.462274      113.000786      106.032367
  AL          10.647090      113.830098      106.164077
  AL           8.831905      114.659410      106.295786
  AL           7.016721      115.488722      106.427496
  AL           5.201537      116.318034      106.559205
  AL           3.386352      117.147346      106.690915
  AL           1.571168      117.976658      106.822625
  AL          -0.244017      118.805970      106.954334
  AL          -2.059201      119.635282      107.086044
  AL          -3.874385      120.464594      107.217753
  AL          -5.689570      121.293906      107.349463
  AL          -7.504754      122.123218      107.481172
  AL          -9.319938      122.952530      107.612882
  AL         -11.135123      123.781842      107.744591
  AL         -12.950307      124.611154      107.876301
  AL         -14.765491      125.440466      108.008010
  AL         -16.580676      126.269777      108.139720
  AL         -18.395860      127.099089      108.271429
  AL         -20.211044      127.928401      108.403139
  AL         -22.026229      128.757713      108.534848
  AL         -23.841413      129.587025      108.666558
  AL         -25.656598      130.416337      108.798268
  AL         -27.471782      131.245649      108.929977
  AL         -29.286966      132.074961      109.061687
  AL         -31.102151      132.904273      109.193396
  AL         -32.917335      133.733585      109.325106
  AL         -34.732519      134.562897      109.456815
  AL         -36.547704      135.392209      109.588525
  AL         -38.362888      136.221521      109.720234
  AL         -40.178072      137.050833      109.851944
  AL         -41.993257      137.880145      109.983653
  AL         -43.808441      138.709457      110.115363
  AL         -45.623625      139.538769      110.247072
  AL         -47.438810      140.368081      110.378782
  AL         -49.253994      141.197393      110.510491
  AL         -51.069179      142.026705      110.642201
  AL         -52.884363      142.856017      110.773911
  AL         -54.699547      143.685329      110.905620
  AL         -56.514732      144.514641      111.037330
  AL         -58.329916      145.343953      111.169039
  AL         -60.145100      146.173265      111.300749
  AL         -61.960285      147.002577      111.432458
  AL         -63.775469      147.831889      111.564168
  AL         -65.590653      148.661201      111.695877
  AL         -67.405838      149.490513      111.827587
  AL         -69.221022      150.319825      111.959296
  AL         -71.036206      151.149137      112.091006
  AL         -72.851391      151.978449      112.222715
  A           35.133106     -134.517439      -81.206796
  A           36.793676     -135.620914      -81.049160
  A           38.454246     -136.724389      -80.891524
  A           40.114817     -137.827864      -80.733888
  A           41.775387     -138.931339      -80.576252
  A           43.435957     -140.034814      -80.418616
  A           45.096528     -141.138289      -80.260980
  A           46.757098     -142.241765      -80.103344
  A           48.417668     -143.345240      -79.945708
  A           50.078238     -144.448715      -79.788072
  A           51.738809     -145.552190      -79.630436
  A           53.399379     -146.655665      -79.472800
  A           55.059949     -147.759140      -79.315164
  A           56.720520     -148.862615      -79.157528
  A           58.381090     -149.966090      -78.999892
  A           60.041660     -151.069565      -78.842256
  A           61.702230     -152.173040      -78.684620
  A           63.362801     -153.276515      -78.526984
  A           65.023371     -154.379990      -78.369348
  A           66.683941     -155.483465      -78.211711
  AL          68.344512     -156.586940      -78.054075
  AL          70.005082     -157.690415      -77.896439
  AL          71.665652     -158.793890      -77.738803
  AL          73.326222     -159.897365      -77.581167
  AL          74.986793     -161.000841      -77.423531
  AL          76.647363     -162.104316      -77.265895
  AL          78.307933     -163.207791      -77.108259
  AL          79.968504     -164.311266      -76.950623
  AL          81.629074     -165.414741      -76.792987
  AL          83.289644     -166.518216      -76.635351
  AL          84.950214     -167.621691      -76.477715
  AL          86.610785     -168.725166      -76.320079
  AL          88.271355     -169.828641      -76.162443
  AL          89.931925     -170.932116      -76.004807
  AL          91.592496     -172.035591      -75.847171
  AL          93.253066     -173.139066      -75.689535
  AL          94.913636     -174.242541      -75.531899
  AL          96.574206     -175.346016      -75.374263
  AL          98.234777     -176.449491      -75.216627
  AL          99.895347     -177.552966      -75.058991
  AL         101.555917     -178.656441      -74.901355
  AL         103.216488     -179.759917      -74.743719
  AL         104.877058     -180.863392      -74.586083
  AL         106.537628     -181.966867      -74.428447
  AL         108.198198     -183.070342      -74.270811
  AL         109.858769     -184.173817      -74.113175
  AL         111.519339     -185.277292      -73.955539
  AL         113.179909     -186.380767      -73.797903
  AL         114.840480     -187.484242      -73.640267
  AL         116.501050     -188.587717      -73.482631
  AL         118.161620     -189.691192      -73.324995
  AL         119.822190     -190.794667      -73.167359
  AL         121.482761     -191.898142      -73.009723
  AL         123.143331     -193.001617      -72.852087
  AL         124.803901     -194.105092      -72.694451
  AL         126.464472     -195.208567      -72.536815
  AL         128.125042     -196.312042      -72.379179
  AL         129.785612     -197.415517      -72.221543
  AL         131.446182     -198.518993      -72.063907
  AL         133.106753     -199.622468      -71.906271
  AL         134.767323     -200.725943      -71.748635
  AL         136.427893     -201.829418      -71.590999
  AL         138.088464     -202.932893      -71.433362
  AL         139.749034     -204.036368      -71.275726
  AL         141.409604     -205.139843      -71.118090
  AL         143.070174     -206.243318      -70.960454
  AL         144.730745     -207.346793      -70.802818
  AL         146.391315     -208.450268      -70.645182
  AL         148.051885     -209.553743      -70.487546
  AL         149.712456     -210.657218      -70.329910
  A          257.095254      -24.518043      195.288116
  A          258.327055      -23.811081      196.696261
  A          259.558856      -23.104118      198.104405
  A          260.790657      -22.397156      199.512549
  A          262.022458      -21.690193      200.920693
  A          263.254259      -20.983230      202.328837
  A          264.486060      -20.276268      203.736981
  A          265.717861      -19.569305      205.145125
  A          266.949663      -18.862343      206.553270
  A          268.181464      -18.155380      207.961414
  A          269.413265      -17.448418      209.369558
  A          270.645066      -16.741455      210.777702
  A          271.876867      -16.034493      212.185846
  A          273.108668      -15.327530      213.593990
  A          274.340469      -14.620567      215.002134
  A          275.572270      -13.913605      216.410279
  A          276.804071      -13.206642      217.818423
  A          278.035873      -12.499680      219.226567
  A          279.267674      -11.792717      220.634711
  A          280.499475      -11.085755      222.042855
  AL         281.731276      -10.378792      223.450999
  AL         282.963077       -9.671830      224.859144
  AL         284.194878       -8.964867      226.267288
  AL         285.426679       -8.257904      227.675432
  AL         286.658480       -7.550942      229.083576
  AL         287.890281       -6.843979      230.491720
  AL         289.122083       -6.137017      231.899864
  AL         290.353884       -5.430054      233.308008
  AL         291.585685       -4.723092      234.716153
  AL         292.817486       -4.016129      236.124297
  AL         294.049287       -3.309167      237.532441
  AL         295.281088       -2.602204      238.940585
  AL         296.512889       -1.895241      240.348729
  AL         297.744690       -1.188279      241.756873
  AL         298.976492       -0.481316      243.165018
  AL         300.208293        0.225646      244.573162
  AL         301.440094        0.932609      245.981306
  AL         302.671895        1.639571      247.389450
  AL         303.903696        2.346534      248.797594
  AL         305.135497        3.053496      250.205738
  AL         306.367298        3.760459      251.613882
  AL         307.599099        4.467422      253.022027
  AL         308.830900        5.174384      254.430171
  AL         310.062702        5.881347      255.838315
  AL         311.294503        6.588309      257.246459
  AL         312.526304        7.295272      258.654603
  AL         313.758105        8.002234      260.062747
  AL         314.989906        8.709197      261.470892
  AL         316.221707        9.416159      262.879036
  AL         317.453508       10.123122      264.287180
  AL         318.685309       10.830085      265.695324
  AL         319.917110       11.537047      267.103468
  AL         321.148912       12.244010      268.511612
  AL         322.380713       12.950972      269.919756
  AL         323.612514       13.657935      271.327901
  AL         324.844315       14.364897      272.736045
  AL         326.076116       15.071860      274.144189
  AL         327.307917       15.778822      275.552333
  AL         328.539718       16.485785      276.960477
  AL         329.771519       17.192748      278.368621
  AL         331.003321       17.899710      279.776766
  AL         332.235122       18.606673      281.184910
  AL         333.466923       19.313635      282.593054
  AL         334.698724       20.020598      284.001198
  AL         335.930525       20.727560      285.409342
  AL         337.162326       21.434523      286.817486
  AL         338.394127       22.141485      288.225630
  AL         339.625928       22.848448      289.633775
  AL         340.857729       23.555411      291.041919
  AL         342.089531       24.262373      292.450063
  A          291.383228      383.373517     -349.865578
  A          291.254271      381.380086     -349.767581
  A          291.125314      379.386655     -349.669584
  A          290.996356      377.393224     -349.571588
  A          290.867399      375.399794     -349.473591
  A          290.738441      373.406363     -349.375594
  A          290.609484      371.412932     -349.277597
  A          290.480526      369.419501     -349.179600
  A          290.351569      367.426070     -349.081604
  A          290.222611      365.432639     -348.983607
  A          290.093654      363.439208     -348.885610
  A          289.964697      361.445778     -348.787613
  A          289.835739      359.452347     -348.689616
  A          289.706782      357.458916     -348.591620
  A          289.577824      355.465485     -348.493623
  A          289.448867      353.472054     -348.395626
  A          289.319909      351.478623     -348.297629
  A          289.190952      349.485192     -348.199632
  A          289.061994      347.491762     -348.101636
  A          288.933037      345.498331     -348.003639
  AL         288.804079      343.504900     -347.905642
  AL         288.675122      341.511469     -347.807645
  AL         288.546165      339.518038     -347.709648
  AL         288.417207      337.524607     -347.611652
  AL         288.288250      335.531176     -347.513655
  AL         288.159292      333.537745     -347.415658
  AL         288.030335      331.544315     -347.317661
  AL         287.901377      329.550884     -347.219664
  AL         287.772420      327.557453     -347.121668
  AL         287.643462      325.564022     -347.023671
  AL         287.514505      323.570591     -346.925674
  AL         287.385548      321.577160     -346.827677
  AL         287.256590      319.583729     -346.729680
  AL         287.127633      317.590299     -346.631684
  AL         286.998675      315.596868     -346.533687
  AL         286.869718      313.603437     -346.435690
  AL         286.740760      311.610006     -346.337693
  AL         286.611803      309.616575     -346.239696
  AL         286.482845      307.623144     -346.141700
  AL         286.353888      305.629713     -346.043703
  AL         286.224930      303.636283     -345.945706
  AL         286.095973      301.642852     -345.847709
  AL         285.967016      299.649421     -345.749712
  AL         285.838058      297.655990     -345.651716
  AL         285.709101      295.662559     -345.553719
  AL         285.580143      293.669128     -345.455722
  AL         285.451186      291.675697     -345.357725
  AL         285.322228      289.682266     -345.259728
  AL         285.193271      287.688836     -345.161732
  AL         285.064313      285.695405     -345.063735
  AL         284.935356      283.701974     -344.965738
  AL         284.806399      281.708543     -344.867741
  AL         284.677441      279.715112     -344.769744
  AL         284.548484      277.721681     -344.671748
  AL         284.419526      275.728250     -344.573751
  AL         284.290569      273.734820     -344.475754
  AL         284.161611      271.741389     -344.377757
  AL         284.032654      269.747958     -344.279760
  AL         283.903696      267.754527     -344.181764
  AL         283.774739      265.761096     -344.083767
  AL         283.645782      263.767665     -343.985770
  AL         283.516824      261.774234     -343.887773
  AL         283.387867      259.780804     -343.789776
  AL         283.258909      257.787373     -343.691780
  AL         283.129952      255.793942     -343.593783
  AL         283.000994      253.800511     -343.495786
  AL         282.872037      251.807080     -343.397789
  AL         282.743079      249.813649     -343.299793
  AL         282.614122      247.820218     -343.201796
  AL         282.485164      245.826788     -343.103799
  A          125.762136     -232.747455      243.150913
  A          123.979783     -232.614276      242.253428
  A          122.197430     -232.481097      241.355942
  A          120.415076     -232.347918      240.458457
  A          118.632723     -232.214739      239.560971
  A          116.850370     -232.081560      238.663486
  A          115.068017     -231.948381      237.766001
  A          113.285663     -231.815202      236.868515
  A          111.503310     -231.682023      235.971030
  A          109.720957     -231.548844      235.073544
  A          107.938603     -231.415664      234.176059
  A          106.156250     -231.282485      233.278574
  A          104.373897     -231.149306      232.381088
  A          102.591543     -231.016127      231.483603
  A          100.809190     -230.882948      230.586117
  A           99.026837     -230.749769      229.688632
  A           97.244483     -230.616590      228.791147
  A           95.462130     -230.483411      227.893661
  A           93.679777     -230.350232      226.996176
  A           91.897424     -230.217053      226.098691
  AL          90.115070     -230.083873      225.201205
  AL          88.332717     -229.950694      224.303720
  AL          86.550364     -229.817515      223.406234
  AL          84.768010     -229.684336      222.508749
  AL          82.985657     -229.551157      221.611264
  AL          81.203304     -229.417978      220.713778
  AL          79.420950     -229.284799      219.816293
  AL          77.638597     -229.151620      218.918807
  AL          75.856244     -229.018441      218.021322
  AL          74.073890     -228.885262      217.123837
  AL          72.291537     -228.752083      216.226351
  AL          70.509184     -228.618903      215.328866
  AL          68.726831     -228.485724      214.431380
  AL          66.944477     -228.352545      213.533895
  AL          65.162124     -228.219366      212.636410
  AL          63.379771     -228.086187      211.738924
  AL          61.597417     -227.953008      210.841439
  AL          59.815064     -227.819829      209.943954
  AL          58.032711     -227.686650      209.046468
  AL          56.250357     -227.553471      208.148983
  AL          54.468004     -227.420292      207.251497
  AL          52.685651     -227.287112      206.354012
  AL          50.903298     -227.153933      205.456527
  AL          49.120944     -227.020754      204.559041
  AL          47.338591     -226.887575      203.661556
  AL          45.556238     -226.754396      202.764070
  AL          43.773884     -226.621217      201.866585
  AL          41.991531     -226.488038      200.969100
  AL          40.209178     -226.354859      200.071614
  AL          38.426824     -226.221680      199.174129
  AL          36.644471     -226.088501      198.276644
  AL          34.862118     -225.955321      197.379158
  AL          33.079764     -225.822142      196.481673
  AL          31.297411     -225.688963      195.584187
  AL          29.515058     -225.555784      194.686702
  AL          27.732705     -225.422605      193.789217
  AL          25.950351     -225.289426      192.891731
  AL          24.167998     -225.156247      191.994246
  AL          22.385645     -225.023068      191.096760
  AL          20.603291     -224.889889      190.199275
  AL          18.820938     -224.756710      189.301790
  AL          17.038585     -224.623531      188.404304
  AL          15.256231     -224.490351      187.506819
  AL          13.473878     -224.357172      186.609333
  AL          11.691525     -224.223993      185.711848
  AL           9.909171     -224.090814      184.814363
  AL           8.126818     -223.957635      183.916877
  AL           6.344465     -223.824456      183.019392
  AL           4.562112     -223.691277      182.121907
  AL           2.779758     -223.558098      181.224421
  A          -42.075446     -139.647082     -292.230270
  A          -42.816787     -139.152110     -290.439903
  A          -43.558129     -138.657137     -288.649536
  A          -44.299470     -138.162164     -286.859168
  A          -45.040811     -137.667191     -285.068801
  A          -45.782152     -137.172219     -283.278433
  A          -46.523493     -136.677246     -281.488066
  A          -47.264834     -136.182273     -279.697699
  A          -48.006175     -135.687300     -277.907331
  A          -48.747516     -135.192328     -276.116964
  A          -49.488857     -134.697355     -274.326596
  A          -50.230198     -134.202382     -272.536229
  A          -50.971539     -133.707409     -270.745862
  A          -51.712880     -133.212437     -268.955494
  A          -52.454221     -132.717464     -267.165127
  A          -53.195562     -132.222491     -265.374759
  A          -53.936903     -131.727518     -263.584392
  A          -54.678244     -131.232546     -261.794025
  A          -55.419585     -130.737573     -260.003657
  A          -56.160926     -130.242600     -258.213290
  AL         -56.902268     -129.747628     -256.422922
  AL         -57.643609     -129.252655     -254.632555
  AL         -58.384950     -128.757682     -252.842188
  AL         -59.126291     -128.262709     -251.051820
  AL         -59.867632     -127.767737     -249.261453
  AL         -60.608973     -127.272764     -247.471085
  AL         -61.350314     -126.777791     -245.680718
  AL         -62.091655     -126.282818     -243.890351
  AL         -62.832996     -125.787846     -242.099983
  AL         -63.574337     -125.292873     -240.309616
  AL         -64.315678     -124.797900     -238.519248
  AL         -65.057019     -124.302927     -236.728881
  AL         -65.798360     -123.807955     -234.938514
  AL         -66.539701     -123.312982     -233.148146
  AL         -67.281042     -122.818009     -231.357779
  AL         -68.022383     -122.323036     -229.567411
  AL         -68.763724     -121.828064     -227.777044
  AL         -69.505066     -121.333091     -225.986677
  AL         -70.246407     -120.838118     -224.196309
  AL         -70.987748     -120.343146     -222.405942
  AL         -71.729089     -119.848173     -220.615574
  AL         -72.470430     -119.353200     -218.825207
  AL         -73.211771     -118.858227     -217.034840
  AL         -73.953112     -118.363255     -215.244472
  AL         -74.694453     -117.868282     -213.454105
  AL         -75.435794     -117.373309     -211.663737
  AL         -76.177135     -116.878336     -209.873370
  AL         -76.918476     -116.383364     -208.083003
  AL         -77.659817     -115.888391     -206.292635
  AL         -78.401158     -115.393418     -204.502268
  AL         -79.142499     -114.898445     -202.711900
  AL         -79.883840     -114.403473     -200.921533
  AL         -80.625181     -113.908500     -199.131166
  AL         -81.366522     -113.413527     -197.340798
  AL         -82.107863     -112.918554     -195.550431
  AL         -82.849205     -112.423582     -193.760063
  AL         -83.590546     -111.928609     -191.969696
  AL         -84.331887     -111.433636     -190.179329
  AL         -85.073228     -110.938664     -188.388961
  AL         -85.814569     -110.443691     -186.598594
  AL         -86.555910     -109.948718     -184.808226
  AL         -87.297251     -109.453745     -183.017859
  AL         -88.038592     -108.958773     -181.227492
  AL         -88.779933     -108.463800     -179.437124
  AL         -89.521274     -107.968827     -177.646757
  AL         -90.262615     -107.473854     -175.856389
  AL         -91.003956     -106.978882     -174.066022
  AL         -91.745297     -106.483909     -172.275655
  AL         -92.486638     -105.988936     -170.485287
  AL         -93.227979     -105.493963     -168.694920
  A          -93.711922     -311.734107      -53.901965
  A          -93.807520     -312.343544      -55.804450
  A          -93.903118     -312.952981      -57.706934
  A          -93.998716     -313.562419      -59.609419
  A          -94.094314     -314.171856      -61.511903
  A          -94.189912     -314.781293      -63.414387
  A          -94.285511     -315.390731      -65.316872
  A          -94.381109     -316.000168      -67.219356
  A          -94.476707     -316.609605      -69.121841
  A          -94.572305     -317.219043      -71.024325
  A          -94.667903     -317.828480      -72.926810
  A          -94.763501     -318.437917      -74.829294
  A          -94.859099     -319.047354      -76.731779
  A          -94.954697     -319.656792      -78.634263
  A          -95.050295     -320.266229      -80.536748
  A          -95.145893     -320.875666      -82.439232
  A          -95.241491     -321.485104      -84.341717
  A          -95.337089     -322.094541      -86.244201
  A          -95.432687     -322.703978      -88.146686
  A          -95.528285     -323.313416      -90.049170
  AL         -95.623883     -323.922853      -91.951655
  AL         -95.719481     -324.532290      -93.854139
  AL         -95.815080     -325.141727      -95.756624
  AL         -95.910678     -325.751165      -97.659108
  AL         -96.006276     -326.360602      -99.561593
  AL         -96.101874     -326.970039     -101.464077
  AL         -96.197472     -327.579477     -103.366561
  AL         -96.293070     -328.188914     -105.269046
  AL         -96.388668     -328.798351     -107.171530
  AL         -96.484266     -329.407789     -109.074015
  AL         -96.579864     -330.017226     -110.976499
  AL         -96.675462     -330.626663     -112.878984
  AL         -96.771060     -331.236100     -114.781468
  AL         -96.866658     -331.845538     -116.683953
  AL         -96.962256     -332.454975     -118.586437
  AL         -97.057854     -333.064412     -120.488922
  AL         -97.153452     -333.673850     -122.391406
  AL         -97.249050     -334.283287     -124.293891
  AL         -97.344648     -334.892724     -126.196375
  AL         -97.440247     -335.502162     -128.098860
  AL         -97.535845     -336.111599     -130.001344
  AL         -97.631443     -336.721036     -131.903829
  AL         -97.727041     -337.330474     -133.806313
  AL         -97.822639     -337.939911     -135.708798
  AL         -97.918237     -338.549348     -137.611282
  AL         -98.013835     -339.158785     -139.513767
  AL         -98.109433     -339.768223     -141.416251
  AL         -98.205031     -340.377660     -143.318736
  AL         -98.300629     -340.987097     -145.221220
  AL         -98.396227     -341.596535     -147.123704
  AL         -98.491825     -342.205972     -149.026189
  AL         -98.587423     -342.815409     -150.928673
  AL         -98.683021     -343.424847     -152.831158
  AL         -98.778619     -344.034284     -154.733642
  AL         -98.874217     -344.643721     -156.636127
  AL         -98.969815     -345.253158     -158.538611
  AL         -99.065414     -345.862596     -160.441096
  AL         -99.161012     -346.472033     -162.343580
  AL         -99.256610     -347.081470     -164.246065
  AL         -99.352208     -347.690908     -166.148549
  AL         -99.447806     -348.300345     -168.051034
  AL         -99.543404     -348.909782     -169.953518
  AL         -99.639002     -349.519220     -171.856003
  AL         -99.734600     -350.128657     -173.758487
  AL         -99.830198     -350.738094     -175.660972
  AL         -99.925796     -351.347531     -177.563456
  AL        -100.021394     -351.956969     -179.465941
  AL        -100.116992     -352.566406     -181.368425
  AL        -100.212590     -353.175843     -183.270910
  AL        -100.308188     -353.785281     -185.173394
  A           83.759425      122.817050     -146.256944
  A           85.124299      122.021681     -147.483528
  A           86.489173      121.226312     -148.710111
  A           87.854046      120.430943     -149.936695
  A           89.218920      119.635574     -151.163279
  A           90.583794      118.840205     -152.389863
  A           91.948668      118.044836     -153.616446
  A           93.313542      117.249467     -154.843030
  A           94.678415      116.454098     -156.069614
  A           96.043289      115.658729     -157.296198
  A           97.408163      114.863360     -158.522781
  A           98.773037      114.067991     -159.749365
  A          100.137910      113.272622     -160.975949
  A          101.502784      112.477253     -162.202533
  A          102.867658      111.681884     -163.429116
  A          104.232532      110.886515     -164.655700
  A          105.597406      110.091146     -165.882284
  A          106.962279      109.295777     -167.108868
  A          108.327153      108.500408     -168.335451
  A          109.692027      107.705039     -169.562035
  AL         111.056901      106.909670     -170.788619
  AL         112.421774      106.114301     -172.015202
  AL         113.786648      105.318932     -173.241786
  AL         115.151522      104.523563     -174.468370
  AL         116.516396      103.728194     -175.694954
  AL         117.881270      102.932825     -176.921537
  AL         119.246143      102.137456     -178.148121
  AL         120.611017      101.342087     -179.374705
  AL         121.975891      100.546718     -180.601289
  AL         123.340765       99.751349     -181.827872
  AL         124.705638       98.955980     -183.054456
  AL         126.070512       98.160610     -184.281040
  AL         127.435386       97.365241     -185.507624
  AL         128.800260       96.569872     -186.734207
  AL         130.165134       95.774503     -187.960791
  AL         131.530007       94.979134     -189.187375
  AL         132.894881       94.183765     -190.413959
  AL         134.259755       93.388396     -191.640542
  AL         135.624629       92.593027     -192.867126
  AL         136.989502       91.797658     -194.093710
  AL         138.354376       91.002289     -195.320294
  AL         139.719250       90.206920     -196.546877
  AL         141.084124       89.411551     -197.773461
  AL         142.448998       88.616182     -199.000045
  AL         143.813871       87.820813     -200.226629
  AL         145.178745       87.025444     -201.453212
  AL         146.543619       86.230075     -202.679796
  AL         147.908493       85.434706     -203.906380
  AL         149.273366       84.639337     -205.132964
  AL         150.638240       83.843968     -206.359547
  AL         152.003114       83.048599     -207.586131
  AL         153.367988       82.253230     -208.812715
  AL         154.732862       81.457861     -210.039298
  AL         156.097735       80.662492     -211.265882
  AL         157.462609       79.867123     -212.492466
  AL         158.827483       79.071754     -213.719050
  AL         160.192357       78.276385     -214.945633
  AL         161.557231       77.481016     -216.172217
  AL         162.922104       76.685647     -217.398801
  AL         164.286978       75.890278     -218.625385
  AL         165.651852       75.094909     -219.851968
  AL         167.016726       74.299540     -221.078552
  AL         168.381599       73.504171     -222.305136
  AL         169.746473       72.708802     -223.531720
  AL         171.111347       71.913433     -224.758303
  AL         172.476221       71.118064     -225.984887
  AL         173.841095       70.322695     -227.211471
  AL         175.205968       69.527325     -228.438055
  AL         176.570842       68.731956     -229.664638
  AL         177.935716       67.936587     -230.891222
  A          182.078407      143.111128      -33.040239
  A          183.256793      141.651504      -33.733711
  A          184.435180      140.191880      -34.427182
  A          185.613566      138.732256      -35.120654
  A          186.791953      137.272632      -35.814126
  A          187.970339      135.813008      -36.507598
  A          189.148726      134.353384      -37.201069
  A          190.327112      132.893760      -37.894541
  A          191.505499      131.434136      -38.588013
  A          192.683885      129.974512      -39.281485
  A          193.862272      128.514888      -39.974957
  A          195.040658      127.055264      -40.668428
  A          196.219045      125.595640      -41.361900
  A          197.397431      124.136016      -42.055372
  A          198.575818      122.676393      -42.748844
  A          199.754204      121.216769      -43.442315
  A          200.932591      119.757145      -44.135787
  A          202.110977      118.297521      -44.829259
  A          203.289364      116.837897      -45.522731
  A          204.467750      115.378273      -46.216203
  AL         205.646137      113.918649      -46.909674
  AL         206.824523      112.459025      -47.603146
  AL         208.002910      110.999401      -48.296618
  AL         209.181296      109.539777      -48.990090
  AL         210.359683      108.080153      -49.683561
  AL         211.538069      106.620529      -50.377033
  AL         212.716456      105.160905      -51.070505
  AL         213.894842      103.701281      -51.763977
  AL         215.073229      102.241657      -52.457449
  AL         216.251615      100.782033      -53.150920
  AL         217.430002       99.322409      -53.844392
  AL         218.608388       97.862785      -54.537864
  AL         219.786775       96.403161      -55.231336
  AL         220.965161       94.943537      -55.924808
  AL         222.143548       93.483913      -56.618279
  AL         223.321934       92.024289      -57.311751
  AL         224.500321       90.564665      -58.005223
  AL         225.678707       89.105041      -58.698695
  AL         226.857094       87.645417      -59.392166
  AL         228.035480       86.185793      -60.085638
  AL         229.213867       84.726169      -60.779110
  AL         230.392253       83.266545      -61.472582
  AL         231.570640       81.806921      -62.166054
  AL         232.749026       80.347297      -62.859525
  AL         233.927413       78.887673      -63.552997
  AL         235.105799       77.428049      -64.246469
  AL         236.284186       75.968425      -64.939941
  AL         237.462572       74.508801      -65.633412
  AL         238.640958       73.049177      -66.326884
  AL         239.819345       71.589553      -67.020356
  AL         240.997731       70.129929      -67.713828
  AL         242.176118       68.670305      -68.407300
  AL         243.354504       67.210681      -69.100771
  AL         244.532891       65.751057      -69.794243
  AL         245.711277       64.291433      -70.487715
  AL         246.889664       62.831809      -71.181187
  AL         248.068050       61.372185      -71.874658
  AL         249.246437       59.912561      -72.568130
  AL         250.424823       58.452937      -73.261602
  AL         251.603210       56.993313      -73.955074
  AL         252.781596       55.533689      -74.648546
  AL         253.959983       54.074065      -75.342017
  AL         255.138369       52.614441      -76.035489
  AL         256.316756       51.154817      -76.728961
  AL         257.495142       49.695193      -77.422433
  AL         258.673529       48.235569      -78.115904
  AL         259.851915       46.775945      -78.809376
  AL         261.030302       45.316321      -79.502848
  AL         262.208688       43.856697      -80.196320
  AL         263.387075       42.397073      -80.889792
  A          -38.831280     -141.034103     -263.018523
  A          -37.249958     -140.291400     -262.044968
  A          -35.668635     -139.548696     -261.071412
  A          -34.087312     -138.805993     -260.097857
  A          -32.505990     -138.063290     -259.124302
  A          -30.924667     -137.320586     -258.150746
  A          -29.343344     -136.577883     -257.177191
  A          -27.762022     -135.835180     -256.203635
  A          -26.180699     -135.092476     -255.230080
  A          -24.599376     -134.349773     -254.256524
  A          -23.018053     -133.607069     -253.282969
  A          -21.436731     -132.864366     -252.309413
  A          -19.855408     -132.121663     -251.335858
  A          -18.274085     -131.378959     -250.362302
  A          -16.692763     -130.636256     -249.388747
  A          -15.111440     -129.893553     -248.415191
  A          -13.530117     -129.150849     -247.441636
  A          -11.948795     -128.408146     -246.468080
  A          -10.367472     -127.665443     -245.494525
  A           -8.786149     -126.922739     -244.520969
  AL          -7.204827     -126.180036     -243.547414
  AL          -5.623504     -125.437332     -242.573858
  AL          -4.042181     -124.694629     -241.600303
  AL          -2.460859     -123.951926     -240.626747
  AL          -0.879536     -123.209222     -239.653192
  AL           0.701787     -122.466519     -238.679636
  AL           2.283109     -121.723816     -237.706081
  AL           3.864432     -120.981112     -236.732526
  AL           5.445755     -120.238409     -235.758970
  AL           7.027078     -119.495705     -234.785415
  AL           8.608400     -118.753002     -233.811859
  AL          10.189723     -118.010299     -232.838304
  AL          11.771046     -117.267595     -231.864748
  AL          13.352368     -116.524892     -230.891193
  AL          14.933691     -115.782189     -229.917637
  AL          16.515014     -115.039485     -228.944082
  AL          18.096336     -114.296782     -227.970526
  AL          19.677659     -113.554079     -226.996971
  AL          21.258982     -112.811375     -226.023415
  AL          22.840304     -112.068672     -225.049860
  AL          24.421627     -111.325968     -224.076304
  AL          26.002950     -110.583265     -223.102749
  AL          27.584272     -109.840562     -222.129193
  AL          29.165595     -109.097858     -221.155638
  AL          30.746918     -108.355155     -220.182082
  AL          32.328241     -107.612452     -219.208527
  AL          33.909563     -106.869748     -218.234971
  AL          35.490886     -106.127045     -217.261416
  AL          37.072209     -105.384341     -216.287860
  AL          38.653531     -104.641638     -215.314305
  AL          40.234854     -103.898935     -214.340750
  AL          41.816177     -103.156231     -213.367194
  AL          43.397499     -102.413528     -212.393639
  AL          44.978822     -101.670825     -211.420083
  AL          46.560145     -100.928121     -210.446528
  AL          48.141467     -100.185418     -209.472972
  AL          49.722790      -99.442715     -208.499417
  AL          51.304113      -98.700011     -207.525861
  AL          52.885435      -97.957308     -206.552306
  AL          54.466758      -97.214604     -205.578750
  AL          56.048081      -96.471901     -204.605195
  AL          57.629403      -95.729198     -203.631639
  AL          59.210726      -94.986494     -202.658084
  AL          60.792049      -94.243791     -201.684528
  AL          62.373372      -93.501088     -200.710973
  AL          63.954694      -92.758384     -199.737417
  AL          65.536017      -92.015681     -198.763862
  AL          67.117340      -91.272977     -197.790306
  AL          68.698662      -90.530274     -196.816751
  AL          70.279985      -89.787571     -195.843195
  A         -395.099246     -303.488788      168.342682
  A         -394.055029     -303.717898      170.032984
  A         -393.010811     -303.947008      171.723285
  A         -391.966594     -304.176118      173.413586
  A         -390.922377     -304.405227      175.103888
  A         -389.878159     -304.634337      176.794189
  A         -388.833942     -304.863447      178.484490
  A         -387.789724     -305.092557      180.174792
  A         -386.745507     -305.321667      181.865093
  A         -385.701289     -305.550776      183.555394
  A         -384.657072     -305.779886      185.245696
  A         -383.612854     -306.008996      186.935997
  A         -382.568637     -306.238106      188.626298
  A         -381.524419     -306.467216      190.316599
  A         -380.480202     -306.696325      192.006901
  A         -379.435984     -306.925435      193.697202
  A         -378.391767     -307.154545      195.387503
  A         -377.347549     -307.383655      197.077805
  A         -376.303332     -307.612765      198.768106
  A         -375.259114     -307.841874      200.458407
  AL        -374.214897     -308.070984      202.148709
  AL        -373.170679     -308.300094      203.839010
  AL        -372.126462     -308.529204      205.529311
  AL        -371.082244     -308.758314      207.219613
  AL        -370.038027     -308.987423      208.909914
  AL        -368.993809     -309.216533      210.600215
  AL        -367.949592     -309.445643      212.290517
  AL        -366.905374     -309.674753      213.980818
  AL        -365.861157     -309.903863      215.671119
  AL        -364.816939     -310.132972      217.361421
  AL        -363.772722     -310.362082      219.051722
  AL        -362.728504     -310.591192      220.742023
  AL        -361.684287     -310.820302      222.432324
  AL        -360.640069     -311.049412      224.122626
  AL        -359.595852     -311.278521      225.812927
  AL        -358.551634     -311.507631      227.503228
  AL        -357.507417     -311.736741      229.193530
  AL        -356.463199     -311.965851      230.883831
  AL        -355.418982     -312.194960      232.574132
  AL        -354.374764     -312.424070      234.264434
  AL        -353.330547     -312.653180      235.954735
  AL        -352.286329     -312.882290      237.645036
  AL        -351.242112     -313.111400      239.335338
  AL        -350.197894     -313.340509      241.025639
  AL        -349.153677     -313.569619      242.715940
  AL        -348.109459     -313.798729      244.406242
  AL        -347.065242     -314.027839      246.096543
  AL        -346.021025     -314.256949      247.786844
  AL        -344.976807     -314.486058      249.477146
  AL        -343.932590     -314.715168      251.167447
  AL        -342.888372     -314.944278      252.857748
  AL        -341.844155     -315.173388      254.548049
  AL        -340.799937     -315.402498      256.238351
  AL        -339.755720     -315.631607      257.928652
  AL        -338.711502     -315.860717      259.618953
  AL        -337.667285     -316.089827      261.309255
  AL        -336.623067     -316.318937      262.999556
  AL        -335.578850     -316.548047      264.689857
  AL        -334.534632     -316.777156      266.380159
  AL        -333.490415     -317.006266      268.070460
  AL        -332.446197     -317.235376      269.760761
  AL        -331.401980     -317.464486      271.451063
  AL        -330.357762     -317.693596      273.141364
  AL        -329.313545     -317.922705      274.831665
  AL        -328.269327     -318.151815      276.521967
  AL        -327.225110     -318.380925      278.212268
  AL        -326.180892     -318.610035      279.902569
  AL        -325.136675     -318.839145      281.592871
  AL        -324.092457     -319.068254      283.283172
  AL        -323.048240     -319.297364      284.973473
  A          105.560138      272.148576      265.213254
  A          105.123531      273.161474      263.544898
  A          104.686923      274.174373      261.876542
  A          104.250316      275.187271      260.208187
  A          103.813708      276.200170      258.539831
  A          103.377101      277.213068      256.871475
  A          102.940494      278.225967      255.203120
  A          102.503886      279.238865      253.534764
  A          102.067279      280.251764      251.866409
  A          101.630671      281.264662      250.198053
  A          101.194064      282.277561      248.529697
  A          100.757457      283.290459      246.861342
  A          100.320849      284.303358      245.192986
  A           99.884242      285.316256      243.524630
  A           99.447634      286.329155      241.856275
  A           99.011027      287.342053      240.187919
  A           98.574419      288.354952      238.519563
  A           98.137812      289.367850      236.851208
  A           97.701205      290.380749      235.182852
  A           97.264597      291.393647      233.514496
  AL          96.827990      292.406546      231.846141
  AL          96.391382      293.419444      230.177785
  AL          95.954775      294.432343      228.509429
  AL          95.518167      295.445241      226.841074
  AL          95.081560      296.458140      225.172718
  AL          94.644953      297.471038      223.504362
  AL          94.208345      298.483937      221.836007
  AL          93.771738      299.496835      220.167651
  AL          93.335130      300.509734      218.499295
  AL          92.898523      301.522632      216.830940
  AL          92.461915      302.535531      215.162584
  AL          92.025308      303.548429      213.494228
  AL          91.588701      304.561328      211.825873
  AL          91.152093      305.574226      210.157517
  AL          90.715486      306.587125      208.489161
  AL          90.278878      307.600023      206.820806
  AL          89.842271      308.612921      205.152450
  AL          89.405663      309.625820      203.484095
  AL          88.969056      310.638718      201.815739
  AL          88.532449      311.651617      200.147383
  AL          88.095841      312.664515      198.479028
  AL          87.659234      313.677414      196.810672
  AL          87.222626      314.690312      195.142316
  AL          86.786019      315.703211      193.473961
  AL          86.349411      316.716109      191.805605
  AL          85.912804      317.729008      190.137249
  AL          85.476197      318.741906      188.468894
  AL          85.039589      319.754805      186.800538
  AL          84.602982      320.767703      185.132182
  AL          84.166374      321.780602      183.463827
  AL          83.729767      322.793500      181.795471
  AL          83.293159      323.806399      180.127115
  AL          82.856552      324.819297      178.458760
  AL          82.419945      325.832196      176.790404
  AL          81.983337      326.845094      175.122048
  AL          81.546730      327.857993      173.453693
  AL          81.110122      328.870891      171.785337
  AL          80.673515      329.883790      170.116981
  AL          80.236907      330.896688      168.448626
  AL          79.800300      331.909587      166.780270
  AL          79.363693      332.922485      165.111914
  AL          78.927085      333.935384      163.443559
  AL          78.490478      334.948282      161.775203
  AL          78.053870      335.961181      160.106848
  AL          77.617263      336.974079      158.438492
  AL          77.180655      337.986978      156.770136
  AL          76.744048      338.999876      155.101781
  AL          76.307441      340.012775      153.433425
  AL          75.870833      341.025673      151.765069
  AL          75.434226      342.038572      150.096714
  A         -143.813146       25.593042     -336.596918
  A         -142.575775       24.576104     -335.399107
  A         -141.338404       23.559166     -334.201296
  A         -140.101033       22.542228     -333.003486
  A         -138.863662       21.525290     -331.805675
  A         -137.626291       20.508353     -330.607864
  A         -136.388920       19.491415     -329.410054
  A         -135.151549       18.474477     -328.212243
  A         -133.914178       17.457539     -327.014432
  A         -132.676807       16.440601     -325.816621
  A         -131.439436       15.423663     -324.618811
  A         -130.202065       14.406726     -323.421000
  A         -128.964694       13.389788     -322.223189
  A         -127.727323       12.372850     -321.025379
  A         -126.489952       11.355912     -319.827568
  A         -125.252581       10.338974     -318.629757
  A         -124.015210        9.322036     -317.431947
  A         -122.777839        8.305099     -316.234136
  A         -121.540468        7.288161     -315.036325
  A         -120.303097        6.271223     -313.838514
  AL        -119.065726        5.254285     -312.640704
  AL        -117.828355        4.237347     -311.442893
  AL        -116.590984        3.220409     -310.245082
  AL        -115.353613        2.203472     -309.047272
  AL        -114.116242        1.186534     -307.849461
  AL        -112.878871        0.169596     -306.651650
  AL        -111.641500       -0.847342     -305.453840
  AL        -110.404129       -1.864280     -304.256029
  AL        -109.166758       -2.881218     -303.058218
  AL        -107.929387       -3.898155     -301.860407
  AL        -106.692016       -4.915093     -300.662597
  AL        -105.454645       -5.932031     -299.464786
  AL        -104.217274       -6.948969     -298.266975
  AL        -102.979903       -7.965907     -297.069165
  AL        -101.742532       -8.982845     -295.871354
  AL        -100.505161       -9.999782     -294.673543
  AL         -99.267790      -11.016720     -293.475733
  AL         -98.030419      -12.033658     -292.277922
  AL         -96.793048      -13.050596     -291.080111
  AL         -95.555677      -14.067534     -289.882300
  AL         -94.318306      -15.084472     -288.684490
  AL         -93.080935      -16.101409     -287.486679
  AL         -91.843564      -17.118347     -286.288868
  AL         -90.606193      -18.135285     -285.091058
  AL         -89.368822      -19.152223     -283.893247
  AL         -88.131451      -20.169161     -282.695436
  AL         -86.894080      -21.186099     -281.497626
  AL         -85.656709      -22.203037     -280.299815
  AL         -84.419338      -23.219974     -279.102004
  AL         -83.181967      -24.236912     -277.904193
  AL         -81.944596      -25.253850     -276.706383
  AL         -80.707225      -26.270788     -275.508572
  AL         -79.469854      -27.287726     -274.310761
  AL         -78.232483      -28.304664     -273.112951
  AL         -76.995112      -29.321601     -271.915140
  AL         -75.757741      -30.338539     -270.717329
  AL         -74.520370      -31.355477     -269.519519
  AL         -73.283000      -32.372415     -268.321708
  AL         -72.045629      -33.389353     -267.123897
  AL         -70.808258      -34.406291     -265.926086
  AL         -69.570887      -35.423228     -264.728276
  AL         -68.333516      -36.440166     -263.530465
  AL         -67.096145      -37.457104     -262.332654
  AL         -65.858774      -38.474042     -261.134844
  AL         -64.621403      -39.490980     -259.937033
  AL         -63.384032      -40.507918     -258.739222
  AL         -62.146661      -41.524855     -257.541412
  AL         -60.909290      -42.541793     -256.343601
  AL         -59.671919      -43.558731     -255.145790
  AL         -58.434548      -44.575669     -253.947979
  A          199.090236      193.049442      213.991294
  A          199.952083      194.843255      213.792668
  A          200.813931      196.637069      213.594041
  A          201.675778      198.430882      213.395415
  A          202.537625      200.224696      213.196788
  A          203.399473      202.018509      212.998162
  A          204.261320      203.812323      212.799535
  A          205.123167      205.606136      212.600909
  A          205.985014      207.399950      212.402282
  A          206.846862      209.193763      212.203656
  A          207.708709      210.987577      212.005029
  A          208.570556      212.781390      211.806403
  A          209.432403      214.575203      211.607777
  A          210.294251      216.369017      211.409150
  A          211.156098      218.162830      211.210524
  A          212.017945      219.956644      211.011897
  A          212.879793      221.750457      210.813271
  A          213.741640      223.544271      210.614644
  A          214.603487      225.338084      210.416018
  A          215.465334      227.131898      210.217391
  AL         216.327182      228.925711      210.018765
  AL         217.189029      230.719525      209.820138
  AL         218.050876      232.513338      209.621512
  AL         218.912724      234.307152      209.422885
  AL         219.774571      236.100965      209.224259
  AL         220.636418      237.894779      209.025632
  AL         221.498265      239.688592      208.827006
  AL         222.360113      241.482406      208.628379
  AL         223.221960      243.276219      208.429753
  AL         224.083807      245.070033      208.231126
  AL         224.945655      246.863846      208.032500
  AL         225.807502      248.657660      207.833873
  AL         226.669349      250.451473      207.635247
  AL         227.531196      252.245286      207.436620
  AL         228.393044      254.039100      207.237994
  AL         229.254891      255.832913      207.039368
  AL         230.116738      257.626727      206.840741
  AL         230.978586      259.420540      206.642115
  AL         231.840433      261.214354      206.443488
  AL         232.702280      263.008167      206.244862
  AL         233.564127      264.801981      206.046235
  AL         234.425975      266.595794      205.847609
  AL         235.287822      268.389608      205.648982
  AL         236.149669      270.183421      205.450356
  AL         237.011516      271.977235      205.251729
  AL         237.873364      273.771048      205.053103
  AL         238.735211      275.564862      204.854476
  AL         239.597058      277.358675      204.655850
  AL         240.458906      279.152489      204.457223
  AL         241.320753      280.946302      204.258597
  AL         242.182600      282.740116      204.059970
  AL         243.044447      284.533929      203.861344
  AL         243.906295      286.327743      203.662717
  AL         244.768142      288.121556      203.464091
  AL         245.629989      289.915369      203.265464
  AL         246.491837      291.709183      203.066838
  AL         247.353684      293.502996      202.868211
  AL         248.215531      295.296810      202.669585
  AL         249.077378      297.090623      202.470959
  AL         249.939226      298.884437      202.272332
  AL         250.801073      300.678250      202.073706
  AL         251.662920      302.472064      201.875079
  AL         252.524768      304.265877      201.676453
  AL         253.386615      306.059691      201.477826
  AL         254.248462      307.853504      201.279200
  AL         255.110309      309.647318      201.080573
  AL         255.972157      311.441131      200.881947
  AL         256.834004      313.234945      200.683320
  AL         257.695851      315.028758      200.484694
  AL         258.557699      316.822572      200.286067
  A          157.454993     -298.121520      205.254413
  A          155.708259     -298.945758      205.773596
  A          153.961525     -299.769997      206.292778
  A          152.214791     -300.594235      206.811960
  A          150.468056     -301.418474      207.331143
  A          148.721322     -302.242713      207.850325
  A          146.974588     -303.066951      208.369508
  A          145.227854     -303.891190      208.888690
  A          143.481120     -304.715429      209.407872
  A          141.734385     -305.539667      209.927055
  A          139.987651     -306.363906      210.446237
  A          138.240917     -307.188144      210.965419
  A          136.494183     -308.012383      211.484602
  A          134.747449     -308.836622      212.003784
  A          133.000714     -309.660860      212.522967
  A          131.253980     -310.485099      213.042149
  A          129.507246     -311.309338      213.561331
  A          127.760512     -312.133576      214.080514
  A          126.013778     -312.957815      214.599696
  A          124.267043     -313.782053      215.118878
  AL         122.520309     -314.606292      215.638061
  AL         120.773575     -315.430531      216.157243
  AL         119.026841     -316.254769      216.676426
  AL         117.280107     -317.079008      217.195608
  AL         115.533372     -317.903247      217.714790
  AL         113.786638     -318.727485      218.233973
  AL         112.039904     -319.551724      218.753155
  AL         110.293170     -320.375962      219.272337
  AL         108.546436     -321.200201      219.791520
  AL         106.799701     -322.024440      220.310702
  AL         105.052967     -322.848678      220.829885
  AL         103.306233     -323.672917      221.349067
  AL         101.559499     -324.497155      221.868249
  AL          99.812765     -325.321394      222.387432
  AL          98.066030     -326.145633      222.906614
  AL          96.319296     -326.969871      223.425797
  AL          94.572562     -327.794110      223.944979
  AL          92.825828     -328.618349      224.464161
  AL          91.079094     -329.442587      224.983344
  AL          89.332359     -330.266826      225.502526
  AL          87.585625     -331.091064      226.021708
  AL          85.838891     -331.915303      226.540891
  AL          84.092157     -332.739542      227.060073
  AL          82.345423     -333.563780      227.579256
  AL          80.598689     -334.388019      228.098438
  AL          78.851954     -335.212258      228.617620
  AL          77.105220     -336.036496      229.136803
  AL          75.358486     -336.860735      229.655985
  AL          73.611752     -337.684973      230.175167
  AL          71.865018     -338.509212      230.694350
  AL          70.118283     -339.333451      231.213532
  AL          68.371549     -340.157689      231.732715
  AL          66.624815     -340.981928      232.251897
  AL          64.878081     -341.806166      232.771079
  AL          63.131347     -342.630405      233.290262
  AL          61.384612     -343.454644      233.809444
  AL          59.637878     -344.278882      234.328627
  AL          57.891144     -345.103121      234.847809
  AL          56.144410     -345.927360      235.366991
  AL          54.397676     -346.751598      235.886174
  AL          52.650941     -347.575837      236.405356
  AL          50.904207     -348.400075      236.924538
  AL          49.157473     -349.224314      237.443721
  AL          47.410739     -350.048553      237.962903
  AL          45.664005     -350.872791      238.482086
  AL          43.917270     -351.697030      239.001268
  AL          42.170536     -352.521269      239.520450
  AL          40.423802     -353.345507      240.039633
  AL          38.677068     -354.169746      240.558815
  AL          36.930334     -354.993984      241.077997
  A           17.661112      230.729309      239.726875
  A           18.044462      228.780489      239.492045
  A           18.427812      226.831670      239.257214
  A           18.811163      224.882850      239.022383
  A           19.194513      222.934031      238.787553
  A           19.577863      220.985211      238.552722
  A           19.961213      219.036392      238.317891
  A           20.344564      217.087573      238.083061
  A           20.727914      215.138753      237.848230
  A           21.111264      213.189934      237.613399
  A           21.494614      211.241114      237.378569
  A           21.877965      209.292295      237.143738
  A           22.261315      207.343475      236.908908
  A           22.644665      205.394656      236.674077
  A           23.028015      203.445837      236.439246
  A           23.411365      201.497017      236.204416
  A           23.794716      199.548198      235.969585
  A           24.178066      197.599378      235.734754
  A           24.561416      195.650559      235.499924
  A           24.944766      193.701739      235.265093
  AL          25.328117      191.752920      235.030262
  AL          25.711467      189.804101      234.795432
  AL          26.094817      187.855281      234.560601
  AL          26.478167      185.906462      234.325770
  AL          26.861518      183.957642      234.090940
  AL          27.244868      182.008823      233.856109
  AL          27.628218      180.060003      233.621278
  AL          28.011568      178.111184      233.386448
  AL          28.394918      176.162365      233.151617
  AL          28.778269      174.213545      232.916786
  AL          29.161619      172.264726      232.681956
  AL          29.544969      170.315906      232.447125
  AL          29.928319      168.367087      232.212295
  AL          30.311670      166.418267      231.977464
  AL          30.695020      164.469448      231.742633
  AL          31.078370      162.520629      231.507803
  AL          31.461720      160.571809      231.272972
  AL          31.845071      158.622990      231.038141
  AL          32.228421      156.674170      230.803311
  AL          32.611771      154.725351      230.568480
  AL          32.995121      152.776531      230.333649
  AL          33.378471      150.827712      230.098819
  AL          33.761822      148.878893      229.863988
  AL          34.145172      146.930073      229.629157
  AL          34.528522      144.981254      229.394327
  AL          34.911872      143.032434      229.159496
  AL          35.295223      141.083615      228.924665
  AL          35.678573      139.134795      228.689835
  AL          36.061923      137.185976      228.455004
  AL          36.445273      135.237157      228.220173
  AL          36.828624      133.288337      227.985343
  AL          37.211974      131.339518      227.750512
  AL          37.595324      129.390698      227.515682
  AL          37.978674      127.441879      227.280851
  AL          38.362024      125.493059      227.046020
  AL          38.745375      123.544240      226.811190
  AL          39.128725      121.595421      226.576359
  AL          39.512075      119.646601      226.341528
  AL          39.895425      117.697782      226.106698
  AL          40.278776      115.748962      225.871867
  AL          40.662126      113.800143      225.637036
  AL          41.045476      111.851323      225.402206
  AL          41.428826      109.902504      225.167375
  AL          41.812177      107.953685      224.932544
  AL          42.195527      106.004865      224.697714
  AL          42.578877      104.056046      224.462883
  AL          42.962227      102.107226      224.228052
  AL          43.345577      100.158407      223.993222
  AL          43.728928       98.209587      223.758391
  AL          44.112278       96.260768      223.523561
  A          309.468890     -281.865531      274.583236
  A          308.265256     -280.273717      274.451353
  A          307.061621     -278.681903      274.319470
  A          305.857987     -277.090089      274.187587
  A          304.654353     -275.498275      274.055704
  A          303.450719     -273.906461      273.923821
  A          302.247084     -272.314647      273.791938
  A          301.043450     -270.722834      273.660054
  A          299.839816     -269.131020      273.528171
  A          298.636181     -267.539206      273.396288
  A          297.432547     -265.947392      273.264405
  A          296.228913     -264.355578      273.132522
  A          295.025279     -262.763764      273.000639
  A          293.821644     -261.171950      272.868756
  A          292.618010     -259.580136      272.736872
  A          291.414376     -257.988323      272.604989
  A          290.210742     -256.396509      272.473106
  A          289.007107     -254.804695      272.341223
  A          287.803473     -253.212881      272.209340
  A          286.599839     -251.621067      272.077457
  AL         285.396204     -250.029253      271.945574
  AL         284.192570     -248.437439      271.813690
  AL         282.988936     -246.845626      271.681807
  AL         281.785302     -245.253812      271.549924
  AL         280.581667     -243.661998      271.418041
  AL         279.378033     -242.070184      271.286158
  AL         278.174399     -240.478370      271.154275
  AL         276.970765     -238.886556      271.022392
  AL         275.767130     -237.294742      270.890508
  AL         274.563496     -235.702928      270.758625
  AL         273.359862     -234.111115      270.626742
  AL         272.156228     -232.519301      270.494859
  AL         270.952593     -230.927487      270.362976
  AL         269.748959     -229.335673      270.231093
  AL         268.545325     -227.743859      270.099210
  AL         267.341690     -226.152045      269.967327
  AL         266.138056     -224.560231      269.835443
  AL         264.934422     -222.968418      269.703560
  AL         263.730788     -221.376604      269.571677
  AL         262.527153     -219.784790      269.439794
  AL         261.323519     -218.192976      269.307911
  AL         260.119885     -216.601162      269.176028
  AL         258.916251     -215.009348      269.044145
  AL         257.712616     -213.417534      268.912261
  AL         256.508982     -211.825720      268.780378
  AL         255.305348     -210.233907      268.648495
  AL         254.101713     -208.642093      268.516612
  AL         252.898079     -207.050279      268.384729
  AL         251.694445     -205.458465      268.252846
  AL         250.490811     -203.866651      268.120963
  AL         249.287176     -202.274837      267.989079
  AL         248.083542     -200.683023      267.857196
  AL         246.879908     -199.091210      267.725313
  AL         245.676274     -197.499396      267.593430
  AL         244.472639     -195.907582      267.461547
  AL         243.269005     -194.315768      267.329664
  AL         242.065371     -192.723954      267.197781
  AL         240.861737     -191.132140      267.065897
  AL         239.658102     -189.540326      266.934014
  AL         238.454468     -187.948512      266.802131
  AL         237.250834     -186.356699      266.670248
  AL         236.047199     -184.764885      266.538365
  AL         234.843565     -183.173071      266.406482
  AL         233.639931     -181.581257      266.274599
  AL         232.436297     -179.989443      266.142716
  AL         231.232662     -178.397629      266.010832
  AL         230.029028     -176.805815      265.878949
  AL         228.825394     -175.214002      265.747066
  AL         227.621760     -173.622188      265.615183
  AL         226.418125     -172.030374      265.483300
  A          200.687867        7.412646      -87.739959
  A          201.928040        8.492791      -88.878052
  A          203.168214        9.572936      -90.016146
  A          204.408387       10.653081      -91.154239
  A          205.648560       11.733227      -92.292333
  A          206.888733       12.813372      -93.430426
  A          208.128907       13.893517      -94.568519
  A          209.369080       14.973662      -95.706613
  A          210.609253       16.053807      -96.844706
  A          211.849426       17.133952      -97.982800
  A          213.089600       18.214098      -99.120893
  A          214.329773       19.294243     -100.258987
  A          215.569946       20.374388     -101.397080
  A          216.810119       21.454533     -102.535174
  A          218.050292       22.534678     -103.673267
  A          219.290466       23.614823     -104.811361
  A          220.530639       24.694968     -105.949454
  A          221.770812       25.775114     -107.087548
  A          223.010985       26.855259     -108.225641
  A          224.251159       27.935404     -109.363735
  AL         225.491332       29.015549     -110.501828
  AL         226.731505       30.095694     -111.639922
  AL         227.971678       31.175839     -112.778015
  AL         229.211852       32.255985     -113.916109
  AL         230.452025       33.336130     -115.054202
  AL         231.692198       34.416275     -116.192296
  AL         232.932371       35.496420     -117.330389
  AL         234.172545       36.576565     -118.468483
  AL         235.412718       37.656710     -119.606576
  AL         236.652891       38.736855     -120.744670
  AL         237.893064       39.817001     -121.882763
  AL         239.133237       40.897146     -123.020857
  AL         240.373411       41.977291     -124.158950
  AL         241.613584       43.057436     -125.297044
  AL         242.853757       44.137581     -126.435137
  AL         244.093930       45.217726     -127.573231
  AL         245.334104       46.297872     -128.711324
  AL         246.574277       47.378017     -129.849418
  AL         247.814450       48.458162     -130.987511
  AL         249.054623       49.538307     -132.125605
  AL         250.294797       50.618452     -133.263698
  AL         251.534970       51.698597     -134.401792
  AL         252.775143       52.778743     -135.539885
  AL         254.015316       53.858888     -136.677979
  AL         255.255490       54.939033     -137.816072
  AL         256.495663       56.019178     -138.954166
  AL         257.735836       57.099323     -140.092259
  AL         258.976009       58.179468     -141.230352
  AL         260.216182       59.259613     -142.368446
  AL         261.456356       60.339759     -143.506539
  AL         262.696529       61.419904     -144.644633
  AL         263.936702       62.500049     -145.782726
  AL         265.176875       63.580194     -146.920820
  AL         266.417049       64.660339     -148.058913
  AL         267.657222       65.740484     -149.197007
  AL         268.897395       66.820630     -150.335100
  AL         270.137568       67.900775     -151.473194
  AL         271.377742       68.980920     -152.611287
  AL         272.617915       70.061065     -153.749381
  AL         273.858088       71.141210     -154.887474
  AL         275.098261       72.221355     -156.025568
  AL         276.338435       73.301501     -157.163661
  AL         277.578608       74.381646     -158.301755
  AL         278.818781       75.461791     -159.439848
  AL         280.058954       76.541936     -160.577942
  AL         281.299127       77.622081     -161.716035
  AL         282.539301       78.702226     -162.854129
  AL         283.779474       79.782371     -163.992222
  AL         285.019647       80.862517     -165.130316
  AL         286.259820       81.942662     -166.268409
  A         -333.279504     -211.897077        6.738305
  A         -331.326211     -212.122995        6.372777
  A         -329.372919     -212.348913        6.007250
  A         -327.419627     -212.574832        5.641722
  A         -325.466335     -212.800750        5.276195
  A         -323.513042     -213.026668        4.910667
  A         -321.559750     -213.252586        4.545140
  A         -319.606458     -213.478504        4.179612
  A         -317.653165     -213.704422        3.814085
  A         -315.699873     -213.930340        3.448557
  A         -313.746581     -214.156258        3.083029
  A         -311.793289     -214.382176        2.717502
  A         -309.839996     -214.608095        2.351974
  A         -307.886704     -214.834013        1.986447
  A         -305.933412     -215.059931        1.620919
  A         -303.980120     -215.285849        1.255392
  A         -302.026827     -215.511767        0.889864
  A         -300.073535     -215.737685        0.524337
  A         -298.120243     -215.963603        0.158809
  A         -296.166951     -216.189521       -0.206718
  AL        -294.213658     -216.415439       -0.572246
  AL        -292.260366     -216.641358       -0.937773
  AL        -290.307074     -216.867276       -1.303301
  AL        -288.353782     -217.093194       -1.668828
  AL        -286.400489     -217.319112       -2.034356
  AL        -284.447197     -217.545030       -2.399883
  AL        -282.493905     -217.770948       -2.765411
  AL        -280.540613     -217.996866       -3.130938
  AL        -278.587320     -218.222784       -3.496466
  AL        -276.634028     -218.448702       -3.861993
  AL        -274.680736     -218.674621       -4.227521
  AL        -272.727444     -218.900539       -4.593048
  AL        -270.774151     -219.126457       -4.958576
  AL        -268.820859     -219.352375       -5.324103
  AL        -266.867567     -219.578293       -5.689631
  AL        -264.914275     -219.804211       -6.055158
  AL        -262.960982     -220.030129       -6.420686
  AL        -261.007690     -220.256047       -6.786213
  AL        -259.054398     -220.481966       -7.151741
  AL        -257.101105     -220.707884       -7.517268
  AL        -255.147813     -220.933802       -7.882796
  AL        -253.194521     -221.159720       -8.248323
  AL        -251.241229     -221.385638       -8.613851
  AL        -249.287936     -221.611556       -8.979378
  AL        -247.334644     -221.837474       -9.344906
  AL        -245.381352     -222.063392       -9.710433
  AL        -243.428060     -222.289310      -10.075961
  AL        -241.474767     -222.515229      -10.441488
  AL        -239.521475     -222.741147      -10.807016
  AL        -237.568183     -222.967065      -11.172543
  AL        -235.614891     -223.192983      -11.538071
  AL        -233.661598     -223.418901      -11.903598
  AL        -231.708306     -223.644819      -12.269126
  AL        -229.755014     -223.870737      -12.634653
  AL        -227.801722     -224.096655      -13.000181
  AL        -225.848429     -224.322573      -13.365708
  AL        -223.895137     -224.548492      -13.731236
  AL        -221.941845     -224.774410      -14.096764
  AL        -219.988553     -225.000328      -14.462291
  AL        -218.035260     -225.226246      -14.827819
  AL        -216.081968     -225.452164      -15.193346
  AL        -214.128676     -225.678082      -15.558874
  AL        -212.175384     -225.904000      -15.924401
  AL        -210.222091     -226.129918      -16.289929
  AL        -208.268799     -226.355836      -16.655456
  AL        -206.315507     -226.581755      -17.020984
  AL        -204.362215     -226.807673      -17.386511
  AL        -202.408922     -227.033591      -17.752039
  AL        -200.455630     -227.259509      -18.117566
  AL        -198.502338     -227.485427      -18.483094
  A         -185.439421     -184.388857      229.563209
  A         -184.425220     -184.244961      231.280966
  A         -183.411018     -184.101064      232.998723
  A         -182.396817     -183.957168      234.716480
  A         -181.382615     -183.813272      236.434237
  A         -180.368414     -183.669375      238.151994
  A         -179.354212     -183.525479      239.869751
  A         -178.340011     -183.381582      241.587508
  A         -177.325810     -183.237686      243.305265
  A         -176.311608     -183.093790      245.023023
  A         -175.297407     -182.949893      246.740780
  A         -174.283205     -182.805997      248.458537
  A         -173.269004     -182.662100      250.176294
  A         -172.254802     -182.518204      251.894051
  A         -171.240601     -182.374308      253.611808
  A         -170.226400     -182.230411      255.329565
  A         -169.212198     -182.086515      257.047322
  A         -168.197997     -181.942618      258.765079
  A         -167.183795     -181.798722      260.482836
  A         -166.169594     -181.654826      262.200593
  AL        -165.155392     -181.510929      263.918350
  AL        -164.141191     -181.367033      265.636107
  AL        -163.126989     -181.223136      267.353864
  AL        -162.112788     -181.079240      269.071621
  AL        -161.098587     -180.935343      270.789378
  AL        -160.084385     -180.791447      272.507135
  AL        -159.070184     -180.647551      274.224892
  AL        -158.055982     -180.503654      275.942649
  AL        -157.041781     -180.359758      277.660406
  AL        -156.027579     -180.215861      279.378163
  AL        -155.013378     -180.071965      281.095920
  AL        -153.999177     -179.928069      282.813678
  AL        -152.984975     -179.784172      284.531435
  AL        -151.970774     -179.640276      286.249192
  AL        -150.956572     -179.496379      287.966949
  AL        -149.942371     -179.352483      289.684706
  AL        -148.928169     -179.208587      291.402463
  AL        -147.913968     -179.064690      293.120220
  AL        -146.899767     -178.920794      294.837977
  AL        -145.885565     -178.776897      296.555734
  AL        -144.871364     -178.633001      298.273491
  AL        -143.857162     -178.489105      299.991248
  AL        -142.842961     -178.345208      301.709005
  AL        -141.828759     -178.201312      303.426762
  AL        -140.814558     -178.057415      305.144519
  AL        -139.800356     -177.913519      306.862276
  AL        -138.786155     -177.769623      308.580033
  AL        -137.771954     -177.625726      310.297790
  AL        -136.757752     -177.481830      312.015547
  AL        -135.743551     -177.337933      313.733304
  AL        -134.729349     -177.194037      315.451061
  AL        -133.715148     -177.050141      317.168818
  AL        -132.700946     -176.906244      318.886575
  AL        -131.686745     -176.762348      320.604333
  AL        -130.672544     -176.618451      322.322090
  AL        -129.658342     -176.474555      324.039847
  AL        -128.644141     -176.330659      325.757604
  AL        -127.629939     -176.186762      327.475361
  AL        -126.615738     -176.042866      329.193118
  AL        -125.601536     -175.898969      330.910875
  AL        -124.587335     -175.755073      332.628632
  AL        -123.573133     -175.611176      334.346389
  AL        -122.558932     -175.467280      336.064146
  AL        -121.544731     -175.323384      337.781903
  AL        -120.530529     -175.179487      339.499660
  AL        -119.516328     -175.035591      341.217417
  AL        -118.502126     -174.891694      342.935174
  AL        -117.487925     -174.747798      344.652931
  AL        -116.473723     -174.603902      346.370688
  AL        -115.459522     -174.460005      348.088445
  A          -15.885506      -20.676696      153.590486
  A          -17.053276      -19.053199      153.566613
  A          -18.221045      -17.429701      153.542740
  A          -19.388815      -15.806203      153.518867
  A          -20.556584      -14.182705      153.494994
  A          -21.724353      -12.559208      153.471121
  A          -22.892123      -10.935710      153.447248
  A          -24.059892       -9.312212      153.423375
  A          -25.227661       -7.688715      153.399502
  A          -26.395431       -6.065217      153.375629
  A          -27.563200       -4.441719      153.351756
  A          -28.730969       -2.818222      153.327883
  A          -29.898739       -1.194724      153.304010
  A          -31.066508        0.428774      153.280137
  A          -32.234278        2.052272      153.256264
  A          -33.402047        3.675769      153.232391
  A          -34.569816        5.299267      153.208518
  A          -35.737586        6.922765      153.184645
  A          -36.905355        8.546262      153.160772
  A          -38.073124       10.169760      153.136899
  AL         -39.240894       11.793258      153.113026
  AL         -40.408663       13.416755      153.089153
  AL         -41.576433       15.040253      153.065280
  AL         -42.744202       16.663751      153.041407
  AL         -43.911971       18.287249      153.017534
  AL         -45.079741       19.910746      152.993661
  AL         -46.247510       21.534244      152.969788
  AL         -47.415279       23.157742      152.945915
  AL         -48.583049       24.781239      152.922042
  AL         -49.750818       26.404737      152.898169
  AL         -50.918587       28.028235      152.874296
  AL         -52.086357       29.651732      152.850423
  AL         -53.254126       31.275230      152.826550
  AL         -54.421896       32.898728      152.802677
  AL         -55.589665       34.522226      152.778804
  AL         -56.757434       36.145723      152.754931
  AL         -57.925204       37.769221      152.731057
  AL         -59.092973       39.392719      152.707184
  AL         -60.260742       41.016216      152.683311
  AL         -61.428512       42.639714      152.659438
  AL         -62.596281       44.263212      152.635565
  AL         -63.764050       45.886709      152.611692
  AL         -64.931820       47.510207      152.587819
  AL         -66.099589       49.133705      152.563946
  AL         -67.267359       50.757203      152.540073
  AL         -68.435128       52.380700      152.516200
  AL         -69.602897       54.004198      152.492327
  AL         -70.770667       55.627696      152.468454
  AL         -71.938436       57.251193      152.444581
  AL         -73.106205       58.874691      152.420708
  AL         -74.273975       60.498189      152.396835
  AL         -75.441744       62.121686      152.372962
  AL         -76.609514       63.745184      152.349089
  AL         -77.777283       65.368682      152.325216
  AL         -78.945052       66.992180      152.301343
  AL         -80.112822       68.615677      152.277470
  AL         -81.280591       70.239175      152.253597
  AL         -82.448360       71.862673      152.229724
  AL         -83.616130       73.486170      152.205851
  AL         -84.783899       75.109668      152.181978
  AL         -85.951668       76.733166      152.158105
  AL         -87.119438       78.356663      152.134232
  AL         -88.287207       79.980161      152.110359
  AL         -89.454977       81.603659      152.086486
  AL         -90.622746       83.227157      152.062613
  AL         -91.790515       84.850654      152.038740
  AL         -92.958285       86.474152      152.014867
  AL         -94.126054       88.097650      151.990994
  AL         -95.293823       89.721147      151.967121
  AL         -96.461593       91.344645      151.943248
  A         -376.796229      266.930449      -21.204946
  A         -375.049998      267.801358      -20.766546
  A         -373.303767      268.672268      -20.328147
  A         -371.557536      269.543177      -19.889747
  A         -369.811305      270.414086      -19.451347
  A         -368.065074      271.284996      -19.012948
  A         -366.318844      272.155905      -18.574548
  A         -364.572613      273.026815      -18.136148
  A         -362.826382      273.897724      -17.697748
  A         -361.080151      274.768634      -17.259349
  A         -359.333920      275.639543      -16.820949
  A         -357.587689      276.510453      -16.382549
  A         -355.841458      277.381362      -15.944150
  A         -354.095227      278.252271      -15.505750
  A         -352.348996      279.123181      -15.067350
  A         -350.602765      279.994090      -14.628950
  A         -348.856534      280.865000      -14.190551
  A         -347.110303      281.735909      -13.752151
  A         -345.364072      282.606819      -13.313751
  A         -343.617842      283.477728      -12.875352
  AL        -341.871611      284.348638      -12.436952
  AL        -340.125380      285.219547      -11.998552
  AL        -338.379149      286.090456      -11.560153
  AL        -336.632918      286.961366      -11.121753
  AL        -334.886687      287.832275      -10.683353
  AL        -333.140456      288.703185      -10.244953
  AL        -331.394225      289.574094       -9.806554
  AL        -329.647994      290.445004       -9.368154
  AL        -327.901763      291.315913       -8.929754
  AL        -326.155532      292.186823       -8.491355
  AL        -324.409301      293.057732       -8.052955
  AL        -322.663070      293.928641       -7.614555
  AL        -320.916840      294.799551       -7.176156
  AL        -319.170609      295.670460       -6.737756
  AL        -317.424378      296.541370       -6.299356
  AL        -315.678147      297.412279       -5.860956
  AL        -313.931916      298.283189       -5.422557
  AL        -312.185685      299.154098       -4.984157
  AL        -310.439454      300.025008       -4.545757
  AL        -308.693223      300.895917       -4.107358
  AL        -306.946992      301.766826       -3.668958
  AL        -305.200761      302.637736       -3.230558
  AL        -303.454530      303.508645       -2.792158
  AL        -301.708299      304.379555       -2.353759
  AL        -299.962068      305.250464       -1.915359
  AL        -298.215838      306.121374       -1.476959
  AL        -296.469607      306.992283       -1.038560
  AL        -294.723376      307.863193       -0.600160
  AL        -292.977145      308.734102       -0.161760
  AL        -291.230914      309.605011        0.276639
  AL        -289.484683      310.475921        0.715039
  AL        -287.738452      311.346830        1.153439
  AL        -285.992221      312.217740        1.591839
  AL        -284.245990      313.088649        2.030238
  AL        -282.499759      313.959559        2.468638
  AL        -280.753528      314.830468        2.907038
  AL        -279.007297      315.701378        3.345437
  AL        -277.261067      316.572287        3.783837
  AL        -275.514836      317.443197        4.222237
  AL        -273.768605      318.314106        4.660636
  AL        -272.022374      319.185015        5.099036
  AL        -270.276143      320.055925        5.537436
  AL        -268.529912      320.926834        5.975836
  AL        -266.783681      321.797744        6.414235
  AL        -265.037450      322.668653        6.852635
  AL        -263.291219      323.539563        7.291035
  AL        -261.544988      324.410472        7.729434
  AL        -259.798757      325.281382        8.167834
  AL        -258.052526      326.152291        8.606234
  AL        -256.306295      327.023200        9.044634
  A          -72.116242     -231.286956      380.654247
  A          -70.636638     -229.942481      380.710440
  A          -69.157034     -228.598006      380.766633
  A          -67.677429     -227.253531      380.822827
  A          -66.197825     -225.909056      380.879020
  A          -64.718220     -224.564581      380.935213
  A          -63.238616     -223.220106      380.991406
  A          -61.759011     -221.875631      381.047600
  A          -60.279407     -220.531156      381.103793
  A          -58.799803     -219.186681      381.159986
  A          -57.320198     -217.842206      381.216180
  A          -55.840594     -216.497731      381.272373
  A          -54.360989     -215.153256      381.328566
  A          -52.881385     -213.808781      381.384759
  A          -51.401781     -212.464306      381.440953
  A          -49.922176     -211.119831      381.497146
  A          -48.442572     -209.775356      381.553339
  A          -46.962967     -208.430881      381.609532
  A          -45.483363     -207.086406      381.665726
  A          -44.003758     -205.741931      381.721919
  AL         -42.524154     -204.397456      381.778112
  AL         -41.044550     -203.052981      381.834305
  AL         -39.564945     -201.708505      381.890499
  AL         -38.085341     -200.364030      381.946692
  AL         -36.605736     -199.019555      382.002885
  AL         -35.126132     -197.675080      382.059079
  AL         -33.646527     -196.330605      382.115272
  AL         -32.166923     -194.986130      382.171465
  AL         -30.687319     -193.641655      382.227658
  AL         -29.207714     -192.297180      382.283852
  AL         -27.728110     -190.952705      382.340045
  AL         -26.248505     -189.608230      382.396238
  AL         -24.768901     -188.263755      382.452431
  AL         -23.289296     -186.919280      382.508625
  AL         -21.809692     -185.574805      382.564818
  AL         -20.330088     -184.230330      382.621011
  AL         -18.850483     -182.885855      382.677204
  AL         -17.370879     -181.541380      382.733398
  AL         -15.891274     -180.196905      382.789591
  AL         -14.411670     -178.852430      382.845784
  AL         -12.932065     -177.507955      382.901978
  AL         -11.452461     -176.163480      382.958171
  AL          -9.972857     -174.819005      383.014364
  AL          -8.493252     -173.474530      383.070557
  AL          -7.013648     -172.130055      383.126751
  AL          -5.534043     -170.785580      383.182944
  AL          -4.054439     -169.441105      383.239137
  AL          -2.574834     -168.096630      383.295330
  AL          -1.095230     -166.752155      383.351524
  AL           0.384374     -165.407680      383.407717
  AL           1.863979     -164.063205      383.463910
  AL           3.343583     -162.718730      383.520104
  AL           4.823188     -161.374255      383.576297
  AL           6.302792     -160.029780      383.632490
  AL           7.782397     -158.685305      383.688683
  AL           9.262001     -157.340830      383.744877
  AL          10.741605     -155.996355      383.801070
  AL          12.221210     -154.651880      383.857263
  AL          13.700814     -153.307405      383.913456
  AL          15.180419     -151.962930      383.969650
  AL          16.660023     -150.618455      384.025843
  AL          18.139628     -149.273980      384.082036
  AL          19.619232     -147.929505      384.138229
  AL          21.098836     -146.585030      384.194423
  AL          22.578441     -145.240555      384.250616
  AL          24.058045     -143.896080      384.306809
  AL          25.537650     -142.551605      384.363003
  AL          27.017254     -141.207130      384.419196
  AL          28.496858     -139.862655      384.475389
  AL          29.976463     -138.518180      384.531582
  B           74.147925      -33.272829     -219.128307
  B           74.185220      -32.489233     -217.288583
  B           74.222515      -31.705637     -215.448858
  B           74.259810      -30.922041     -213.609134
  B           74.297105      -30.138444     -211.769410
  B           74.334400      -29.354848     -209.929685
  B           74.371695      -28.571252     -208.089961
  B           74.408990      -27.787656     -206.250236
  B           74.446284      -27.004060     -204.410512
  B           74.483579      -26.220464     -202.570787
  B           74.520874      -25.436867     -200.731063
  B           74.558169      -24.653271     -198.891338
  B           74.595464      -23.869675     -197.051614
  B           74.632759      -23.086079     -195.211889
  B           74.670054      -22.302483     -193.372165
  B           74.707349      -21.518886     -191.532440
  B           74.744644      -20.735290     -189.692716
  B           74.781939      -19.951694     -187.852991
  B           74.819234      -19.168098     -186.013267
  B           74.856529      -18.384502     -184.173543
  BL          74.893824      -17.600906     -182.333818
  BL          74.931119      -16.817309     -180.494094
  BL          74.968414      -16.033713     -178.654369
  BL          75.005709      -15.250117     -176.814645
  BL          75.043003      -14.466521     -174.974920
  BL          75.080298      -13.682925     -173.135196
  BL          75.117593      -12.899329     -171.295471
  BL          75.154888      -12.115732     -169.455747
  BL          75.192183      -11.332136     -167.616022
  BL          75.229478      -10.548540     -165.776298
  BL          75.266773       -9.764944     -163.936573
  BL          75.304068       -8.981348     -162.096849
  BL          75.341363       -8.197751     -160.257124
  BL          75.378658       -7.414155     -158.417400
  BL          75.415953       -6.630559     -156.577676
  BL          75.453248       -5.846963     -154.737951
  BL          75.490543       -5.063367     -152.898227
  BL          75.527838       -4.279771     -151.058502
  BL          75.565133       -3.496174     -149.218778
  BL          75.602427       -2.712578     -147.379053
  BL          75.639722       -1.928982     -145.539329
  BL          75.677017       -1.145386     -143.699604
  BL          75.714312       -0.361790     -141.859880
  BL          75.751607        0.421807     -140.020155
  BL          75.788902        1.205403     -138.180431
  BL          75.826197        1.988999     -136.340706
  BL          75.863492        2.772595     -134.500982
  BL          75.900787        3.556191     -132.661257
  BL          75.938082        4.339787     -130.821533
  BL          75.975377        5.123384     -128.981808
  BL          76.012672        5.906980     -127.142084
  BL          76.049967        6.690576     -125.302360
  BL          76.087262        7.474172     -123.462635
  BL          76.124557        8.257768     -121.622911
  BL          76.161851        9.041364     -119.783186
  BL          76.199146        9.824961     -117.943462
  BL          76.236441       10.608557     -116.103737
  BL          76.273736       11.392153     -114.264013
  BL          76.311031       12.175749     -112.424288
  BL          76.348326       12.959345     -110.584564
  BL          76.385621       13.742942     -108.744839
  BL          76.422916       14.526538     -106.905115
  BL          76.460211       15.310134     -105.065390
  BL          76.497506       16.093730     -103.225666
  BL          76.534801       16.877326     -101.385941
  BL          76.572096       17.660922      -99.546217
  BL          76.609391       18.444519      -97.706493
  BL          76.646686       19.228115      -95.866768
  BL          76.683981       20.011711      -94.027044
  BL          76.721275       20.795307      -92.187319
  B          296.651078      184.676999      160.607748
  B          297.154274      183.098289      161.727779
  B          297.657469      181.519579      162.847810
  B          298.160665      179.940870      163.967842
  B          298.663861      178.362160      165.087873
  B          299.167056      176.783451      166.207904
  B          299.670252      175.204741      167.327936
  B          300.173447      173.626032      168.447967
  B          300.676643      172.047322      169.567998
  B          301.179839      170.468612      170.688030
  B          301.683034      168.889903      171.808061
  B          302.186230      167.311193      172.928092
  B          302.689426      165.732484      174.048124
  B          303.192621      164.153774      175.168155
  B          303.695817      162.575064      176.288186
  B          304.199013      160.996355      177.408218
  B          304.702208      159.417645      178.528249
  B          305.205404      157.838936      179.648280
  B          305.708600      156.260226      180.768312
  B          306.211795      154.681516      181.888343
  BL         306.714991      153.102807      183.008374
  BL         307.218187      151.524097      184.128405
  BL         307.721382      149.945388      185.248437
  BL         308.224578      148.366678      186.368468
  BL         308.727773      146.787969      187.488499
  BL         309.230969      145.209259      188.608531
  BL         309.734165      143.630549      189.728562
  BL         310.237360      142.051840      190.848593
  BL         310.740556      140.473130      191.968625
  BL         311.243752      138.894421      193.088656
  BL         311.746947      137.315711      194.208687
  BL         312.250143      135.737001      195.328719
  BL         312.753339      134.158292      196.448750
  BL         313.256534      132.579582      197.568781
  BL         313.759730      131.000873      198.688813
  BL         314.262926      129.422163      199.808844
  BL         314.766121      127.843453      200.928875
  BL         315.269317      126.264744      202.048907
  BL         315.772513      124.686034      203.168938
  BL         316.275708      123.107325      204.288969
  BL         316.778904      121.528615      205.409001
  BL         317.282099      119.949906      206.529032
  BL         317.785295      118.371196      207.649063
  BL         318.288491      116.792486      208.769095
  BL         318.791686      115.213777      209.889126
  BL         319.294882      113.635067      211.009157
  BL         319.798078      112.056358      212.129189
  BL         320.301273      110.477648      213.249220
  BL         320.804469      108.898938      214.369251
  BL         321.307665      107.320229      215.489283
  BL         321.810860      105.741519      216.609314
  BL         322.314056      104.162810      217.729345
  BL         322.817252      102.584100      218.849377
  BL         323.320447      101.005390      219.969408
  BL         323.823643       99.426681      221.089439
  BL         324.326839       97.847971      222.209471
  BL         324.830034       96.269262      223.329502
  BL         325.333230       94.690552      224.449533
  BL         325.836425       93.111843      225.569565
  BL         326.339621       91.533133      226.689596
  BL         326.842817       89.954423      227.809627
  BL         327.346012       88.375714      228.929659
  BL         327.849208       86.797004      230.049690
  BL         328.352404       85.218295      231.169721
  BL         328.855599       83.639585      232.289753
  BL         329.358795       82.060875      233.409784
  BL         329.861991       80.482166      234.529815
  BL         330.365186       78.903456      235.649847
  BL         330.868382       77.324747      236.769878
  BL         331.371578       75.746037      237.889909
  B         -282.647484     -196.655148      249.056169
  B         -282.856675     -198.567654      248.509761
  B         -283.065866     -200.480159      247.963353
  B         -283.275057     -202.392665      247.416945
  B         -283.484249     -204.305170      246.870537
  B         -283.693440     -206.217676      246.324129
  B         -283.902631     -208.130181      245.777721
  B         -284.111822     -210.042687      245.231313
  B         -284.321014     -211.955192      244.684904
  B         -284.530205     -213.867698      244.138496
  B         -284.739396     -215.780203      243.592088
  B         -284.948587     -217.692709      243.045680
  B         -285.157779     -219.605214      242.499272
  B         -285.366970     -221.517720      241.952864
  B         -285.576161     -223.430225      241.406456
  B         -285.785352     -225.342731      240.860048
  B         -285.994543     -227.255236      240.313640
  B         -286.203735     -229.167742      239.767232
  B         -286.412926     -231.080247      239.220824
  B         -286.622117     -232.992753      238.674416
  BL        -286.831308     -234.905258      238.128008
  BL        -287.040500     -236.817764      237.581600
  BL        -287.249691     -238.730269      237.035192
  BL        -287.458882     -240.642775      236.488784
  BL        -287.668073     -242.555280      235.942376
  BL        -287.877265     -244.467786      235.395968
  BL        -288.086456     -246.380291      234.849560
  BL        -288.295647     -248.292797      234.303152
  BL        -288.504838     -250.205302      233.756744
  BL        -288.714030     -252.117808      233.210336
  BL        -288.923221     -254.030313      232.663928
  BL        -289.132412     -255.942819      232.117520
  BL        -289.341603     -257.855324      231.571112
  BL        -289.550795     -259.767830      231.024704
  BL        -289.759986     -261.680335      230.478296
  BL        -289.969177     -263.592841      229.931888
  BL        -290.178368     -265.505346      229.385480
  BL        -290.387560     -267.417852      228.839072
  BL        -290.596751     -269.330357      228.292664
  BL        -290.805942     -271.242863      227.746255
  BL        -291.015133     -273.155368      227.199847
  BL        -291.224325     -275.067874      226.653439
  BL        -291.433516     -276.980379      226.107031
  BL        -291.642707     -278.892885      225.560623
  BL        -291.851898     -280.805390      225.014215
  BL        -292.061089     -282.717896      224.467807
  BL        -292.270281     -284.630401      223.921399
  BL        -292.479472     -286.542907      223.374991
  BL        -292.688663     -288.455412      222.828583
  BL        -292.897854     -290.367918      222.282175
  BL        -293.107046     -292.280423      221.735767
  BL        -293.316237     -294.192929      221.189359
  BL        -293.525428     -296.105434      220.642951
  BL        -293.734619     -298.017940      220.096543
  BL        -293.943811     -299.930445      219.550135
  BL        -294.153002     -301.842951      219.003727
  BL        -294.362193     -303.755456      218.457319
  BL        -294.571384     -305.667962      217.910911
  BL        -294.780576     -307.580467      217.364503
  BL        -294.989767     -309.492973      216.818095
  BL        -295.198958     -311.405478      216.271687
  BL        -295.408149     -313.317984      215.725279
  BL        -295.617341     -315.230489      215.178871
  BL        -295.826532     -317.142995      214.632463
  BL        -296.035723     -319.055500      214.086055
  BL        -296.244914     -320.968006      213.539647
  BL        -296.454106     -322.880511      212.993239
  BL        -296.663297     -324.793017      212.446831
  BL        -296.872488     -326.705522      211.900423
  BL        -297.081679     -328.618028      211.354014
  B         -257.224223      -98.495768     -381.644522
  B         -257.866674      -99.034102     -379.828633
  B         -258.509124      -99.572436     -378.012743
  B         -259.151575     -100.110770     -376.196854
  B         -259.794026     -100.649104     -374.380965
  B         -260.436476     -101.187439     -372.565076
  B         -261.078927     -101.725773     -370.749187
  B         -261.721378     -102.264107     -368.933298
  B         -262.363828     -102.802441     -367.117408
  B         -263.006279     -103.340776     -365.301519
  B         -263.648729     -103.879110     -363.485630
  B         -264.291180     -104.417444     -361.669741
  B         -264.933631     -104.955778     -359.853852
  B         -265.576081     -105.494112     -358.037963
  B         -266.218532     -106.032447     -356.222073
  B         -266.860983     -106.570781     -354.406184
  B         -267.503433     -107.109115     -352.590295
  B         -268.145884     -107.647449     -350.774406
  B         -268.788335     -108.185784     -348.958517
  B         -269.430785     -108.724118     -347.142628
  BL        -270.073236     -109.262452     -345.326739
  BL        -270.715687     -109.800786     -343.510849
  BL        -271.358137     -110.339120     -341.694960
  BL        -272.000588     -110.877455     -339.879071
  BL        -272.643039     -111.415789     -338.063182
  BL        -273.285489     -111.954123     -336.247293
  BL        -273.927940     -112.492457     -334.431404
  BL        -274.570391     -113.030792     -332.615514
  BL        -275.212841     -113.569126     -330.799625
  BL        -275.855292     -114.107460     -328.983736
  BL        -276.497743     -114.645794     -327.167847
  BL        -277.140193     -115.184129     -325.351958
  BL        -277.782644     -115.722463     -323.536069
  BL        -278.425095     -116.260797     -321.720180
  BL        -279.067545     -116.799131     -319.904290
  BL        -279.709996     -117.337465     -318.088401
  BL        -280.352446     -117.875800     -316.272512
  BL        -280.994897     -118.414134     -314.456623
  BL        -281.637348     -118.952468     -312.640734
  BL        -282.279798     -119.490802     -310.824845
  BL        -282.922249     -120.029137     -309.008955
  BL        -283.564700     -120.567471     -307.193066
  BL        -284.207150     -121.105805     -305.377177
  BL        -284.849601     -121.644139     -303.561288
  BL        -285.492052     -122.182473     -301.745399
  BL        -286.134502     -122.720808     -299.929510
  BL        -286.776953     -123.259142     -298.113621
  BL        -287.419404     -123.797476     -296.297731
  BL        -288.061854     -124.335810     -294.481842
  BL        -288.704305     -124.874145     -292.665953
  BL        -289.346756     -125.412479     -290.850064
  BL        -289.989206     -125.950813     -289.034175
  BL        -290.631657     -126.489147     -287.218286
  BL        -291.274108     -127.027481     -285.402396
  BL        -291.916558     -127.565816     -283.586507
  BL        -292.559009     -128.104150     -281.770618
  BL        -293.201460     -128.642484     -279.954729
  BL        -293.843910     -129.180818     -278.138840
  BL        -294.486361     -129.719153     -276.322951
  BL        -295.128812     -130.257487     -274.507062
  BL        -295.771262     -130.795821     -272.691172
  BL        -296.413713     -131.334155     -270.875283
  BL        -297.056163     -131.872489     -269.059394
  BL        -297.698614     -132.410824     -267.243505
  BL        -298.341065     -132.949158     -265.427616
  BL        -298.983515     -133.487492     -263.611727
  BL        -299.625966     -134.025826     -261.795837
  BL        -300.268417     -134.564161     -259.979948
  BL        -300.910867     -135.102495     -258.164059
  BL        -301.553318     -135.640829     -256.348170
  B         -372.761201      283.187675       42.754656
  B         -371.610083      284.809958       42.546984
  B         -370.458965      286.432240       42.339313
  B         -369.307848      288.054523       42.131642
  B         -368.156730      289.676805       41.923970
  B         -367.005612      291.299088       41.716299
  B         -365.854495      292.921370       41.508628
  B         -364.703377      294.543653       41.300957
  B         -363.552259      296.165936       41.093285
  B         -362.401142      297.788218       40.885614
  B         -361.250024      299.410501       40.677943
  B         -360.098906      301.032783       40.470272
  B         -358.947789      302.655066       40.262600
  B         -357.796671      304.277349       40.054929
  B         -356.645553      305.899631       39.847258
  B         -355.494436      307.521914       39.639587
  B         -354.343318      309.144196       39.431915
  B         -353.192200      310.766479       39.224244
  B         -352.041083      312.388761       39.016573
  B         -350.889965      314.011044       38.808902
  BL        -349.738847      315.633327       38.601230
  BL        -348.587730      317.255609       38.393559
  BL        -347.436612      318.877892       38.185888
  BL        -346.285494      320.500174       37.978217
  BL        -345.134377      322.122457       37.770545
  BL        -343.983259      323.744740       37.562874
  BL        -342.832142      325.367022       37.355203
  BL        -341.681024      326.989305       37.147531
  BL        -340.529906      328.611587       36.939860
  BL        -339.378789      330.233870       36.732189
  BL        -338.227671      331.856152       36.524518
  BL        -337.076553      333.478435       36.316846
  BL        -335.925436      335.100718       36.109175
  BL        -334.774318      336.723000       35.901504
  BL        -333.623200      338.345283       35.693833
  BL        -332.472083      339.967565       35.486161
  BL        -331.320965      341.589848       35.278490
  BL        -330.169847      343.212131       35.070819
  BL        -329.018730      344.834413       34.863148
  BL        -327.867612      346.456696       34.655476
  BL        -326.716494      348.078978       34.447805
  BL        -325.565377      349.701261       34.240134
  BL        -324.414259      351.323543       34.032463
  BL        -323.263141      352.945826       33.824791
  BL        -322.112024      354.568109       33.617120
  BL        -320.960906      356.190391       33.409449
  BL        -319.809788      357.812674       33.201778
  BL        -318.658671      359.434956       32.994106
  BL        -317.507553      361.057239       32.786435
  BL        -316.356435      362.679522       32.578764
  BL        -315.205318      364.301804       32.371092
  BL        -314.054200      365.924087       32.163421
  BL        -312.903082      367.546369       31.955750
  BL        -311.751965      369.168652       31.748079
  BL        -310.600847      370.790935       31.540407
  BL        -309.449729      372.413217       31.332736
  BL        -308.298612      374.035500       31.125065
  BL        -307.147494      375.657782       30.917394
  BL        -305.996376      377.280065       30.709722
  BL        -304.845259      378.902347       30.502051
  BL        -303.694141      380.524630       30.294380
  BL        -302.543023      382.146913       30.086709
  BL        -301.391906      383.769195       29.879037
  BL        -300.240788      385.391478       29.671366
  BL        -299.089671      387.013760       29.463695
  BL        -297.938553      388.636043       29.256024
  BL        -296.787435      390.258326       29.048352
  BL        -295.636318      391.880608       28.840681
  BL        -294.485200      393.502891       28.633010
  BL        -293.334082      395.125173       28.425339
  B          178.507869     -181.449374      -95.772068
  B          179.527577     -181.245979      -94.063611
  B          180.547284     -181.042584      -92.355153
  B          181.566992     -180.839189      -90.646696
  B          182.586699     -180.635793      -88.938238
  B          183.606407     -180.432398      -87.229781
  B          184.626114     -180.229003      -85.521323
  B          185.645822     -180.025608      -83.812866
  B          186.665529     -179.822213      -82.104408
  B          187.685237     -179.618818      -80.395951
  B          188.704945     -179.415423      -78.687493
  B          189.724652     -179.212028      -76.979036
  B          190.744360     -179.008633      -75.270578
  B          191.764067     -178.805237      -73.562121
  B          192.783775     -178.601842      -71.853664
  B          193.803482     -178.398447      -70.145206
  B          194.823190     -178.195052      -68.436749
  B          195.842897     -177.991657      -66.728291
  B          196.862605     -177.788262      -65.019834
  B          197.882313     -177.584867      -63.311376
  BL         198.902020     -177.381472      -61.602919
  BL         199.921728     -177.178076      -59.894461
  BL         200.941435     -176.974681      -58.186004
  BL         201.961143     -176.771286      -56.477546
  BL         202.980850     -176.567891      -54.769089
  BL         204.000558     -176.364496      -53.060631
  BL         205.020265     -176.161101      -51.352174
  BL         206.039973     -175.957706      -49.643716
  BL         207.059680     -175.754311      -47.935259
  BL         208.079388     -175.550916      -46.226801
  BL         209.099096     -175.347520      -44.518344
  BL         210.118803     -175.144125      -42.809886
  BL         211.138511     -174.940730      -41.101429
  BL         212.158218     -174.737335      -39.392972
  BL         213.177926     -174.533940      -37.684514
  BL         214.197633     -174.330545      -35.976057
  BL         215.217341     -174.127150      -34.267599
  BL         216.237048     -173.923755      -32.559142
  BL         217.256756     -173.720359      -30.850684
  BL         218.276463     -173.516964      -29.142227
  BL         219.296171     -173.313569      -27.433769
  BL         220.315879     -173.110174      -25.725312
  BL         221.335586     -172.906779      -24.016854
  BL         222.355294     -172.703384      -22.308397
  BL         223.375001     -172.499989      -20.599939
  BL         224.394709     -172.296594      -18.891482
  BL         225.414416     -172.093199      -17.183024
  BL         226.434124     -171.889803      -15.474567
  BL         227.453831     -171.686408      -13.766109
  BL         228.473539     -171.483013      -12.057652
  BL         229.493247     -171.279618      -10.349194
  BL         230.512954     -171.076223       -8.640737
  BL         231.532662     -170.872828       -6.932279
  BL         232.552369     -170.669433       -5.223822
  BL         233.572077     -170.466038       -3.515365
  BL         234.591784     -170.262642       -1.806907
  BL         235.611492     -170.059247       -0.098450
  BL         236.631199     -169.855852        1.610008
  BL         237.650907     -169.652457        3.318465
  BL         238.670614     -169.449062        5.026923
  BL         239.690322     -169.245667        6.735380
  BL         240.710030     -169.042272        8.443838
  BL         241.729737     -168.838877       10.152295
  BL         242.749445     -168.635482       11.860753
  BL         243.769152     -168.432086       13.569210
  BL         244.788860     -168.228691       15.277668
  BL         245.808567     -168.025296       16.986125
  BL         246.828275     -167.821901       18.694583
  BL         247.847982     -167.618506       20.403040
  BL         248.867690     -167.415111       22.111498
  B          197.358509     -230.824695      -41.377063
  B          195.686632     -231.854142      -41.757938
  B          194.014755     -232.883588      -42.138814
  B          192.342878     -233.913035      -42.519689
  B          190.671000     -234.942482      -42.900565
  B          188.999123     -235.971929      -43.281440
  B          187.327246     -237.001375      -43.662315
  B          185.655369     -238.030822      -44.043191
  B          183.983492     -239.060269      -44.424066
  B          182.311614     -240.089716      -44.804942
  B          180.639737     -241.119162      -45.185817
  B          178.967860     -242.148609      -45.566692
  B          177.295983     -243.178056      -45.947568
  B          175.624106     -244.207502      -46.328443
  B          173.952228     -245.236949      -46.709319
  B          172.280351     -246.266396      -47.090194
  B          170.608474     -247.295843      -47.471070
  B          168.936597     -248.325289      -47.851945
  B          167.264720     -249.354736      -48.232820
  B          165.592843     -250.384183      -48.613696
  BL         163.920965     -251.413630      -48.994571
  BL         162.249088     -252.443076      -49.375447
  BL         160.577211     -253.472523      -49.756322
  BL         158.905334     -254.501970      -50.137197
  BL         157.233457     -255.531416      -50.518073
  BL         155.561579     -256.560863      -50.898948
  BL         153.889702     -257.590310      -51.279824
  BL         152.217825     -258.619757      -51.660699
  BL         150.545948     -259.649203      -52.041574
  BL         148.874071     -260.678650      -52.422450
  BL         147.202193     -261.708097      -52.803325
  BL         145.530316     -262.737544      -53.184201
  BL         143.858439     -263.766990      -53.565076
  BL         142.186562     -264.796437      -53.945951
  BL         140.514685     -265.825884      -54.326827
  BL         138.842807     -266.855330      -54.707702
  BL         137.170930     -267.884777      -55.088578
  BL         135.499053     -268.914224      -55.469453
  BL         133.827176     -269.943671      -55.850328
  BL         132.155299     -270.973117      -56.231204
  BL         130.483421     -272.002564      -56.612079
  BL         128.811544     -273.032011      -56.992955
  BL         127.139667     -274.061458      -57.373830
  BL         125.467790     -275.090904      -57.754705
  BL         123.795913     -276.120351      -58.135581
  BL         122.124035     -277.149798      -58.516456
  BL         120.452158     -278.179244      -58.897332
  BL         118.780281     -279.208691      -59.278207
  BL         117.108404     -280.238138      -59.659083
  BL         115.436527     -281.267585      -60.039958
  BL         113.764649     -282.297031      -60.420833
  BL         112.092772     -283.326478      -60.801709
  BL         110.420895     -284.355925      -61.182584
  BL         108.749018     -285.385372      -61.563460
  BL         107.077141     -286.414818      -61.944335
  BL         105.405263     -287.444265      -62.325210
  BL         103.733386     -288.473712      -62.706086
  BL         102.061509     -289.503159      -63.086961
  BL         100.389632     -290.532605      -63.467837
  BL          98.717755     -291.562052      -63.848712
  BL          97.045877     -292.591499      -64.229587
  BL          95.374000     -293.620945      -64.610463
  BL          93.702123     -294.650392      -64.991338
  BL          92.030246     -295.679839      -65.372214
  BL          90.358369     -296.709286      -65.753089
  BL          88.686492     -297.738732      -66.133964
  BL          87.014614     -298.768179      -66.514840
  BL          85.342737     -299.797626      -66.895715
  BL          83.670860     -300.827073      -67.276591
  BL          81.998983     -301.856519      -67.657466
  B         -259.367142      289.149411     -105.168357
  B         -260.634840      288.298656     -106.460316
  B         -261.902539      287.447902     -107.752276
  B         -263.170237      286.597148     -109.044235
  B         -264.437935      285.746394     -110.336194
  B         -265.705634      284.895640     -111.628153
  B         -266.973332      284.044886     -112.920112
  B         -268.241031      283.194132     -114.212071
  B         -269.508729      282.343378     -115.504030
  B         -270.776427      281.492624     -116.795989
  B         -272.044126      280.641869     -118.087948
  B         -273.311824      279.791115     -119.379907
  B         -274.579522      278.940361     -120.671866
  B         -275.847221      278.089607     -121.963825
  B         -277.114919      277.238853     -123.255784
  B         -278.382618      276.388099     -124.547744
  B         -279.650316      275.537345     -125.839703
  B         -280.918014      274.686591     -127.131662
  B         -282.185713      273.835836     -128.423621
  B         -283.453411      272.985082     -129.715580
  BL        -284.721109      272.134328     -131.007539
  BL        -285.988808      271.283574     -132.299498
  BL        -287.256506      270.432820     -133.591457
  BL        -288.524205      269.582066     -134.883416
  BL        -289.791903      268.731312     -136.175375
  BL        -291.059601      267.880558     -137.467334
  BL        -292.327300      267.029803     -138.759293
  BL        -293.594998      266.179049     -140.051252
  BL        -294.862696      265.328295     -141.343212
  BL        -296.130395      264.477541     -142.635171
  BL        -297.398093      263.626787     -143.927130
  BL        -298.665792      262.776033     -145.219089
  BL        -299.933490      261.925279     -146.511048
  BL        -301.201188      261.074525     -147.803007
  BL        -302.468887      260.223770     -149.094966
  BL        -303.736585      259.373016     -150.386925
  BL        -305.004283      258.522262     -151.678884
  BL        -306.271982      257.671508     -152.970843
  BL        -307.539680      256.820754     -154.262802
  BL        -308.807379      255.970000     -155.554761
  BL        -310.075077      255.119246     -156.846720
  BL        -311.342775      254.268492     -158.138679
  BL        -312.610474      253.417737     -159.430639
  BL        -313.878172      252.566983     -160.722598
  BL        -315.145870      251.716229     -162.014557
  BL        -316.413569      250.865475     -163.306516
  BL        -317.681267      250.014721     -164.598475
  BL        -318.948966      249.163967     -165.890434
  BL        -320.216664      248.313213     -167.182393
  BL        -321.484362      247.462459     -168.474352
  BL        -322.752061      246.611704     -169.766311
  BL        -324.019759      245.760950     -171.058270
  BL        -325.287457      244.910196     -172.350229
  BL        -326.555156      244.059442     -173.642188
  BL        -327.822854      243.208688     -174.934147
  BL        -329.090553      242.357934     -176.226107
  BL        -330.358251      241.507180     -177.518066
  BL        -331.625949      240.656426     -178.810025
  BL        -332.893648      239.805671     -180.101984
  BL        -334.161346      238.954917     -181.393943
  BL        -335.429044      238.104163     -182.685902
  BL        -336.696743      237.253409     -183.977861
  BL        -337.964441      236.402655     -185.269820
  BL        -339.232140      235.551901     -186.561779
  BL        -340.499838      234.701147     -187.853738
  BL        -341.767536      233.850393     -189.145697
  BL        -343.035235      232.999638     -190.437656
  BL        -344.302933      232.148884     -191.729615
  BL        -345.570631      231.298130     -193.021574
  BL        -346.838330      230.447376     -194.313534
  B         -247.642443      312.025850       41.007864
  B         -249.098013      313.300679       41.513954
  B         -250.553583      314.575508       42.020045
  B         -252.009152      315.850337       42.526136
  B         -253.464722      317.125166       43.032226
  B         -254.920292      318.399995       43.538317
  B         -256.375861      319.674824       44.044407
  B         -257.831431      320.949653       44.550498
  B         -259.287001      322.224483       45.056588
  B         -260.742570      323.499312       45.562679
  B         -262.198140      324.774141       46.068770
  B         -263.653710      326.048970       46.574860
  B         -265.109279      327.323799       47.080951
  B         -266.564849      328.598628       47.587041
  B         -268.020419      329.873457       48.093132
  B         -269.475988      331.148287       48.599222
  B         -270.931558      332.423116       49.105313
  B         -272.387128      333.697945       49.611404
  B         -273.842697      334.972774       50.117494
  B         -275.298267      336.247603       50.623585
  BL        -276.753837      337.522432       51.129675
  BL        -278.209406      338.797261       51.635766
  BL        -279.664976      340.072090       52.141856
  BL        -281.120546      341.346920       52.647947
  BL        -282.576115      342.621749       53.154037
  BL        -284.031685      343.896578       53.660128
  BL        -285.487255      345.171407       54.166219
  BL        -286.942824      346.446236       54.672309
  BL        -288.398394      347.721065       55.178400
  BL        -289.853964      348.995894       55.684490
  BL        -291.309533      350.270723       56.190581
  BL        -292.765103      351.545553       56.696671
  BL        -294.220673      352.820382       57.202762
  BL        -295.676242      354.095211       57.708853
  BL        -297.131812      355.370040       58.214943
  BL        -298.587381      356.644869       58.721034
  BL        -300.042951      357.919698       59.227124
  BL        -301.498521      359.194527       59.733215
  BL        -302.954090      360.469356       60.239305
  BL        -304.409660      361.744186       60.745396
  BL        -305.865230      363.019015       61.251487
  BL        -307.320799      364.293844       61.757577
  BL        -308.776369      365.568673       62.263668
  BL        -310.231939      366.843502       62.769758
  BL        -311.687508      368.118331       63.275849
  BL        -313.143078      369.393160       63.781939
  BL        -314.598648      370.667989       64.288030
  BL        -316.054217      371.942819       64.794121
  BL        -317.509787      373.217648       65.300211
  BL        -318.965357      374.492477       65.806302
  BL        -320.420926      375.767306       66.312392
  BL        -321.876496      377.042135       66.818483
  BL        -323.332066      378.316964       67.324573
  BL        -324.787635      379.591793       67.830664
  BL        -326.243205      380.866622       68.336754
  BL        -327.698775      382.141452       68.842845
  BL        -329.154344      383.416281       69.348936
  BL        -330.609914      384.691110       69.855026
  BL        -332.065484      385.965939       70.361117
  BL        -333.521053      387.240768       70.867207
  BL        -334.976623      388.515597       71.373298
  BL        -336.432193      389.790426       71.879388
  BL        -337.887762      391.065256       72.385479
  BL        -339.343332      392.340085       72.891570
  BL        -340.798902      393.614914       73.397660
  BL        -342.254471      394.889743       73.903751
  BL        -343.710041      396.164572       74.409841
  BL        -345.165611      397.439401       74.915932
  BL        -346.621180      398.714230       75.422022
  BL        -348.076750      399.989059       75.928113
  B         -253.543175      -63.733929      240.420804
  B         -251.818701      -64.689063      240.083302
  B         -250.094227      -65.644198      239.745800
  B         -248.369753      -66.599332      239.408297
  B         -246.645278      -67.554466      239.070795
  B         -244.920804      -68.509600      238.733293
  B         -243.196330      -69.464734      238.395791
  B         -241.471856      -70.419868      238.058288
  B         -239.747382      -71.375003      237.720786
  B         -238.022908      -72.330137      237.383284
  B         -236.298434      -73.285271      237.045782
  B         -234.573960      -74.240405      236.708279
  B         -232.849486      -75.195539      236.370777
  B         -231.125011      -76.150673      236.033275
  B         -229.400537      -77.105807      235.695773
  B         -227.676063      -78.060942      235.358270
  B         -225.951589      -79.016076      235.020768
  B         -224.227115      -79.971210      234.683266
  B         -222.502641      -80.926344      234.345764
  B         -220.778167      -81.881478      234.008261
  BL        -219.053693      -82.836612      233.670759
  BL        -217.329218      -83.791746      233.333257
  BL        -215.604744      -84.746881      232.995755
  BL        -213.880270      -85.702015      232.658252
  BL        -212.155796      -86.657149      232.320750
  BL        -210.431322      -87.612283      231.983248
  BL        -208.706848      -88.567417      231.645746
  BL        -206.982374      -89.522551      231.308243
  BL        -205.257900      -90.477685      230.970741
  BL        -203.533425      -91.432820      230.633239
  BL        -201.808951      -92.387954      230.295737
  BL        -200.084477      -93.343088      229.958234
  BL        -198.360003      -94.298222      229.620732
  BL        -196.635529      -95.253356      229.283230
  BL        -194.911055      -96.208490      228.945728
  BL        -193.186581      -97.163625      228.608225
  BL        -191.462107      -98.118759      228.270723
  BL        -189.737633      -99.073893      227.933221
  BL        -188.013158     -100.029027      227.595719
  BL        -186.288684     -100.984161      227.258216
  BL        -184.564210     -101.939295      226.920714
  BL        -182.839736     -102.894429      226.583212
  BL        -181.115262     -103.849564      226.245710
  BL        -179.390788     -104.804698      225.908207
  BL        -177.666314     -105.759832      225.570705
  BL        -175.941840     -106.714966      225.233203
  BL        -174.217365     -107.670100      224.895701
  BL        -172.492891     -108.625234      224.558198
  BL        -170.768417     -109.580368      224.220696
  BL        -169.043943     -110.535503      223.883194
  BL        -167.319469     -111.490637      223.545692
  BL        -165.594995     -112.445771      223.208189
  BL        -163.870521     -113.400905      222.870687
  BL        -162.146047     -114.356039      222.533185
  BL        -160.421573     -115.311173      222.195683
  BL        -158.697098     -116.266308      221.858180
  BL        -156.972624     -117.221442      221.520678
  BL        -155.248150     -118.176576      221.183176
  BL        -153.523676     -119.131710      220.845674
  BL        -151.799202     -120.086844      220.508171
  BL        -150.074728     -121.041978      220.170669
  BL        -148.350254     -121.997112      219.833167
  BL        -146.625780     -122.952247      219.495665
  BL        -144.901305     -123.907381      219.158162
  BL        -143.176831     -124.862515      218.820660
  BL        -141.452357     -125.817649      218.483158
  BL        -139.727883     -126.772783      218.145656
  BL        -138.003409     -127.727917      217.808153
  BL        -136.278935     -128.683051      217.470651
  BL        -134.554461     -129.638186      217.133149
  B         -142.064093      240.011308     -131.244889
  B         -140.894068      241.509028     -130.622090
  B         -139.724044      243.006747     -129.999292
  B         -138.554020      244.504467     -129.376493
  B         -137.383995      246.002187     -128.753695
  B         -136.213971      247.499907     -128.130896
  B         -135.043947      248.997627     -127.508097
  B         -133.873922      250.495347     -126.885299
  B         -132.703898      251.993067     -126.262500
  B         -131.533873      253.490787     -125.639702
  B         -130.363849      254.988507     -125.016903
  B         -129.193825      256.486227     -124.394105
  B         -128.023800      257.983947     -123.771306
  B         -126.853776      259.481666     -123.148508
  B         -125.683752      260.979386     -122.525709
  B         -124.513727      262.477106     -121.902911
  B         -123.343703      263.974826     -121.280112
  B         -122.173678      265.472546     -120.657314
  B         -121.003654      266.970266     -120.034515
  B         -119.833630      268.467986     -119.411717
  BL        -118.663605      269.965706     -118.788918
  BL        -117.493581      271.463426     -118.166119
  BL        -116.323556      272.961146     -117.543321
  BL        -115.153532      274.458866     -116.920522
  BL        -113.983508      275.956585     -116.297724
  BL        -112.813483      277.454305     -115.674925
  BL        -111.643459      278.952025     -115.052127
  BL        -110.473435      280.449745     -114.429328
  BL        -109.303410      281.947465     -113.806530
  BL        -108.133386      283.445185     -113.183731
  BL        -106.963361      284.942905     -112.560933
  BL        -105.793337      286.440625     -111.938134
  BL        -104.623313      287.938345     -111.315336
  BL        -103.453288      289.436065     -110.692537
  BL        -102.283264      290.933785     -110.069738
  BL        -101.113240      292.431505     -109.446940
  BL         -99.943215      293.929224     -108.824141
  BL         -98.773191      295.426944     -108.201343
  BL         -97.603166      296.924664     -107.578544
  BL         -96.433142      298.422384     -106.955746
  BL         -95.263118      299.920104     -106.332947
  BL         -94.093093      301.417824     -105.710149
  BL         -92.923069      302.915544     -105.087350
  BL         -91.753044      304.413264     -104.464552
  BL         -90.583020      305.910984     -103.841753
  BL         -89.412996      307.408704     -103.218955
  BL         -88.242971      308.906424     -102.596156
  BL         -87.072947      310.404143     -101.973358
  BL         -85.902923      311.901863     -101.350559
  BL         -84.732898      313.399583     -100.727760
  BL         -83.562874      314.897303     -100.104962
  BL         -82.392849      316.395023      -99.482163
  BL         -81.222825      317.892743      -98.859365
  BL         -80.052801      319.390463      -98.236566
  BL         -78.882776      320.888183      -97.613768
  BL         -77.712752      322.385903      -96.990969
  BL         -76.542728      323.883623      -96.368171
  BL         -75.372703      325.381343      -95.745372
  BL         -74.202679      326.879062      -95.122574
  BL         -73.032654      328.376782      -94.499775
  BL         -71.862630      329.874502      -93.876977
  BL         -70.692606      331.372222      -93.254178
  BL         -69.522581      332.869942      -92.631380
  BL         -68.352557      334.367662      -92.008581
  BL         -67.182532      335.865382      -91.385782
  BL         -66.012508      337.363102      -90.762984
  BL         -64.842484      338.860822      -90.140185
  BL         -63.672459      340.358542      -89.517387
  BL         -62.502435      341.856262      -88.894588
  BL         -61.332411      343.353982      -88.271790
  B         -136.686854      185.223209      333.657744
  B         -138.653751      184.860849      333.654557
  B         -140.620649      184.498489      333.651370
  B         -142.587546      184.136129      333.648183
  B         -144.554443      183.773770      333.644996
  B         -146.521341      183.411410      333.641809
  B         -148.488238      183.049050      333.638622
  B         -150.455136      182.686690      333.635435
  B         -152.422033      182.324331      333.632247
  B         -154.388930      181.961971      333.629060
  B         -156.355828      181.599611      333.625873
  B         -158.322725      181.237251      333.622686
  B         -160.289622      180.874892      333.619499
  B         -162.256520      180.512532      333.616312
  B         -164.223417      180.150172      333.613125
  B         -166.190315      179.787812      333.609938
  B         -168.157212      179.425453      333.606751
  B         -170.124109      179.063093      333.603564
  B         -172.091007      178.700733      333.600377
  B         -174.057904      178.338373      333.597190
  BL        -176.024801      177.976014      333.594003
  BL        -177.991699      177.613654      333.590815
  BL        -179.958596      177.251294      333.587628
  BL        -181.925493      176.888934      333.584441
  BL        -183.892391      176.526575      333.581254
  BL        -185.859288      176.164215      333.578067
  BL        -187.826186      175.801855      333.574880
  BL        -189.793083      175.439495      333.571693
  BL        -191.759980      175.077136      333.568506
  BL        -193.726878      174.714776      333.565319
  BL        -195.693775      174.352416      333.562132
  BL        -197.660672      173.990056      333.558945
  BL        -199.627570      173.627697      333.555758
  BL        -201.594467      173.265337      333.552571
  BL        -203.561364      172.902977      333.549383
  BL        -205.528262      172.540617      333.546196
  BL        -207.495159      172.178258      333.543009
  BL        -209.462057      171.815898      333.539822
  BL        -211.428954      171.453538      333.536635
  BL        -213.395851      171.091178      333.533448
  BL        -215.362749      170.728819      333.530261
  BL        -217.329646      170.366459      333.527074
  BL        -219.296543      170.004099      333.523887
  BL        -221.263441      169.641739      333.520700
  BL        -223.230338      169.279380      333.517513
  BL        -225.197236      168.917020      333.514326
  BL        -227.164133      168.554660      333.511138
  BL        -229.131030      168.192300      333.507951
  BL        -231.097928      167.829941      333.504764
  BL        -233.064825      167.467581      333.501577
  BL        -235.031722      167.105221      333.498390
  BL        -236.998620      166.742861      333.495203
  BL        -238.965517      166.380502      333.492016
  BL        -240.932414      166.018142      333.488829
  BL        -242.899312      165.655782      333.485642
  BL        -244.866209      165.293422      333.482455
  BL        -246.833107      164.931063      333.479268
  BL        -248.800004      164.568703      333.476081
  BL        -250.766901      164.206343      333.472894
  BL        -252.733799      163.843983      333.469706
  BL        -254.700696      163.481624      333.466519
  BL        -256.667593      163.119264      333.463332
  BL        -258.634491      162.756904      333.460145
  BL        -260.601388      162.394544      333.456958
  BL        -262.568286      162.032185      333.453771
  BL        -264.535183      161.669825      333.450584
  BL        -266.502080      161.307465      333.447397
  BL        -268.468978      160.945105      333.444210
  BL        -270.435875      160.582746      333.441023
  BL        -272.402772      160.220386      333.437836
  B           54.158354      331.552201      147.325762
  B           55.843583      330.511597      147.048006
  B           57.528811      329.470993      146.770250
  B           59.214040      328.430389      146.492493
  B           60.899268      327.389785      146.214737
  B           62.584496      326.349181      145.936981
  B           64.269725      325.308577      145.659224
  B           65.954953      324.267973      145.381468
  B           67.640182      323.227370      145.103712
  B           69.325410      322.186766      144.825955
  B           71.010639      321.146162      144.548199
  B           72.695867      320.105558      144.270443
  B           74.381096      319.064954      143.992686
  B           76.066324      318.024350      143.714930
  B           77.751552      316.983746      143.437174
  B           79.436781      315.943142      143.159417
  B           81.122009      314.902538      142.881661
  B           82.807238      313.861934      142.603905
  B           84.492466      312.821331      142.326148
  B           86.177695      311.780727      142.048392
  BL          87.862923      310.740123      141.770636
  BL          89.548152      309.699519      141.492879
  BL          91.233380      308.658915      141.215123
  BL          92.918609      307.618311      140.937367
  BL          94.603837      306.577707      140.659610
  BL          96.289065      305.537103      140.381854
  BL          97.974294      304.496499      140.104098
  BL          99.659522      303.455895      139.826341
  BL         101.344751      302.415291      139.548585
  BL         103.029979      301.374688      139.270829
  BL         104.715208      300.334084      138.993072
  BL         106.400436      299.293480      138.715316
  BL         108.085665      298.252876      138.437560
  BL         109.770893      297.212272      138.159803
  BL         111.456121      296.171668      137.882047
  BL         113.141350      295.131064      137.604291
  BL         114.826578      294.090460      137.326534
  BL         116.511807      293.049856      137.048778
  BL         118.197035      292.009252      136.771022
  BL         119.882264      290.968648      136.493265
  BL         121.567492      289.928045      136.215509
  BL         123.252721      288.887441      135.937753
  BL         124.937949      287.846837      135.659996
  BL         126.623178      286.806233      135.382240
  BL         128.308406      285.765629      135.104484
  BL         129.993634      284.725025      134.826727
  BL         131.678863      283.684421      134.548971
  BL         133.364091      282.643817      134.271215
  BL         135.049320      281.603213      133.993458
  BL         136.734548      280.562609      133.715702
  BL         138.419777      279.522006      133.437946
  BL         140.105005      278.481402      133.160189
  BL         141.790234      277.440798      132.882433
  BL         143.475462      276.400194      132.604677
  BL         145.160690      275.359590      132.326920
  BL         146.845919      274.318986      132.049164
  BL         148.531147      273.278382      131.771408
  BL         150.216376      272.237778      131.493651
  BL         151.901604      271.197174      131.215895
  BL         153.586833      270.156570      130.938139
  BL         155.272061      269.115966      130.660382
  BL         156.957290      268.075363      130.382626
  BL         158.642518      267.034759      130.104870
  BL         160.327747      265.994155      129.827113
  BL         162.012975      264.953551      129.549357
  BL         163.698203      263.912947      129.271601
  BL         165.383432      262.872343      128.993844
  BL         167.068660      261.831739      128.716088
  BL         168.753889      260.791135      128.438332
  BL         170.439117      259.750531      128.160575
  B          244.628972       17.185345      144.240540
  B          245.757370       18.814262      143.969714
  B          246.885768       20.443179      143.698887
  B          248.014165       22.072097      143.428061
  B          249.142563       23.701014      143.157235
  B          250.270961       25.329931      142.886409
  B          251.399359       26.958849      142.615583
  B          252.527757       28.587766      142.344757
  B          253.656154       30.216683      142.073931
  B          254.784552       31.845601      141.803105
  B          255.912950       33.474518      141.532279
  B          257.041348       35.103435      141.261453
  B          258.169746       36.732353      140.990627
  B          259.298144       38.361270      140.719801
  B          260.426541       39.990187      140.448975
  B          261.554939       41.619105      140.178149
  B          262.683337       43.248022      139.907323
  B          263.811735       44.876939      139.636497
  B          264.940133       46.505856      139.365671
  B          266.068530       48.134774      139.094845
  BL         267.196928       49.763691      138.824018
  BL         268.325326       51.392608      138.553192
  BL         269.453724       53.021526      138.282366
  BL         270.582122       54.650443      138.011540
  BL         271.710520       56.279360      137.740714
  BL         272.838917       57.908278      137.469888
  BL         273.967315       59.537195      137.199062
  BL         275.095713       61.166112      136.928236
  BL         276.224111       62.795030      136.657410
  BL         277.352509       64.423947      136.386584
  BL         278.480906       66.052864      136.115758
  BL         279.609304       67.681782      135.844932
  BL         280.737702       69.310699      135.574106
  BL         281.866100       70.939616      135.303280
  BL         282.994498       72.568533      135.032454
  BL         284.122896       74.197451      134.761628
  BL         285.251293       75.826368      134.490802
  BL         286.379691       77.455285      134.219976
  BL         287.508089       79.084203      133.949149
  BL         288.636487       80.713120      133.678323
  BL         289.764885       82.342037      133.407497
  BL         290.893282       83.970955      133.136671
  BL         292.021680       85.599872      132.865845
  BL         293.150078       87.228789      132.595019
  BL         294.278476       88.857707      132.324193
  BL         295.406874       90.486624      132.053367
  BL         296.535272       92.115541      131.782541
  BL         297.663669       93.744459      131.511715
  BL         298.792067       95.373376      131.240889
  BL         299.920465       97.002293      130.970063
  BL         301.048863       98.631210      130.699237
  BL         302.177261      100.260128      130.428411
  BL         303.305658      101.889045      130.157585
  BL         304.434056      103.517962      129.886759
  BL         305.562454      105.146880      129.615933
  BL         306.690852      106.775797      129.345107
  BL         307.819250      108.404714      129.074280
  BL         308.947648      110.033632      128.803454
  BL         310.076045      111.662549      128.532628
  BL         311.204443      113.291466      128.261802
  BL         312.332841      114.920384      127.990976
  BL         313.461239      116.549301      127.720150
  BL         314.589637      118.178218      127.449324
  BL         315.718034      119.807136      127.178498
  BL         316.846432      121.436053      126.907672
  BL         317.974830      123.064970      126.636846
  BL         319.103228      124.693887      126.366020
  BL         320.231626      126.322805      126.095194
  BL         321.360024      127.951722      125.824368
  BL         322.488421      129.580639      125.553542
  B         -247.872026       70.072756      156.784076
  B         -249.218202       69.613188      155.378157
  B         -250.564378       69.153619      153.972239
  B         -251.910554       68.694051      152.566320
  B         -253.256730       68.234482      151.160402
  B         -254.602906       67.774913      149.754483
  B         -255.949082       67.315345      148.348565
  B         -257.295258       66.855776      146.942646
  B         -258.641434       66.396208      145.536728
  B         -259.987610       65.936639      144.130809
  B         -261.333786       65.477071      142.724891
  B         -262.679962       65.017502      141.318972
  B         -264.026138       64.557933      139.913053
  B         -265.372314       64.098365      138.507135
  B         -266.718490       63.638796      137.101216
  B         -268.064666       63.179228      135.695298
  B         -269.410842       62.719659      134.289379
  B         -270.757018       62.260091      132.883461
  B         -272.103194       61.800522      131.477542
  B         -273.449370       61.340953      130.071624
  BL        -274.795546       60.881385      128.665705
  BL        -276.141722       60.421816      127.259787
  BL        -277.487898       59.962248      125.853868
  BL        -278.834074       59.502679      124.447950
  BL        -280.180250       59.043111      123.042031
  BL        -281.526426       58.583542      121.636113
  BL        -282.872602       58.123973      120.230194
  BL        -284.218778       57.664405      118.824276
  BL        -285.564954       57.204836      117.418357
  BL        -286.911130       56.745268      116.012439
  BL        -288.257306       56.285699      114.606520
  BL        -289.603482       55.826131      113.200602
  BL        -290.949658       55.366562      111.794683
  BL        -292.295834       54.906993      110.388765
  BL        -293.642010       54.447425      108.982846
  BL        -294.988186       53.987856      107.576928
  BL        -296.334362       53.528288      106.171009
  BL        -297.680539       53.068719      104.765091
  BL        -299.026715       52.609151      103.359172
  BL        -300.372891       52.149582      101.953254
  BL        -301.719067       51.690013      100.547335
  BL        -303.065243       51.230445       99.141417
  BL        -304.411419       50.770876       97.735498
  BL        -305.757595       50.311308       96.329580
  BL        -307.103771       49.851739       94.923661
  BL        -308.449947       49.392171       93.517743
  BL        -309.796123       48.932602       92.111824
  BL        -311.142299       48.473033       90.705906
  BL        -312.488475       48.013465       89.299987
  BL        -313.834651       47.553896       87.894069
  BL        -315.180827       47.094328       86.488150
  BL        -316.527003       46.634759       85.082232
  BL        -317.873179       46.175191       83.676313
  BL        -319.219355       45.715622       82.270395
  BL        -320.565531       45.256053       80.864476
  BL        -321.911707       44.796485       79.458558
  BL        -323.257883       44.336916       78.052639
  BL        -324.604059       43.877348       76.646721
  BL        -325.950235       43.417779       75.240802
  BL        -327.296411       42.958211       73.834884
  BL        -328.642587       42.498642       72.428965
  BL        -329.988763       42.039073       71.023047
  BL        -331.334939       41.579505       69.617128
  BL        -332.681115       41.119936       68.211210
  BL        -334.027291       40.660368       66.805291
  BL        -335.373467       40.200799       65.399373
  BL        -336.719643       39.741230       63.993454
  BL        -338.065819       39.281662       62.587536
  BL        -339.411995       38.822093       61.181617
  BL        -340.758171       38.362525       59.775699
  B          154.724345      218.300012      287.393900
  B          153.202164      219.540008      287.012621
  B          151.679982      220.780003      286.631342
  B          150.157801      222.019999      286.250064
  B          148.635619      223.259995      285.868785
  B          147.113437      224.499991      285.487506
  B          145.591256      225.739987      285.106228
  B          144.069074      226.979983      284.724949
  B          142.546893      228.219979      284.343670
  B          141.024711      229.459975      283.962392
  B          139.502530      230.699971      283.581113
  B          137.980348      231.939967      283.199834
  B          136.458167      233.179963      282.818556
  B          134.935985      234.419959      282.437277
  B          133.413804      235.659955      282.055998
  B          131.891622      236.899951      281.674720
  B          130.369441      238.139947      281.293441
  B          128.847259      239.379943      280.912162
  B          127.325077      240.619938      280.530884
  B          125.802896      241.859934      280.149605
  BL         124.280714      243.099930      279.768326
  BL         122.758533      244.339926      279.387048
  BL         121.236351      245.579922      279.005769
  BL         119.714170      246.819918      278.624490
  BL         118.191988      248.059914      278.243212
  BL         116.669807      249.299910      277.861933
  BL         115.147625      250.539906      277.480654
  BL         113.625444      251.779902      277.099376
  BL         112.103262      253.019898      276.718097
  BL         110.581080      254.259894      276.336818
  BL         109.058899      255.499890      275.955540
  BL         107.536717      256.739886      275.574261
  BL         106.014536      257.979882      275.192982
  BL         104.492354      259.219878      274.811704
  BL         102.970173      260.459874      274.430425
  BL         101.447991      261.699869      274.049146
  BL          99.925810      262.939865      273.667868
  BL          98.403628      264.179861      273.286589
  BL          96.881447      265.419857      272.905310
  BL          95.359265      266.659853      272.524032
  BL          93.837084      267.899849      272.142753
  BL          92.314902      269.139845      271.761474
  BL          90.792720      270.379841      271.380196
  BL          89.270539      271.619837      270.998917
  BL          87.748357      272.859833      270.617638
  BL          86.226176      274.099829      270.236360
  BL          84.703994      275.339825      269.855081
  BL          83.181813      276.579821      269.473802
  BL          81.659631      277.819817      269.092524
  BL          80.137450      279.059813      268.711245
  BL          78.615268      280.299809      268.329966
  BL          77.093087      281.539804      267.948688
  BL          75.570905      282.779800      267.567409
  BL          74.048723      284.019796      267.186130
  BL          72.526542      285.259792      266.804852
  BL          71.004360      286.499788      266.423573
  BL          69.482179      287.739784      266.042294
  BL          67.959997      288.979780      265.661016
  BL          66.437816      290.219776      265.279737
  BL          64.915634      291.459772      264.898458
  BL          63.393453      292.699768      264.517180
  BL          61.871271      293.939764      264.135901
  BL          60.349090      295.179760      263.754622
  BL          58.826908      296.419756      263.373344
  BL          57.304726      297.659752      262.992065
  BL          55.782545      298.899748      262.610786
  BL          54.260363      300.139744      262.229508
  BL          52.738182      301.379740      261.848229
  BL          51.216000      302.619735      261.466950
  BL          49.693819      303.859731      261.085672
  B          -68.673320      103.807882      -32.791028
  B          -68.429956      103.528033      -30.825714
  B          -68.186591      103.248185      -28.860400
  B          -67.943227      102.968336      -26.895086
  B          -67.699862      102.688487      -24.929773
  B          -67.456498      102.408639      -22.964459
  B          -67.213133      102.128790      -20.999145
  B          -66.969769      101.848942      -19.033831
  B          -66.726404      101.569093      -17.068517
  B          -66.483040      101.289244      -15.103203
  B          -66.239675      101.009396      -13.137890
  B          -65.996311      100.729547      -11.172576
  B          -65.752946      100.449699       -9.207262
  B          -65.509582      100.169850       -7.241948
  B          -65.266217       99.890001       -5.276634
  B          -65.022853       99.610153       -3.311320
  B          -64.779488       99.330304       -1.346006
  B          -64.536124       99.050456        0.619307
  B          -64.292759       98.770607        2.584621
  B          -64.049395       98.490759        4.549935
  BL         -63.806030       98.210910        6.515249
  BL         -63.562666       97.931061        8.480563
  BL         -63.319301       97.651213       10.445877
  BL         -63.075937       97.371364       12.411190
  BL         -62.832572       97.091516       14.376504
  BL         -62.589208       96.811667       16.341818
  BL         -62.345843       96.531818       18.307132
  BL         -62.102479       96.251970       20.272446
  BL         -61.859114       95.972121       22.237760
  BL         -61.615750       95.692273       24.203073
  BL         -61.372385       95.412424       26.168387
  BL         -61.129021       95.132576       28.133701
  BL         -60.885656       94.852727       30.099015
  BL         -60.642292       94.572878       32.064329
  BL         -60.398927       94.293030       34.029643
  BL         -60.155563       94.013181       35.994956
  BL         -59.912198       93.733333       37.960270
  BL         -59.668834       93.453484       39.925584
  BL         -59.425469       93.173635       41.890898
  BL         -59.182105       92.893787       43.856212
  BL         -58.938740       92.613938       45.821526
  BL         -58.695376       92.334090       47.786840
  BL         -58.452011       92.054241       49.752153
  BL         -58.208647       91.774392       51.717467
  BL         -57.965282       91.494544       53.682781
  BL         -57.721918       91.214695       55.648095
  BL         -57.478553       90.934847       57.613409
  BL         -57.235189       90.654998       59.578723
  BL         -56.991824       90.375150       61.544036
  BL         -56.748460       90.095301       63.509350
  BL         -56.505095       89.815452       65.474664
  BL         -56.261731       89.535604       67.439978
  BL         -56.018366       89.255755       69.405292
  BL         -55.775002       88.975907       71.370606
  BL         -55.531637       88.696058       73.335919
  BL         -55.288273       88.416209       75.301233
  BL         -55.044908       88.136361       77.266547
  BL         -54.801544       87.856512       79.231861
  BL         -54.558179       87.576664       81.197175
  BL         -54.314815       87.296815       83.162489
  BL         -54.071450       87.016966       85.127802
  BL         -53.828086       86.737118       87.093116
  BL         -53.584721       86.457269       89.058430
  BL         -53.341357       86.177421       91.023744
  BL         -53.097992       85.897572       92.989058
  BL         -52.854628       85.617724       94.954372
  BL         -52.611263       85.337875       96.919686
  BL         -52.367899       85.058026       98.884999
  BL         -52.124534       84.778178      100.850313
  BL         -51.881170       84.498329      102.815627
  B          390.077133       15.297220     -217.111837
  B          388.794603       16.118346     -218.408320
  B          387.512073       16.939471     -219.704804
  B          386.229543       17.760597     -221.001288
  B          384.947013       18.581722     -222.297772
  B          383.664483       19.402848     -223.594255
  B          382.381953       20.223973     -224.890739
  B          381.099424       21.045099     -226.187223
  B          379.816894       21.866224     -227.483706
  B          378.534364       22.687350     -228.780190
  B          377.251834       23.508475     -230.076674
  B          375.969304       24.329601     -231.373158
  B          374.686774       25.150726     -232.669641
  B          373.404245       25.971852     -233.966125
  B          372.121715       26.792977     -235.262609
  B          370.839185       27.614103     -236.559093
  B          369.556655       28.435228     -237.855576
  B          368.274125       29.256354     -239.152060
  B          366.991595       30.077479     -240.448544
  B          365.709065       30.898605     -241.745028
  BL         364.426536       31.719730     -243.041511
  BL         363.144006       32.540856     -244.337995
  BL         361.861476       33.361981     -245.634479
  BL         360.578946       34.183107     -246.930962
  BL         359.296416       35.004232     -248.227446
  BL         358.013886       35.825358     -249.523930
  BL         356.731356       36.646483     -250.820414
  BL         355.448827       37.467609     -252.116897
  BL         354.166297       38.288735     -253.413381
  BL         352.883767       39.109860     -254.709865
  BL         351.601237       39.930986     -256.006349
  BL         350.318707       40.752111     -257.302832
  BL         349.036177       41.573237     -258.599316
  BL         347.753647       42.394362     -259.895800
  BL         346.471118       43.215488     -261.192284
  BL         345.188588       44.036613     -262.488767
  BL         343.906058       44.857739     -263.785251
  BL         342.623528       45.678864     -265.081735
  BL         341.340998       46.499990     -266.378218
  BL         340.058468       47.321115     -267.674702
  BL         338.775939       48.142241     -268.971186
  BL         337.493409       48.963366     -270.267670
  BL         336.210879       49.784492     -271.564153
  BL         334.928349       50.605617     -272.860637
  BL         333.645819       51.426743     -274.157121
  BL         332.363289       52.247868     -275.453605
  BL         331.080759       53.068994     -276.750088
  BL         329.798230       53.890119     -278.046572
  BL         328.515700       54.711245     -279.343056
  BL         327.233170       55.532370     -280.639540
  BL         325.950640       56.353496     -281.936023
  BL         324.668110       57.174621     -283.232507
  BL         323.385580       57.995747     -284.528991
  BL         322.103050       58.816872     -285.825474
  BL         320.820521       59.637998     -287.121958
  BL         319.537991       60.459123     -288.418442
  BL         318.255461       61.280249     -289.714926
  BL         316.972931       62.101374     -291.011409
  BL         315.690401       62.922500     -292.307893
  BL         314.407871       63.743625     -293.604377
  BL         313.125341       64.564751     -294.900861
  BL         311.842812       65.385877     -296.197344
  BL         310.560282       66.207002     -297.493828
  BL         309.277752       67.028128     -298.790312
  BL         307.995222       67.849253     -300.086796
  BL         306.712692       68.670379     -301.383279
  BL         305.430162       69.491504     -302.679763
  BL         304.147633       70.312630     -303.976247
  BL         302.865103       71.133755     -305.272730
  BL         301.582573       71.954881     -306.569214
  B          142.254495      383.107581     -102.230385
  B          142.622507      381.369941     -101.311053
  B          142.990519      379.632300     -100.391720
  B          143.358531      377.894660      -99.472387
  B          143.726543      376.157019      -98.553054
  B          144.094555      374.419379      -97.633721
  B          144.462567      372.681739      -96.714388
  B          144.830580      370.944098      -95.795055
  B          145.198592      369.206458      -94.875723
  B          145.566604      367.468817      -93.956390
  B          145.934616      365.731177      -93.037057
  B          146.302628      363.993536      -92.117724
  B          146.670640      362.255896      -91.198391
  B          147.038652      360.518256      -90.279058
  B          147.406664      358.780615      -89.359726
  B          147.774676      357.042975      -88.440393
  B          148.142688      355.305334      -87.521060
  B          148.510700      353.567694      -86.601727
  B          148.878712      351.830054      -85.682394
  B          149.246724      350.092413      -84.763061
  BL         149.614737      348.354773      -83.843729
  BL         149.982749      346.617132      -82.924396
  BL         150.350761      344.879492      -82.005063
  BL         150.718773      343.141851      -81.085730
  BL         151.086785      341.404211      -80.166397
  BL         151.454797      339.666571      -79.247064
  BL         151.822809      337.928930      -78.327731
  BL         152.190821      336.191290      -77.408399
  BL         152.558833      334.453649      -76.489066
  BL         152.926845      332.716009      -75.569733
  BL         153.294857      330.978368      -74.650400
  BL         153.662869      329.240728      -73.731067
  BL         154.030881      327.503088      -72.811734
  BL         154.398894      325.765447      -71.892402
  BL         154.766906      324.027807      -70.973069
  BL         155.134918      322.290166      -70.053736
  BL         155.502930      320.552526      -69.134403
  BL         155.870942      318.814885      -68.215070
  BL         156.238954      317.077245      -67.295737
  BL         156.606966      315.339605      -66.376405
  BL         156.974978      313.601964      -65.457072
  BL         157.342990      311.864324      -64.537739
  BL         157.711002      310.126683      -63.618406
  BL         158.079014      308.389043      -62.699073
  BL         158.447026      306.651403      -61.779740
  BL         158.815039      304.913762      -60.860407
  BL         159.183051      303.176122      -59.941075
  BL         159.551063      301.438481      -59.021742
  BL         159.919075      299.700841      -58.102409
  BL         160.287087      297.963200      -57.183076
  BL         160.655099      296.225560      -56.263743
  BL         161.023111      294.487920      -55.344410
  BL         161.391123      292.750279      -54.425078
  BL         161.759135      291.012639      -53.505745
  BL         162.127147      289.274998      -52.586412
  BL         162.495159      287.537358      -51.667079
  BL         162.863171      285.799717      -50.747746
  BL         163.231183      284.062077      -49.828413
  BL         163.599196      282.324437      -48.909081
  BL         163.967208      280.586796      -47.989748
  BL         164.335220      278.849156      -47.070415
  BL         164.703232      277.111515      -46.151082
  BL         165.071244      275.373875      -45.231749
  BL         165.439256      273.636235      -44.312416
  BL         165.807268      271.898594      -43.393083
  BL         166.175280      270.160954      -42.473751
  BL         166.543292      268.423313      -41.554418
  BL         166.911304      266.685673      -40.635085
  BL         167.279316      264.948032      -39.715752
  BL         167.647328      263.210392      -38.796419
  B         -152.224915      139.701301     -292.949413
  B         -151.295860      137.930241     -292.963596
  B         -150.366805      136.159180     -292.977779
  B         -149.437749      134.388120     -292.991962
  B         -148.508694      132.617059     -293.006145
  B         -147.579639      130.845999     -293.020328
  B         -146.650584      129.074938     -293.034511
  B         -145.721529      127.303878     -293.048694
  B         -144.792474      125.532817     -293.062877
  B         -143.863418      123.761757     -293.077060
  B         -142.934363      121.990696     -293.091244
  B         -142.005308      120.219636     -293.105427
  B         -141.076253      118.448575     -293.119610
  B         -140.147198      116.677515     -293.133793
  B         -139.218143      114.906454     -293.147976
  B         -138.289087      113.135394     -293.162159
  B         -137.360032      111.364333     -293.176342
  B         -136.430977      109.593273     -293.190525
  B         -135.501922      107.822212     -293.204708
  B         -134.572867      106.051152     -293.218892
  BL        -133.643811      104.280091     -293.233075
  BL        -132.714756      102.509031     -293.247258
  BL        -131.785701      100.737970     -293.261441
  BL        -130.856646       98.966909     -293.275624
  BL        -129.927591       97.195849     -293.289807
  BL        -128.998536       95.424788     -293.303990
  BL        -128.069480       93.653728     -293.318173
  BL        -127.140425       91.882667     -293.332356
  BL        -126.211370       90.111607     -293.346539
  BL        -125.282315       88.340546     -293.360723
  BL        -124.353260       86.569486     -293.374906
  BL        -123.424205       84.798425     -293.389089
  BL        -122.495149       83.027365     -293.403272
  BL        -121.566094       81.256304     -293.417455
  BL        -120.637039       79.485244     -293.431638
  BL        -119.707984       77.714183     -293.445821
  BL        -118.778929       75.943123     -293.460004
  BL        -117.849873       74.172062     -293.474187
  BL        -116.920818       72.401002     -293.488370
  BL        -115.991763       70.629941     -293.502554
  BL        -115.062708       68.858881     -293.516737
  BL        -114.133653       67.087820     -293.530920
  BL        -113.204598       65.316760     -293.545103
  BL        -112.275542       63.545699     -293.559286
  BL        -111.346487       61.774639     -293.573469
  BL        -110.417432       60.003578     -293.587652
  BL        -109.488377       58.232518     -293.601835
  BL        -108.559322       56.461457     -293.616018
  BL        -107.630267       54.690397     -293.630201
  BL        -106.701211       52.919336     -293.644385
  BL        -105.772156       51.148276     -293.658568
  BL        -104.843101       49.377215     -293.672751
  BL        -103.914046       47.606155     -293.686934
  BL        -102.984991       45.835094     -293.701117
  BL        -102.055935       44.064034     -293.715300
  BL        -101.126880       42.292973     -293.729483
  BL        -100.197825       40.521913     -293.743666
  BL         -99.268770       38.750852     -293.757849
  BL         -98.339715       36.979792     -293.772032
  BL         -97.410660       35.208731     -293.786216
  BL         -96.481604       33.437671     -293.800399
  BL         -95.552549       31.666610     -293.814582
  BL         -94.623494       29.895550     -293.828765
  BL         -93.694439       28.124489     -293.842948
  BL         -92.765384       26.353429     -293.857131
  BL         -91.836329       24.582368     -293.871314
  BL         -90.907273       22.811308     -293.885497
  BL         -89.978218       21.040247     -293.899680
  BL         -89.049163       19.269187     -293.913863
  BL         -88.120108       17.498126     -293.928047
  B         -258.971314      -41.061208      212.231388
  B         -260.248794      -40.910325      210.699958
  B         -261.526275      -40.759441      209.168528
  B         -262.803755      -40.608557      207.637098
  B         -264.081236      -40.457674      206.105669
  B         -265.358716      -40.306790      204.574239
  B         -266.636197      -40.155907      203.042809
  B         -267.913677      -40.005023      201.511379
  B         -269.191158      -39.854140      199.979949
  B         -270.468638      -39.703256      198.448519
  B         -271.746119      -39.552372      196.917089
  B         -273.023599      -39.401489      195.385659
  B         -274.301080      -39.250605      193.854229
  B         -275.578560      -39.099722      192.322799
  B         -276.856041      -38.948838      190.791369
  B         -278.133521      -38.797954      189.259939
  B         -279.411002      -38.647071      187.728509
  B         -280.688483      -38.496187      186.197079
  B         -281.965963      -38.345304      184.665649
  B         -283.243444      -38.194420      183.134219
  BL        -284.520924      -38.043537      181.602789
  BL        -285.798405      -37.892653      180.071359
  BL        -287.075885      -37.741769      178.539929
  BL        -288.353366      -37.590886      177.008499
  BL        -289.630846      -37.440002      175.477070
  BL        -290.908327      -37.289119      173.945640
  BL        -292.185807      -37.138235      172.414210
  BL        -293.463288      -36.987351      170.882780
  BL        -294.740768      -36.836468      169.351350
  BL        -296.018249      -36.685584      167.819920
  BL        -297.295729      -36.534701      166.288490
  BL        -298.573210      -36.383817      164.757060
  BL        -299.850690      -36.232933      163.225630
  BL        -301.128171      -36.082050      161.694200
  BL        -302.405651      -35.931166      160.162770
  BL        -303.683132      -35.780283      158.631340
  BL        -304.960612      -35.629399      157.099910
  BL        -306.238093      -35.478516      155.568480
  BL        -307.515573      -35.327632      154.037050
  BL        -308.793054      -35.176748      152.505620
  BL        -310.070534      -35.025865      150.974190
  BL        -311.348015      -34.874981      149.442760
  BL        -312.625495      -34.724098      147.911330
  BL        -313.902976      -34.573214      146.379900
  BL        -315.180456      -34.422330      144.848471
  BL        -316.457937      -34.271447      143.317041
  BL        -317.735417      -34.120563      141.785611
  BL        -319.012898      -33.969680      140.254181
  BL        -320.290378      -33.818796      138.722751
  BL        -321.567859      -33.667912      137.191321
  BL        -322.845339      -33.517029      135.659891
  BL        -324.122820      -33.366145      134.128461
  BL        -325.400300      -33.215262      132.597031
  BL        -326.677781      -33.064378      131.065601
  BL        -327.955261      -32.913495      129.534171
  BL        -329.232742      -32.762611      128.002741
  BL        -330.510222      -32.611727      126.471311
  BL        -331.787703      -32.460844      124.939881
  BL        -333.065183      -32.309960      123.408451
  BL        -334.342664      -32.159077      121.877021
  BL        -335.620144      -32.008193      120.345591
  BL        -336.897625      -31.857309      118.814161
  BL        -338.175105      -31.706426      117.282731
  BL        -339.452586      -31.555542      115.751301
  BL        -340.730066      -31.404659      114.219871
  BL        -342.007547      -31.253775      112.688442
  BL        -343.285027      -31.102891      111.157012
  BL        -344.562508      -30.952008      109.625582
  BL        -345.839988      -30.801124      108.094152
  BL        -347.117469      -30.650241      106.562722
  B         -179.183961      308.527649     -269.924362
  B         -180.345067      309.738896     -271.012809
  B         -181.506173      310.950142     -272.101255
  B         -182.667278      312.161388     -273.189701
  B         -183.828384      313.372635     -274.278148
  B         -184.989490      314.583881     -275.366594
  B         -186.150596      315.795128     -276.455041
  B         -187.311701      317.006374     -277.543487
  B         -188.472807      318.217620     -278.631933
  B         -189.633913      319.428867     -279.720380
  B         -190.795019      320.640113     -280.808826
  B         -191.956124      321.851360     -281.897272
  B         -193.117230      323.062606     -282.985719
  B         -194.278336      324.273852     -284.074165
  B         -195.439442      325.485099     -285.162612
  B         -196.600547      326.696345     -286.251058
  B         -197.761653      327.907592     -287.339504
  B         -198.922759      329.118838     -288.427951
  B         -200.083865      330.330084     -289.516397
  B         -201.244971      331.541331     -290.604844
  BL        -202.406076      332.752577     -291.693290
  BL        -203.567182      333.963824     -292.781736
  BL        -204.728288      335.175070     -293.870183
  BL        -205.889394      336.386316     -294.958629
  BL        -207.050499      337.597563     -296.047076
  BL        -208.211605      338.808809     -297.135522
  BL        -209.372711      340.020056     -298.223968
  BL        -210.533817      341.231302     -299.312415
  BL        -211.694922      342.442548     -300.400861
  BL        -212.856028      343.653795     -301.489308
  BL        -214.017134      344.865041     -302.577754
  BL        -215.178240      346.076288     -303.666200
  BL        -216.339346      347.287534     -304.754647
  BL        -217.500451      348.498780     -305.843093
  BL        -218.661557      349.710027     -306.931540
  BL        -219.822663      350.921273     -308.019986
  BL        -220.983769      352.132520     -309.108432
  BL        -222.144874      353.343766     -310.196879
  BL        -223.305980      354.555012     -311.285325
  BL        -224.467086      355.766259     -312.373771
  BL        -225.628192      356.977505     -313.462218
  BL        -226.789297      358.188752     -314.550664
  BL        -227.950403      359.399998     -315.639111
  BL        -229.111509      360.611244     -316.727557
  BL        -230.272615      361.822491     -317.816003
  BL        -231.433721      363.033737     -318.904450
  BL        -232.594826      364.244984     -319.992896
  BL        -233.755932      365.456230     -321.081343
  BL        -234.917038      366.667476     -322.169789
  BL        -236.078144      367.878723     -323.258235
  BL        -237.239249      369.089969     -324.346682
  BL        -238.400355      370.301216     -325.435128
  BL        -239.561461      371.512462     -326.523575
  BL        -240.722567      372.723708     -327.612021
  BL        -241.883672      373.934955     -328.700467
  BL        -243.044778      375.146201     -329.788914
  BL        -244.205884      376.357448     -330.877360
  BL        -245.366990      377.568694     -331.965807
  BL        -246.528096      378.779940     -333.054253
  BL        -247.689201      379.991187     -334.142699
  BL        -248.850307      381.202433     -335.231146
  BL        -250.011413      382.413680     -336.319592
  BL        -251.172519      383.624926     -337.408039
  BL        -252.333624      384.836172     -338.496485
  BL        -253.494730      386.047419     -339.584931
  BL        -254.655836      387.258665     -340.673378
  BL        -255.816942      388.469912     -341.761824
  BL        -256.978047      389.681158     -342.850270
  BL        -258.139153      390.892404     -343.938717
  BL        -259.300259      392.103651     -345.027163
  B          299.344223      216.849061     -249.043760
  B          299.095651      218.825536     -249.221975
  B          298.847078      220.802010     -249.400190
  B          298.598505      222.778484     -249.578405
  B          298.349932      224.754959     -249.756620
  B          298.101360      226.731433     -249.934835
  B          297.852787      228.707908     -250.113050
  B          297.604214      230.684382     -250.291265
  B          297.355641      232.660856     -250.469480
  B          297.107069      234.637331     -250.647695
  B          296.858496      236.613805     -250.825909
  B          296.609923      238.590280     -251.004124
  B          296.361350      240.566754     -251.182339
  B          296.112778      242.543228     -251.360554
  B          295.864205      244.519703     -251.538769
  B          295.615632      246.496177     -251.716984
  B          295.367059      248.472652     -251.895199
  B          295.118487      250.449126     -252.073414
  B          294.869914      252.425600     -252.251629
  B          294.621341      254.402075     -252.429844
  BL         294.372768      256.378549     -252.608059
  BL         294.124196      258.355024     -252.786274
  BL         293.875623      260.331498     -252.964488
  BL         293.627050      262.307972     -253.142703
  BL         293.378477      264.284447     -253.320918
  BL         293.129905      266.260921     -253.499133
  BL         292.881332      268.237396     -253.677348
  BL         292.632759      270.213870     -253.855563
  BL         292.384187      272.190344     -254.033778
  BL         292.135614      274.166819     -254.211993
  BL         291.887041      276.143293     -254.390208
  BL         291.638468      278.119768     -254.568423
  BL         291.389896      280.096242     -254.746638
  BL         291.141323      282.072716     -254.924853
  BL         290.892750      284.049191     -255.103067
  BL         290.644177      286.025665     -255.281282
  BL         290.395605      288.002140     -255.459497
  BL         290.147032      289.978614     -255.637712
  BL         289.898459      291.955088     -255.815927
  BL         289.649886      293.931563     -255.994142
  BL         289.401314      295.908037     -256.172357
  BL         289.152741      297.884512     -256.350572
  BL         288.904168      299.860986     -256.528787
  BL         288.655595      301.837460     -256.707002
  BL         288.407023      303.813935     -256.885217
  BL         288.158450      305.790409     -257.063432
  BL         287.909877      307.766883     -257.241646
  BL         287.661304      309.743358     -257.419861
  BL         287.412732      311.719832     -257.598076
  BL         287.164159      313.696307     -257.776291
  BL         286.915586      315.672781     -257.954506
  BL         286.667013      317.649255     -258.132721
  BL         286.418441      319.625730     -258.310936
  BL         286.169868      321.602204     -258.489151
  BL         285.921295      323.578679     -258.667366
  BL         285.672722      325.555153     -258.845581
  BL         285.424150      327.531627     -259.023796
  BL         285.175577      329.508102     -259.202011
  BL         284.927004      331.484576     -259.380225
  BL         284.678431      333.461051     -259.558440
  BL         284.429859      335.437525     -259.736655
  BL         284.181286      337.413999     -259.914870
  BL         283.932713      339.390474     -260.093085
  BL         283.684141      341.366948     -260.271300
  BL         283.435568      343.343423     -260.449515
  BL         283.186995      345.319897     -260.627730
  BL         282.938422      347.296371     -260.805945
  BL         282.689850      349.272846     -260.984160
  BL         282.441277      351.249320     -261.162375
  BL         282.192704      353.225795     -261.340590
  B           90.838440      261.552668     -360.051174
  B           92.684858      261.047127     -360.630112
  B           94.531276      260.541587     -361.209050
  B           96.377694      260.036046     -361.787988
  B           98.224112      259.530506     -362.366926
  B          100.070530      259.024965     -362.945864
  B          101.916949      258.519425     -363.524802
  B          103.763367      258.013884     -364.103740
  B          105.609785      257.508344     -364.682678
  B          107.456203      257.002803     -365.261615
  B          109.302621      256.497263     -365.840553
  B          111.149039      255.991722     -366.419491
  B          112.995457      255.486182     -366.998429
  B          114.841875      254.980641     -367.577367
  B          116.688293      254.475101     -368.156305
  B          118.534711      253.969560     -368.735243
  B          120.381129      253.464020     -369.314181
  B          122.227547      252.958479     -369.893119
  B          124.073965      252.452939     -370.472057
  B          125.920384      251.947398     -371.050994
  BL         127.766802      251.441858     -371.629932
  BL         129.613220      250.936317     -372.208870
  BL         131.459638      250.430777     -372.787808
  BL         133.306056      249.925236     -373.366746
  BL         135.152474      249.419696     -373.945684
  BL         136.998892      248.914155     -374.524622
  BL         138.845310      248.408615     -375.103560
  BL         140.691728      247.903074     -375.682498
  BL         142.538146      247.397534     -376.261435
  BL         144.384564      246.891993     -376.840373
  BL         146.230982      246.386453     -377.419311
  BL         148.077400      245.880912     -377.998249
  BL         149.923819      245.375372     -378.577187
  BL         151.770237      244.869831     -379.156125
  BL         153.616655      244.364291     -379.735063
  BL         155.463073      243.858750     -380.314001
  BL         157.309491      243.353210     -380.892939
  BL         159.155909      242.847669     -381.471876
  BL         161.002327      242.342129     -382.050814
  BL         162.848745      241.836588     -382.629752
  BL         164.695163      241.331048     -383.208690
  BL         166.541581      240.825507     -383.787628
  BL         168.387999      240.319967     -384.366566
  BL         170.234417      239.814426     -384.945504
  BL         172.080836      239.308886     -385.524442
  BL         173.927254      238.803345     -386.103380
  BL         175.773672      238.297805     -386.682317
  BL         177.620090      237.792264     -387.261255
  BL         179.466508      237.286724     -387.840193
  BL         181.312926      236.781183     -388.419131
  BL         183.159344      236.275643     -388.998069
  BL         185.005762      235.770102     -389.577007
  BL         186.852180      235.264562     -390.155945
  BL         188.698598      234.759021     -390.734883
  BL         190.545016      234.253481     -391.313821
  BL         192.391434      233.747940     -391.892758
  BL         194.237852      233.242400     -392.471696
  BL         196.084271      232.736859     -393.050634
  BL         197.930689      232.231319     -393.629572
  BL         199.777107      231.725778     -394.208510
  BL         201.623525      231.220238     -394.787448
  BL         203.469943      230.714697     -395.366386
  BL         205.316361      230.209157     -395.945324
  BL         207.162779      229.703616     -396.524262
  BL         209.009197      229.198076     -397.103199
  BL         210.855615      228.692535     -397.682137
  BL         212.702033      228.186995     -398.261075
  BL         214.548451      227.681454     -398.840013
  BL         216.394869      227.175914     -399.418951
  BL         218.241287      226.670373     -399.997889
  B         -250.802701     -139.015549     -269.487375
  B         -249.216646     -140.057722     -268.856260
  B         -247.630591     -141.099895     -268.225146
  B         -246.044537     -142.142068     -267.594031
  B         -244.458482     -143.184241     -266.962916
  B         -242.872427     -144.226414     -266.331801
  B         -241.286373     -145.268587     -265.700686
  B         -239.700318     -146.310760     -265.069571
  B         -238.114263     -147.352933     -264.438456
  B         -236.528209     -148.395106     -263.807342
  B         -234.942154     -149.437279     -263.176227
  B         -233.356099     -150.479452     -262.545112
  B         -231.770045     -151.521625     -261.913997
  B         -230.183990     -152.563798     -261.282882
  B         -228.597935     -153.605971     -260.651767
  B         -227.011880     -154.648144     -260.020653
  B         -225.425826     -155.690317     -259.389538
  B         -223.839771     -156.732490     -258.758423
  B         -222.253716     -157.774663     -258.127308
  B         -220.667662     -158.816836     -257.496193
  BL        -219.081607     -159.859009     -256.865078
  BL        -217.495552     -160.901182     -256.233963
  BL        -215.909498     -161.943355     -255.602849
  BL        -214.323443     -162.985528     -254.971734
  BL        -212.737388     -164.027701     -254.340619
  BL        -211.151334     -165.069874     -253.709504
  BL        -209.565279     -166.112047     -253.078389
  BL        -207.979224     -167.154220     -252.447274
  BL        -206.393169     -168.196393     -251.816159
  BL        -204.807115     -169.238566     -251.185045
  BL        -203.221060     -170.280739     -250.553930
  BL        -201.635005     -171.322912     -249.922815
  BL        -200.048951     -172.365085     -249.291700
  BL        -198.462896     -173.407258     -248.660585
  BL        -196.876841     -174.449431     -248.029470
  BL        -195.290787     -175.491604     -247.398356
  BL        -193.704732     -176.533777     -246.767241
  BL        -192.118677     -177.575950     -246.136126
  BL        -190.532623     -178.618123     -245.505011
  BL        -188.946568     -179.660296     -244.873896
  BL        -187.360513     -180.702469     -244.242781
  BL        -185.774458     -181.744642     -243.611666
  BL        -184.188404     -182.786815     -242.980552
  BL        -182.602349     -183.828988     -242.349437
  BL        -181.016294     -184.871161     -241.718322
  BL        -179.430240     -185.913334     -241.087207
  BL        -177.844185     -186.955507     -240.456092
  BL        -176.258130     -187.997680     -239.824977
  BL        -174.672076     -189.039853     -239.193863
  BL        -173.086021     -190.082026     -238.562748
  BL        -171.499966     -191.124199     -237.931633
  BL        -169.913911     -192.166372     -237.300518
  BL        -168.327857     -193.208545     -236.669403
  BL        -166.741802     -194.250718     -236.038288
  BL        -165.155747     -195.292891     -235.407173
  BL        -163.569693     -196.335064     -234.776059
  BL        -161.983638     -197.377237     -234.144944
  BL        -160.397583     -198.419410     -233.513829
  BL        -158.811529     -199.461583     -232.882714
  BL        -157.225474     -200.503756     -232.251599
  BL        -155.639419     -201.545929     -231.620484
  BL        -154.053365     -202.588102     -230.989370
  BL        -152.467310     -203.630275     -230.358255
  BL        -150.881255     -204.672448     -229.727140
  BL        -149.295200     -205.714621     -229.096025
  BL        -147.709146     -206.756794     -228.464910
  BL        -146.123091     -207.798967     -227.833795
  BL        -144.537036     -208.841140     -227.202680
  BL        -142.950982     -209.883313     -226.571566
  BL        -141.364927     -210.925486     -225.940451
  B          286.892741     -223.223684     -336.077612
  B          287.611857     -225.088165     -336.158743
  B          288.330974     -226.952646     -336.239874
  B          289.050090     -228.817127     -336.321005
  B          289.769206     -230.681608     -336.402136
  B          290.488323     -232.546089     -336.483267
  B          291.207439     -234.410570     -336.564398
  B          291.926556     -236.275051     -336.645529
  B          292.645672     -238.139532     -336.726660
  B          293.364788     -240.004013     -336.807791
  B          294.083905     -241.868494     -336.888922
  B          294.803021     -243.732975     -336.970053
  B          295.522137     -245.597456     -337.051185
  B          296.241254     -247.461937     -337.132316
  B          296.960370     -249.326418     -337.213447
  B          297.679486     -251.190899     -337.294578
  B          298.398603     -253.055380     -337.375709
  B          299.117719     -254.919861     -337.456840
  B          299.836835     -256.784342     -337.537971
  B          300.555952     -258.648823     -337.619102
  BL         301.275068     -260.513304     -337.700233
  BL         301.994184     -262.377785     -337.781364
  BL         302.713301     -264.242266     -337.862495
  BL         303.432417     -266.106747     -337.943626
  BL         304.151533     -267.971228     -338.024757
  BL         304.870650     -269.835709     -338.105888
  BL         305.589766     -271.700190     -338.187019
  BL         306.308883     -273.564671     -338.268150
  BL         307.027999     -275.429152     -338.349281
  BL         307.747115     -277.293633     -338.430412
  BL         308.466232     -279.158114     -338.511543
  BL         309.185348     -281.022595     -338.592674
  BL         309.904464     -282.887076     -338.673805
  BL         310.623581     -284.751557     -338.754936
  BL         311.342697     -286.616038     -338.836067
  BL         312.061813     -288.480519     -338.917198
  BL         312.780930     -290.345000     -338.998329
  BL         313.500046     -292.209481     -339.079460
  BL         314.219162     -294.073962     -339.160591
  BL         314.938279     -295.938443     -339.241722
  BL         315.657395     -297.802924     -339.322853
  BL         316.376511     -299.667405     -339.403984
  BL         317.095628     -301.531886     -339.485115
  BL         317.814744     -303.396367     -339.566246
  BL         318.533860     -305.260848     -339.647377
  BL         319.252977     -307.125329     -339.728508
  BL         319.972093     -308.989810     -339.809639
  BL         320.691210     -310.854291     -339.890770
  BL         321.410326     -312.718772     -339.971901
  BL         322.129442     -314.583253     -340.053032
  BL         322.848559     -316.447734     -340.134164
  BL         323.567675     -318.312215     -340.215295
  BL         324.286791     -320.176696     -340.296426
  BL         325.005908     -322.041177     -340.377557
  BL         325.725024     -323.905658     -340.458688
  BL         326.444140     -325.770139     -340.539819
  BL         327.163257     -327.634620     -340.620950
  BL         327.882373     -329.499101     -340.702081
  BL         328.601489     -331.363582     -340.783212
  BL         329.320606     -333.228063     -340.864343
  BL         330.039722     -335.092544     -340.945474
  BL         330.758838     -336.957025     -341.026605
  BL         331.477955     -338.821506     -341.107736
  BL         332.197071     -340.685987     -341.188867
  BL         332.916188     -342.550468     -341.269998
  BL         333.635304     -344.414949     -341.351129
  BL         334.354420     -346.279430     -341.432260
  BL         335.073537     -348.143911     -341.513391
  BL         335.792653     -350.008392     -341.594522
  BL         336.511769     -351.872873     -341.675653
  B          238.667901      244.324215      -87.966404
  B          239.400360      245.722396      -86.738156
  B          240.132819      247.120576      -85.509907
  B          240.865278      248.518757      -84.281658
  B          241.597737      249.916937      -83.053409
  B          242.330196      251.315117      -81.825160
  B          243.062655      252.713298      -80.596911
  B          243.795114      254.111478      -79.368663
  B          244.527574      255.509659      -78.140414
  B          245.260033      256.907839      -76.912165
  B          245.992492      258.306019      -75.683916
  B          246.724951      259.704200      -74.455667
  B          247.457410      261.102380      -73.227418
  B          248.189869      262.500561      -71.999170
  B          248.922328      263.898741      -70.770921
  B          249.654787      265.296921      -69.542672
  B          250.387247      266.695102      -68.314423
  B          251.119706      268.093282      -67.086174
  B          251.852165      269.491463      -65.857925
  B          252.584624      270.889643      -64.629677
  BL         253.317083      272.287823      -63.401428
  BL         254.049542      273.686004      -62.173179
  BL         254.782001      275.084184      -60.944930
  BL         255.514461      276.482365      -59.716681
  BL         256.246920      277.880545      -58.488432
  BL         256.979379      279.278725      -57.260184
  BL         257.711838      280.676906      -56.031935
  BL         258.444297      282.075086      -54.803686
  BL         259.176756      283.473267      -53.575437
  BL         259.909215      284.871447      -52.347188
  BL         260.641674      286.269627      -51.118939
  BL         261.374134      287.667808      -49.890691
  BL         262.106593      289.065988      -48.662442
  BL         262.839052      290.464168      -47.434193
  BL         263.571511      291.862349      -46.205944
  BL         264.303970      293.260529      -44.977695
  BL         265.036429      294.658710      -43.749446
  BL         265.768888      296.056890      -42.521198
  BL         266.501348      297.455070      -41.292949
  BL         267.233807      298.853251      -40.064700
  BL         267.966266      300.251431      -38.836451
  BL         268.698725      301.649612      -37.608202
  BL         269.431184      303.047792      -36.379953
  BL         270.163643      304.445972      -35.151705
  BL         270.896102      305.844153      -33.923456
  BL         271.628561      307.242333      -32.695207
  BL         272.361021      308.640514      -31.466958
  BL         273.093480      310.038694      -30.238709
  BL         273.825939      311.436874      -29.010460
  BL         274.558398      312.835055      -27.782212
  BL         275.290857      314.233235      -26.553963
  BL         276.023316      315.631416      -25.325714
  BL         276.755775      317.029596      -24.097465
  BL         277.488234      318.427776      -22.869216
  BL         278.220694      319.825957      -21.640967
  BL         278.953153      321.224137      -20.412718
  BL         279.685612      322.622318      -19.184470
  BL         280.418071      324.020498      -17.956221
  BL         281.150530      325.418678      -16.727972
  BL         281.882989      326.816859      -15.499723
  BL         282.615448      328.215039      -14.271474
  BL         283.347908      329.613220      -13.043225
  BL         284.080367      331.011400      -11.814977
  BL         284.812826      332.409580      -10.586728
  BL         285.545285      333.807761       -9.358479
  BL         286.277744      335.205941       -8.130230
  BL         287.010203      336.604122       -6.901981
  BL         287.742662      338.002302       -5.673732
  BL         288.475121      339.400482       -4.445484
  BL         289.207581      340.798663       -3.217235
  B         -186.643222      117.237169      168.990039
  B         -186.539258      118.902466      167.887325
  B         -186.435295      120.567763      166.784611
  B         -186.331331      122.233060      165.681898
  B         -186.227367      123.898357      164.579184
  B         -186.123404      125.563654      163.476470
  B         -186.019440      127.228951      162.373757
  B         -185.915476      128.894248      161.271043
  B         -185.811513      130.559545      160.168329
  B         -185.707549      132.224842      159.065616
  B         -185.603585      133.890140      157.962902
  B         -185.499622      135.555437      156.860189
  B         -185.395658      137.220734      155.757475
  B         -185.291694      138.886031      154.654761
  B         -185.187731      140.551328      153.552048
  B         -185.083767      142.216625      152.449334
  B         -184.979803      143.881922      151.346620
  B         -184.875840      145.547219      150.243907
  B         -184.771876      147.212516      149.141193
  B         -184.667913      148.877813      148.038480
  BL        -184.563949      150.543110      146.935766
  BL        -184.459985      152.208407      145.833052
  BL        -184.356022      153.873704      144.730339
  BL        -184.252058      155.539001      143.627625
  BL        -184.148094      157.204298      142.524911
  BL        -184.044131      158.869595      141.422198
  BL        -183.940167      160.534892      140.319484
  BL        -183.836203      162.200189      139.216770
  BL        -183.732240      163.865486      138.114057
  BL        -183.628276      165.530783      137.011343
  BL        -183.524312      167.196080      135.908630
  BL        -183.420349      168.861377      134.805916
  BL        -183.316385      170.526674      133.703202
  BL        -183.212421      172.191971      132.600489
  BL        -183.108458      173.857268      131.497775
  BL        -183.004494      175.522565      130.395061
  BL        -182.900530      177.187862      129.292348
  BL        -182.796567      178.853159      128.189634
  BL        -182.692603      180.518456      127.086921
  BL        -182.588640      182.183753      125.984207
  BL        -182.484676      183.849050      124.881493
  BL        -182.380712      185.514347      123.778780
  BL        -182.276749      187.179645      122.676066
  BL        -182.172785      188.844942      121.573352
  BL        -182.068821      190.510239      120.470639
  BL        -181.964858      192.175536      119.367925
  BL        -181.860894      193.840833      118.265211
  BL        -181.756930      195.506130      117.162498
  BL        -181.652967      197.171427      116.059784
  BL        -181.549003      198.836724      114.957071
  BL        -181.445039      200.502021      113.854357
  BL        -181.341076      202.167318      112.751643
  BL        -181.237112      203.832615      111.648930
  BL        -181.133148      205.497912      110.546216
  BL        -181.029185      207.163209      109.443502
  BL        -180.925221      208.828506      108.340789
  BL        -180.821258      210.493803      107.238075
  BL        -180.717294      212.159100      106.135362
  BL        -180.613330      213.824397      105.032648
  BL        -180.509367      215.489694      103.929934
  BL        -180.405403      217.154991      102.827221
  BL        -180.301439      218.820288      101.724507
  BL        -180.197476      220.485585      100.621793
  BL        -180.093512      222.150882       99.519080
  BL        -179.989548      223.816179       98.416366
  BL        -179.885585      225.481476       97.313652
  BL        -179.781621      227.146773       96.210939
  BL        -179.677657      228.812070       95.108225
  BL        -179.573694      230.477367       94.005512
  BL        -179.469730      232.142664       92.902798
  B            4.892432      132.325315     -154.854111
  B            5.770581      131.832520     -156.582118
  B            6.648729      131.339726     -158.310125
  B            7.526878      130.846932     -160.038132
  B            8.405027      130.354137     -161.766139
  B            9.283176      129.861343     -163.494146
  B           10.161325      129.368549     -165.222153
  B           11.039474      128.875754     -166.950160
  B           11.917623      128.382960     -168.678167
  B           12.795772      127.890166     -170.406174
  B           13.673920      127.397371     -172.134181
  B           14.552069      126.904577     -173.862188
  B           15.430218      126.411783     -175.590195
  B           16.308367      125.918988     -177.318202
  B           17.186516      125.426194     -179.046209
  B           18.064665      124.933400     -180.774216
  B           18.942814      124.440605     -182.502223
  B           19.820963      123.947811     -184.230230
  B           20.699111      123.455017     -185.958237
  B           21.577260      122.962222     -187.686244
  BL          22.455409      122.469428     -189.414251
  BL          23.333558      121.976634     -191.142258
  BL          24.211707      121.483839     -192.870265
  BL          25.089856      120.991045     -194.598272
  BL          25.968005      120.498251     -196.326279
  BL          26.846154      120.005456     -198.054286
  BL          27.724302      119.512662     -199.782293
  BL          28.602451      119.019868     -201.510300
  BL          29.480600      118.527073     -203.238307
  BL          30.358749      118.034279     -204.966314
  BL          31.236898      117.541485     -206.694322
  BL          32.115047      117.048690     -208.422329
  BL          32.993196      116.555896     -210.150336
  BL          33.871345      116.063102     -211.878343
  BL          34.749494      115.570307     -213.606350
  BL          35.627642      115.077513     -215.334357
  BL          36.505791      114.584719     -217.062364
  BL          37.383940      114.091924     -218.790371
  BL          38.262089      113.599130     -220.518378
  BL          39.140238      113.106336     -222.246385
  BL          40.018387      112.613541     -223.974392
  BL          40.896536      112.120747     -225.702399
  BL          41.774685      111.627953     -227.430406
  BL          42.652833      111.135158     -229.158413
  BL          43.530982      110.642364     -230.886420
  BL          44.409131      110.149570     -232.614427
  BL          45.287280      109.656775     -234.342434
  BL          46.165429      109.163981     -236.070441
  BL          47.043578      108.671187     -237.798448
  BL          47.921727      108.178392     -239.526455
  BL          48.799876      107.685598     -241.254462
  BL          49.678024      107.192803     -242.982469
  BL          50.556173      106.700009     -244.710476
  BL          51.434322      106.207215     -246.438483
  BL          52.312471      105.714420     -248.166490
  BL          53.190620      105.221626     -249.894497
  BL          54.068769      104.728832     -251.622504
  BL          54.946918      104.236037     -253.350511
  BL          55.825067      103.743243     -255.078518
  BL          56.703215      103.250449     -256.806525
  BL          57.581364      102.757654     -258.534532
  BL          58.459513      102.264860     -260.262539
  BL          59.337662      101.772066     -261.990546
  BL          60.215811      101.279271     -263.718553
  BL          61.093960      100.786477     -265.446560
  BL          61.972109      100.293683     -267.174567
  BL          62.850258       99.800888     -268.902575
  BL          63.728407       99.308094     -270.630582
  BL          64.606555       98.815300     -272.358589
  BL          65.484704       98.322505     -274.086596
  B           41.855875     -211.181231      298.314660
  B           41.567172     -213.134297      298.634321
  B           41.278469     -215.087363      298.953982
  B           40.989767     -217.040429      299.273643
  B           40.701064     -218.993495      299.593304
  B           40.412361     -220.946562      299.912965
  B           40.123658     -222.899628      300.232626
  B           39.834956     -224.852694      300.552287
  B           39.546253     -226.805760      300.871948
  B           39.257550     -228.758827      301.191609
  B           38.968848     -230.711893      301.511270
  B           38.680145     -232.664959      301.830931
  B           38.391442     -234.618025      302.150592
  B           38.102740     -236.571091      302.470253
  B           37.814037     -238.524158      302.789914
  B           37.525334     -240.477224      303.109575
  B           37.236632     -242.430290      303.429236
  B           36.947929     -244.383356      303.748897
  B           36.659226     -246.336422      304.068558
  B           36.370524     -248.289489      304.388219
  BL          36.081821     -250.242555      304.707880
  BL          35.793118     -252.195621      305.027541
  BL          35.504416     -254.148687      305.347202
  BL          35.215713     -256.101753      305.666863
  BL          34.927010     -258.054820      305.986524
  BL          34.638308     -260.007886      306.306185
  BL          34.349605     -261.960952      306.625846
  BL          34.060902     -263.914018      306.945507
  BL          33.772199     -265.867084      307.265168
  BL          33.483497     -267.820151      307.584829
  BL          33.194794     -269.773217      307.904490
  BL          32.906091     -271.726283      308.224151
  BL          32.617389     -273.679349      308.543812
  BL          32.328686     -275.632416      308.863473
  BL          32.039983     -277.585482      309.183134
  BL          31.751281     -279.538548      309.502795
  BL          31.462578     -281.491614      309.822456
  BL          31.173875     -283.444680      310.142117
  BL          30.885173     -285.397747      310.461778
  BL          30.596470     -287.350813      310.781439
  BL          30.307767     -289.303879      311.101099
  BL          30.019065     -291.256945      311.420760
  BL          29.730362     -293.210011      311.740421
  BL          29.441659     -295.163078      312.060082
  BL          29.152957     -297.116144      312.379743
  BL          28.864254     -299.069210      312.699404
  BL          28.575551     -301.022276      313.019065
  BL          28.286849     -302.975342      313.338726
  BL          27.998146     -304.928409      313.658387
  BL          27.709443     -306.881475      313.978048
  BL          27.420741     -308.834541      314.297709
  BL          27.132038     -310.787607      314.617370
  BL          26.843335     -312.740673      314.937031
  BL          26.554632     -314.693740      315.256692
  BL          26.265930     -316.646806      315.576353
  BL          25.977227     -318.599872      315.896014
  BL          25.688524     -320.552938      316.215675
  BL          25.399822     -322.506005      316.535336
  BL          25.111119     -324.459071      316.854997
  BL          24.822416     -326.412137      317.174658
  BL          24.533714     -328.365203      317.494319
  BL          24.245011     -330.318269      317.813980
  BL          23.956308     -332.271336      318.133641
  BL          23.667606     -334.224402      318.453302
  BL          23.378903     -336.177468      318.772963
  BL          23.090200     -338.130534      319.092624
  BL          22.801498     -340.083600      319.412285
  BL          22.512795     -342.036667      319.731946
  BL          22.224092     -343.989733      320.051607
  BL          21.935390     -345.942799      320.371268
  B         -316.070880      134.337502     -292.822384
  B         -315.412714      132.724046     -291.840765
  B         -314.754548      131.110589     -290.859146
  B         -314.096382      129.497133     -289.877527
  B         -313.438217      127.883676     -288.895908
  B         -312.780051      126.270220     -287.914289
  B         -312.121885      124.656763     -286.932670
  B         -311.463719      123.043307     -285.951051
  B         -310.805553      121.429851     -284.969431
  B         -310.147387      119.816394     -283.987812
  B         -309.489221      118.202938     -283.006193
  B         -308.831056      116.589481     -282.024574
  B         -308.172890      114.976025     -281.042955
  B         -307.514724      113.362568     -280.061336
  B         -306.856558      111.749112     -279.079717
  B         -306.198392      110.135656     -278.098098
  B         -305.540226      108.522199     -277.116479
  B         -304.882060      106.908743     -276.134860
  B         -304.223895      105.295286     -275.153241
  B         -303.565729      103.681830     -274.171622
  BL        -302.907563      102.068373     -273.190002
  BL        -302.249397      100.454917     -272.208383
  BL        -301.591231       98.841460     -271.226764
  BL        -300.933065       97.228004     -270.245145
  BL        -300.274899       95.614548     -269.263526
  BL        -299.616734       94.001091     -268.281907
  BL        -298.958568       92.387635     -267.300288
  BL        -298.300402       90.774178     -266.318669
  BL        -297.642236       89.160722     -265.337050
  BL        -296.984070       87.547265     -264.355431
  BL        -296.325904       85.933809     -263.373812
  BL        -295.667738       84.320353     -262.392193
  BL        -295.009573       82.706896     -261.410573
  BL        -294.351407       81.093440     -260.428954
  BL        -293.693241       79.479983     -259.447335
  BL        -293.035075       77.866527     -258.465716
  BL        -292.376909       76.253070     -257.484097
  BL        -291.718743       74.639614     -256.502478
  BL        -291.060577       73.026157     -255.520859
  BL        -290.402412       71.412701     -254.539240
  BL        -289.744246       69.799245     -253.557621
  BL        -289.086080       68.185788     -252.576002
  BL        -288.427914       66.572332     -251.594383
  BL        -287.769748       64.958875     -250.612764
  BL        -287.111582       63.345419     -249.631144
  BL        -286.453416       61.731962     -248.649525
  BL        -285.795251       60.118506     -247.667906
  BL        -285.137085       58.505050     -246.686287
  BL        -284.478919       56.891593     -245.704668
  BL        -283.820753       55.278137     -244.723049
  BL        -283.162587       53.664680     -243.741430
  BL        -282.504421       52.051224     -242.759811
  BL        -281.846255       50.437767     -241.778192
  BL        -281.188090       48.824311     -240.796573
  BL        -280.529924       47.210854     -239.814954
  BL        -279.871758       45.597398     -238.833335
  BL        -279.213592       43.983942     -237.851715
  BL        -278.555426       42.370485     -236.870096
  BL        -277.897260       40.757029     -235.888477
  BL        -277.239094       39.143572     -234.906858
  BL        -276.580929       37.530116     -233.925239
  BL        -275.922763       35.916659     -232.943620
  BL        -275.264597       34.303203     -231.962001
  BL        -274.606431       32.689747     -230.980382
  BL        -273.948265       31.076290     -229.998763
  BL        -273.290099       29.462834     -229.017144
  BL        -272.631933       27.849377     -228.035525
  BL        -271.973768       26.235921     -227.053906
  BL        -271.315602       24.622464     -226.072286
  BL        -270.657436       23.009008     -225.090667
  B         -281.032056      -92.604419     -288.156070
  B         -279.176656      -91.860020     -288.098091
  B         -277.321257      -91.115621     -288.040112
  B         -275.465857      -90.371223     -287.982133
  B         -273.610457      -89.626824     -287.924154
  B         -271.755057      -88.882425     -287.866175
  B         -269.899657      -88.138026     -287.808196
  B         -268.044257      -87.393627     -287.750217
  B         -266.188857      -86.649228     -287.692238
  B         -264.333457      -85.904829     -287.634259
  B         -262.478058      -85.160430     -287.576280
  B         -260.622658      -84.416031     -287.518301
  B         -258.767258      -83.671632     -287.460322
  B         -256.911858      -82.927233     -287.402343
  B         -255.056458      -82.182834     -287.344364
  B         -253.201058      -81.438435     -287.286385
  B         -251.345658      -80.694037     -287.228406
  B         -249.490259      -79.949638     -287.170427
  B         -247.634859      -79.205239     -287.112448
  B         -245.779459      -78.460840     -287.054469
  BL        -243.924059      -77.716441     -286.996490
  BL        -242.068659      -76.972042     -286.938511
  BL        -240.213259      -76.227643     -286.880532
  BL        -238.357859      -75.483244     -286.822553
  BL        -236.502459      -74.738845     -286.764574
  BL        -234.647060      -73.994446     -286.706595
  BL        -232.791660      -73.250047     -286.648616
  BL        -230.936260      -72.505648     -286.590637
  BL        -229.080860      -71.761250     -286.532658
  BL        -227.225460      -71.016851     -286.474679
  BL        -225.370060      -70.272452     -286.416700
  BL        -223.514660      -69.528053     -286.358721
  BL        -221.659260      -68.783654     -286.300742
  BL        -219.803861      -68.039255     -286.242763
  BL        -217.948461      -67.294856     -286.184784
  BL        -216.093061      -66.550457     -286.126805
  BL        -214.237661      -65.806058     -286.068826
  BL        -212.382261      -65.061659     -286.010847
  BL        -210.526861      -64.317260     -285.952868
  BL        -208.671461      -63.572861     -285.894889
  BL        -206.816061      -62.828462     -285.836910
  BL        -204.960662      -62.084064     -285.778931
  BL        -203.105262      -61.339665     -285.720952
  BL        -201.249862      -60.595266     -285.662973
  BL        -199.394462      -59.850867     -285.604994
  BL        -197.539062      -59.106468     -285.547015
  BL        -195.683662      -58.362069     -285.489036
  BL        -193.828262      -57.617670     -285.431057
  BL        -191.972862      -56.873271     -285.373078
  BL        -190.117463      -56.128872     -285.315099
  BL        -188.262063      -55.384473     -285.257120
  BL        -186.406663      -54.640074     -285.199141
  BL        -184.551263      -53.895675     -285.141162
  BL        -182.695863      -53.151276     -285.083183
  BL        -180.840463      -52.406878     -285.025204
  BL        -178.985063      -51.662479     -284.967226
  BL        -177.129664      -50.918080     -284.909247
  BL        -175.274264      -50.173681     -284.851268
  BL        -173.418864      -49.429282     -284.793289
  BL        -171.563464      -48.684883     -284.735310
  BL        -169.708064      -47.940484     -284.677331
  BL        -167.852664      -47.196085     -284.619352
  BL        -165.997264      -46.451686     -284.561373
  BL        -164.141864      -45.707287     -284.503394
  BL        -162.286465      -44.962888     -284.445415
  BL        -160.431065      -44.218489     -284.387436
  BL        -158.575665      -43.474090     -284.329457
  BL        -156.720265      -42.729692     -284.271478
  BL        -154.864865      -41.985293     -284.213499
  BL        -153.009465      -41.240894     -284.155520
  B           88.584524     -240.632599     -399.356325
  B           89.399776     -239.963802     -397.656890
  B           90.215027     -239.295005     -395.957456
  B           91.030278     -238.626209     -394.258022
  B           91.845529     -237.957412     -392.558588
  B           92.660780     -237.288615     -390.859154
  B           93.476032     -236.619819     -389.159719
  B           94.291283     -235.951022     -387.460285
  B           95.106534     -235.282226     -385.760851
  B           95.921785     -234.613429     -384.061417
  B           96.737036     -233.944632     -382.361983
  B           97.552288     -233.275836     -380.662549
  B           98.367539     -232.607039     -378.963114
  B           99.182790     -231.938243     -377.263680
  B           99.998041     -231.269446     -375.564246
  B          100.813292     -230.600649     -373.864812
  B          101.628544     -229.931853     -372.165378
  B          102.443795     -229.263056     -370.465943
  B          103.259046     -228.594260     -368.766509
  B          104.074297     -227.925463     -367.067075
  BL         104.889548     -227.256666     -365.367641
  BL         105.704800     -226.587870     -363.668207
  BL         106.520051     -225.919073     -361.968772
  BL         107.335302     -225.250276     -360.269338
  BL         108.150553     -224.581480     -358.569904
  BL         108.965804     -223.912683     -356.870470
  BL         109.781056     -223.243887     -355.171036
  BL         110.596307     -222.575090     -353.471601
  BL         111.411558     -221.906293     -351.772167
  BL         112.226809     -221.237497     -350.072733
  BL         113.042060     -220.568700     -348.373299
  BL         113.857312     -219.899904     -346.673865
  BL         114.672563     -219.231107     -344.974430
  BL         115.487814     -218.562310     -343.274996
  BL         116.303065     -217.893514     -341.575562
  BL         117.118316     -217.224717     -339.876128
  BL         117.933568     -216.555921     -338.176694
  BL         118.748819     -215.887124     -336.477259
  BL         119.564070     -215.218327     -334.777825
  BL         120.379321     -214.549531     -333.078391
  BL         121.194572     -213.880734     -331.378957
  BL         122.009824     -213.211938     -329.679523
  BL         122.825075     -212.543141     -327.980089
  BL         123.640326     -211.874344     -326.280654
  BL         124.455577     -211.205548     -324.581220
  BL         125.270828     -210.536751     -322.881786
  BL         126.086080     -209.867954     -321.182352
  BL         126.901331     -209.199158     -319.482918
  BL         127.716582     -208.530361     -317.783483
  BL         128.531833     -207.861565     -316.084049
  BL         129.347084     -207.192768     -314.384615
  BL         130.162336     -206.523971     -312.685181
  BL         130.977587     -205.855175     -310.985747
  BL         131.792838     -205.186378     -309.286312
  BL         132.608089     -204.517582     -307.586878
  BL         133.423340     -203.848785     -305.887444
  BL         134.238592     -203.179988     -304.188010
  BL         135.053843     -202.511192     -302.488576
  BL         135.869094     -201.842395     -300.789141
  BL         136.684345     -201.173599     -299.089707
  BL         137.499596     -200.504802     -297.390273
  BL         138.314848     -199.836005     -295.690839
  BL         139.130099     -199.167209     -293.991405
  BL         139.945350     -198.498412     -292.291970
  BL         140.760601     -197.829616     -290.592536
  BL         141.575852     -197.160819     -288.893102
  BL         142.391104     -196.492022     -287.193668
  BL         143.206355     -195.823226     -285.494234
  BL         144.021606     -195.154429     -283.794800
  BL         144.836857     -194.485632     -282.095365
  B          396.369759      -75.825714      284.117301
  B          394.695470      -74.872523      284.654129
  B          393.021182      -73.919332      285.190958
  B          391.346893      -72.966141      285.727786
  B          389.672604      -72.012950      286.264615
  B          387.998316      -71.059759      286.801443
  B          386.324027      -70.106569      287.338272
  B          384.649739      -69.153378      287.875100
  B          382.975450      -68.200187      288.411928
  B          381.301161      -67.246996      288.948757
  B          379.626873      -66.293805      289.485585
  B          377.952584      -65.340614      290.022414
  B          376.278295      -64.387424      290.559242
  B          374.604007      -63.434233      291.096071
  B          372.929718      -62.481042      291.632899
  B          371.255429      -61.527851      292.169727
  B          369.581141      -60.574660      292.706556
  B          367.906852      -59.621469      293.243384
  B          366.232564      -58.668278      293.780213
  B          364.558275      -57.715088      294.317041
  BL         362.883986      -56.761897      294.853870
  BL         361.209698      -55.808706      295.390698
  BL         359.535409      -54.855515      295.927527
  BL         357.861120      -53.902324      296.464355
  BL         356.186832      -52.949133      297.001183
  BL         354.512543      -51.995943      297.538012
  BL         352.838254      -51.042752      298.074840
  BL         351.163966      -50.089561      298.611669
  BL         349.489677      -49.136370      299.148497
  BL         347.815389      -48.183179      299.685326
  BL         346.141100      -47.229988      300.222154
  BL         344.466811      -46.276797      300.758983
  BL         342.792523      -45.323607      301.295811
  BL         341.118234      -44.370416      301.832639
  BL         339.443945      -43.417225      302.369468
  BL         337.769657      -42.464034      302.906296
  BL         336.095368      -41.510843      303.443125
  BL         334.421079      -40.557652      303.979953
  BL         332.746791      -39.604462      304.516782
  BL         331.072502      -38.651271      305.053610
  BL         329.398214      -37.698080      305.590438
  BL         327.723925      -36.744889      306.127267
  BL         326.049636      -35.791698      306.664095
  BL         324.375348      -34.838507      307.200924
  BL         322.701059      -33.885316      307.737752
  BL         321.026770      -32.932126      308.274581
  BL         319.352482      -31.978935      308.811409
  BL         317.678193      -31.025744      309.348238
  BL         316.003904      -30.072553      309.885066
  BL         314.329616      -29.119362      310.421894
  BL         312.655327      -28.166171      310.958723
  BL         310.981039      -27.212980      311.495551
  BL         309.306750      -26.259790      312.032380
  BL         307.632461      -25.306599      312.569208
  BL         305.958173      -24.353408      313.106037
  BL         304.283884      -23.400217      313.642865
  BL         302.609595      -22.447026      314.179694
  BL         300.935307      -21.493835      314.716522
  BL         299.261018      -20.540645      315.253350
  BL         297.586729      -19.587454      315.790179
  BL         295.912441      -18.634263      316.327007
  BL         294.238152      -17.681072      316.863836
  BL         292.563864      -16.727881      317.400664
  BL         290.889575      -15.774690      317.937493
  BL         289.215286      -14.821499      318.474321
  BL         287.540998      -13.868309      319.011149
  BL         285.866709      -12.915118      319.547978
  BL         284.192420      -11.961927      320.084806
  BL         282.518132      -11.008736      320.621635
  BL         280.843843      -10.055545      321.158463
  B          -35.710444       49.920762     -309.065537
  B          -35.077658       48.234122     -308.196729
  B          -34.444873       46.547482     -307.327920
  B          -33.812087       44.860842     -306.459112
  B          -33.179301       43.174202     -305.590303
  B          -32.546515       41.487562     -304.721495
  B          -31.913729       39.800923     -303.852687
  B          -31.280944       38.114283     -302.983878
  B          -30.648158       36.427643     -302.115070
  B          -30.015372       34.741003     -301.246262
  B          -29.382586       33.054363     -300.377453
  B          -28.749800       31.367723     -299.508645
  B          -28.117015       29.681083     -298.639837
  B          -27.484229       27.994443     -297.771028
  B          -26.851443       26.307803     -296.902220
  B          -26.218657       24.621163     -296.033411
  B          -25.585871       22.934524     -295.164603
  B          -24.953086       21.247884     -294.295795
  B          -24.320300       19.561244     -293.426986
  B          -23.687514       17.874604     -292.558178
  BL         -23.054728       16.187964     -291.689370
  BL         -22.421942       14.501324     -290.820561
  BL         -21.789157       12.814684     -289.951753
  BL         -21.156371       11.128044     -289.082945
  BL         -20.523585        9.441404     -288.214136
  BL         -19.890799        7.754764     -287.345328
  BL         -19.258013        6.068125     -286.476520
  BL         -18.625228        4.381485     -285.607711
  BL         -17.992442        2.694845     -284.738903
  BL         -17.359656        1.008205     -283.870094
  BL         -16.726870       -0.678435     -283.001286
  BL         -16.094084       -2.365075     -282.132478
  BL         -15.461299       -4.051715     -281.263669
  BL         -14.828513       -5.738355     -280.394861
  BL         -14.195727       -7.424995     -279.526053
  BL         -13.562941       -9.111635     -278.657244
  BL         -12.930155      -10.798275     -277.788436
  BL         -12.297370      -12.484914     -276.919628
  BL         -11.664584      -14.171554     -276.050819
  BL         -11.031798      -15.858194     -275.182011
  BL         -10.399012      -17.544834     -274.313202
  BL          -9.766226      -19.231474     -273.444394
  BL          -9.133441      -20.918114     -272.575586
  BL          -8.500655      -22.604754     -271.706777
  BL          -7.867869      -24.291394     -270.837969
  BL          -7.235083      -25.978034     -269.969161
  BL          -6.602297      -27.664674     -269.100352
  BL          -5.969512      -29.351313     -268.231544
  BL          -5.336726      -31.037953     -267.362736
  BL          -4.703940      -32.724593     -266.493927
  BL          -4.071154      -34.411233     -265.625119
  BL          -3.438368      -36.097873     -264.756310
  BL          -2.805583      -37.784513     -263.887502
  BL          -2.172797      -39.471153     -263.018694
  BL          -1.540011      -41.157793     -262.149885
  BL          -0.907225      -42.844433     -261.281077
  BL          -0.274439      -44.531073     -260.412269
  BL           0.358347      -46.217712     -259.543460
  BL           0.991132      -47.904352     -258.674652
  BL           1.623918      -49.590992     -257.805844
  BL           2.256704      -51.277632     -256.937035
  BL           2.889490      -52.964272     -256.068227
  BL           3.522276      -54.650912     -255.199418
  BL           4.155061      -56.337552     -254.330610
  BL           4.787847      -58.024192     -253.461802
  BL           5.420633      -59.710832     -252.592993
  BL           6.053419      -61.397472     -251.724185
  BL           6.686205      -63.084111     -250.855377
  BL           7.318990      -64.770751     -249.986568
  BL           7.951776      -66.457391     -249.117760
  B         -228.343305       21.989547      199.563356
  B         -228.622409       23.787167      198.732293
  B         -228.901512       25.584786      197.901230
  B         -229.180616       27.382406      197.070168
  B         -229.459719       29.180025      196.239105
  B         -229.738823       30.977645      195.408042
  B         -230.017927       32.775264      194.576980
  B         -230.297030       34.572884      193.745917
  B         -230.576134       36.370504      192.914854
  B         -230.855238       38.168123      192.083792
  B         -231.134341       39.965743      191.252729
  B         -231.413445       41.763362      190.421667
  B         -231.692548       43.560982      189.590604
  B         -231.971652       45.358601      188.759541
  B         -232.250756       47.156221      187.928479
  B         -232.529859       48.953840      187.097416
  B         -232.808963       50.751460      186.266353
  B         -233.088067       52.549080      185.435291
  B         -233.367170       54.346699      184.604228
  B         -233.646274       56.144319      183.773165
  BL        -233.925377       57.941938      182.942103
  BL        -234.204481       59.739558      182.111040
  BL        -234.483585       61.537177      181.279977
  BL        -234.762688       63.334797      180.448915
  BL        -235.041792       65.132416      179.617852
  BL        -235.320896       66.930036      178.786790
  BL        -235.599999       68.727656      177.955727
  BL        -235.879103       70.525275      177.124664
  BL        -236.158206       72.322895      176.293602
  BL        -236.437310       74.120514      175.462539
  BL        -236.716414       75.918134      174.631476
  BL        -236.995517       77.715753      173.800414
  BL        -237.274621       79.513373      172.969351
  BL        -237.553725       81.310992      172.138288
  BL        -237.832828       83.108612      171.307226
  BL        -238.111932       84.906231      170.476163
  BL        -238.391035       86.703851      169.645100
  BL        -238.670139       88.501471      168.814038
  BL        -238.949243       90.299090      167.982975
  BL        -239.228346       92.096710      167.151913
  BL        -239.507450       93.894329      166.320850
  BL        -239.786554       95.691949      165.489787
  BL        -240.065657       97.489568      164.658725
  BL        -240.344761       99.287188      163.827662
  BL        -240.623864      101.084807      162.996599
  BL        -240.902968      102.882427      162.165537
  BL        -241.182072      104.680047      161.334474
  BL        -241.461175      106.477666      160.503411
  BL        -241.740279      108.275286      159.672349
  BL        -242.019383      110.072905      158.841286
  BL        -242.298486      111.870525      158.010223
  BL        -242.577590      113.668144      157.179161
  BL        -242.856693      115.465764      156.348098
  BL        -243.135797      117.263383      155.517036
  BL        -243.414901      119.061003      154.685973
  BL        -243.694004      120.858622      153.854910
  BL        -243.973108      122.656242      153.023848
  BL        -244.252212      124.453862      152.192785
  BL        -244.531315      126.251481      151.361722
  BL        -244.810419      128.049101      150.530660
  BL        -245.089522      129.846720      149.699597
  BL        -245.368626      131.644340      148.868534
  BL        -245.647730      133.441959      148.037472
  BL        -245.926833      135.239579      147.206409
  BL        -246.205937      137.037198      146.375346
  BL        -246.485041      138.834818      145.544284
  BL        -246.764144      140.632438      144.713221
  BL        -247.043248      142.430057      143.882159
  BL        -247.322351      144.227677      143.051096
  BL        -247.601455      146.025296      142.220033
  B         -207.438748      229.330565      -52.433020
  B         -208.557979      227.675363      -52.520374
  B         -209.677209      226.020162      -52.607728
  B         -210.796440      224.364960      -52.695083
  B         -211.915670      222.709758      -52.782437
  B         -213.034901      221.054557      -52.869791
  B         -214.154131      219.399355      -52.957146
  B         -215.273361      217.744154      -53.044500
  B         -216.392592      216.088952      -53.131854
  B         -217.511822      214.433750      -53.219208
  B         -218.631053      212.778549      -53.306563
  B         -219.750283      211.123347      -53.393917
  B         -220.869514      209.468145      -53.481271
  B         -221.988744      207.812944      -53.568626
  B         -223.107975      206.157742      -53.655980
  B         -224.227205      204.502540      -53.743334
  B         -225.346435      202.847339      -53.830688
  B         -226.465666      201.192137      -53.918043
  B         -227.584896      199.536936      -54.005397
  B         -228.704127      197.881734      -54.092751
  BL        -229.823357      196.226532      -54.180106
  BL        -230.942588      194.571331      -54.267460
  BL        -232.061818      192.916129      -54.354814
  BL        -233.181049      191.260927      -54.442168
  BL        -234.300279      189.605726      -54.529523
  BL        -235.419510      187.950524      -54.616877
  BL        -236.538740      186.295323      -54.704231
  BL        -237.657970      184.640121      -54.791586
  BL        -238.777201      182.984919      -54.878940
  BL        -239.896431      181.329718      -54.966294
  BL        -241.015662      179.674516      -55.053648
  BL        -242.134892      178.019314      -55.141003
  BL        -243.254123      176.364113      -55.228357
  BL        -244.373353      174.708911      -55.315711
  BL        -245.492584      173.053710      -55.403066
  BL        -246.611814      171.398508      -55.490420
  BL        -247.731044      169.743306      -55.577774
  BL        -248.850275      168.088105      -55.665128
  BL        -249.969505      166.432903      -55.752483
  BL        -251.088736      164.777701      -55.839837
  BL        -252.207966      163.122500      -55.927191
  BL        -253.327197      161.467298      -56.014546
  BL        -254.446427      159.812097      -56.101900
  BL        -255.565658      158.156895      -56.189254
  BL        -256.684888      156.501693      -56.276608
  BL        -257.804118      154.846492      -56.363963
  BL        -258.923349      153.191290      -56.451317
  BL        -260.042579      151.536088      -56.538671
  BL        -261.161810      149.880887      -56.626026
  BL        -262.281040      148.225685      -56.713380
  BL        -263.400271      146.570483      -56.800734
  BL        -264.519501      144.915282      -56.888088
  BL        -265.638732      143.260080      -56.975443
  BL        -266.757962      141.604879      -57.062797
  BL        -267.877193      139.949677      -57.150151
  BL        -268.996423      138.294475      -57.237506
  BL        -270.115653      136.639274      -57.324860
  BL        -271.234884      134.984072      -57.412214
  BL        -272.354114      133.328870      -57.499568
  BL        -273.473345      131.673669      -57.586923
  BL        -274.592575      130.018467      -57.674277
  BL        -275.711806      128.363266      -57.761631
  BL        -276.831036      126.708064      -57.848986
  BL        -277.950267      125.052862      -57.936340
  BL        -279.069497      123.397661      -58.023694
  BL        -280.188727      121.742459      -58.111048
  BL        -281.307958      120.087257      -58.198403
  BL        -282.427188      118.432056      -58.285757
  BL        -283.546419      116.776854      -58.373111
  BL        -284.665649      115.121653      -58.460466
  B          356.909488      291.605083      340.050222
  B          355.066474      290.867239      340.292885
  B          353.223459      290.129396      340.535547
  B          351.380445      289.391552      340.778210
  B          349.537431      288.653708      341.020873
  B          347.694416      287.915865      341.263536
  B          345.851402      287.178021      341.506198
  B          344.008388      286.440177      341.748861
  B          342.165374      285.702334      341.991524
  B          340.322359      284.964490      342.234187
  B          338.479345      284.226647      342.476849
  B          336.636331      283.488803      342.719512
  B          334.793317      282.750959      342.962175
  B          332.950302      282.013116      343.204838
  B          331.107288      281.275272      343.447500
  B          329.264274      280.537428      343.690163
  B          327.421260      279.799585      343.932826
  B          325.578245      279.061741      344.175489
  B          323.735231      278.323898      344.418151
  B          321.892217      277.586054      344.660814
  BL         320.049202      276.848210      344.903477
  BL         318.206188      276.110367      345.146140
  BL         316.363174      275.372523      345.388802
  BL         314.520160      274.634680      345.631465
  BL         312.677145      273.896836      345.874128
  BL         310.834131      273.158992      346.116791
  BL         308.991117      272.421149      346.359453
  BL         307.148103      271.683305      346.602116
  BL         305.305088      270.945461      346.844779
  BL         303.462074      270.207618      347.087442
  BL         301.619060      269.469774      347.330104
  BL         299.776046      268.731931      347.572767
  BL         297.933031      267.994087      347.815430
  BL         296.090017      267.256243      348.058093
  BL         294.247003      266.518400      348.300755
  BL         292.403989      265.780556      348.543418
  BL         290.560974      265.042712      348.786081
  BL         288.717960      264.304869      349.028744
  BL         286.874946      263.567025      349.271406
  BL         285.031931      262.829182      349.514069
  BL         283.188917      262.091338      349.756732
  BL         281.345903      261.353494      349.999395
  BL         279.502889      260.615651      350.242057
  BL         277.659874      259.877807      350.484720
  BL         275.816860      259.139963      350.727383
  BL         273.973846      258.402120      350.970046
  BL         272.130832      257.664276      351.212709
  BL         270.287817      256.926433      351.455371
  BL         268.444803      256.188589      351.698034
  BL         266.601789      255.450745      351.940697
  BL         264.758775      254.712902      352.183360
  BL         262.915760      253.975058      352.426022
  BL         261.072746      253.237214      352.668685
  BL         259.229732      252.499371      352.911348
  BL         257.386718      251.761527      353.154011
  BL         255.543703      251.023684      353.396673
  BL         253.700689      250.285840      353.639336
  BL         251.857675      249.547996      353.881999
  BL         250.014660      248.810153      354.124662
  BL         248.171646      248.072309      354.367324
  BL         246.328632      247.334466      354.609987
  BL         244.485618      246.596622      354.852650
  BL         242.642603      245.858778      355.095313
  BL         240.799589      245.120935      355.337975
  BL         238.956575      244.383091      355.580638
  BL         237.113561      243.645247      355.823301
  BL         235.270546      242.907404      356.065964
  BL         233.427532      242.169560      356.308626
  BL         231.584518      241.431717      356.551289
  BL         229.741504      240.693873      356.793952
  B          -26.173901     -109.154312      290.194288
  B          -24.892249     -107.746220      290.806371
  B          -23.610598     -106.338128      291.418455
  B          -22.328946     -104.930036      292.030538
  B          -21.047295     -103.521943      292.642621
  B          -19.765643     -102.113851      293.254705
  B          -18.483992     -100.705759      293.866788
  B          -17.202340      -99.297667      294.478871
  B          -15.920689      -97.889575      295.090955
  B          -14.639038      -96.481482      295.703038
  B          -13.357386      -95.073390      296.315121
  B          -12.075735      -93.665298      296.927204
  B          -10.794083      -92.257206      297.539288
  B           -9.512432      -90.849114      298.151371
  B           -8.230780      -89.441021      298.763454
  B           -6.949129      -88.032929      299.375538
  B           -5.667477      -86.624837      299.987621
  B           -4.385826      -85.216745      300.599704
  B           -3.104175      -83.808653      301.211788
  B           -1.822523      -82.400561      301.823871
  BL          -0.540872      -80.992468      302.435954
  BL           0.740780      -79.584376      303.048037
  BL           2.022431      -78.176284      303.660121
  BL           3.304083      -76.768192      304.272204
  BL           4.585734      -75.360100      304.884287
  BL           5.867386      -73.952007      305.496371
  BL           7.149037      -72.543915      306.108454
  BL           8.430688      -71.135823      306.720537
  BL           9.712340      -69.727731      307.332621
  BL          10.993991      -68.319639      307.944704
  BL          12.275643      -66.911547      308.556787
  BL          13.557294      -65.503454      309.168870
  BL          14.838946      -64.095362      309.780954
  BL          16.120597      -62.687270      310.393037
  BL          17.402249      -61.279178      311.005120
  BL          18.683900      -59.871086      311.617204
  BL          19.965551      -58.462993      312.229287
  BL          21.247203      -57.054901      312.841370
  BL          22.528854      -55.646809      313.453454
  BL          23.810506      -54.238717      314.065537
  BL          25.092157      -52.830625      314.677620
  BL          26.373809      -51.422532      315.289703
  BL          27.655460      -50.014440      315.901787
  BL          28.937112      -48.606348      316.513870
  BL          30.218763      -47.198256      317.125953
  BL          31.500414      -45.790164      317.738037
  BL          32.782066      -44.382072      318.350120
  BL          34.063717      -42.973979      318.962203
  BL          35.345369      -41.565887      319.574287
  BL          36.627020      -40.157795      320.186370
  BL          37.908672      -38.749703      320.798453
  BL          39.190323      -37.341611      321.410536
  BL          40.471975      -35.933518      322.022620
  BL          41.753626      -34.525426      322.634703
  BL          43.035277      -33.117334      323.246786
  BL          44.316929      -31.709242      323.858870
  BL          45.598580      -30.301150      324.470953
  BL          46.880232      -28.893057      325.083036
  BL          48.161883      -27.484965      325.695120
  BL          49.443535      -26.076873      326.307203
  BL          50.725186      -24.668781      326.919286
  BL          52.006838      -23.260689      327.531369
  BL          53.288489      -21.852597      328.143453
  BL          54.570140      -20.444504      328.755536
  BL          55.851792      -19.036412      329.367619
  BL          57.133443      -17.628320      329.979703
  BL          58.415095      -16.220228      330.591786
  BL          59.696746      -14.812136      331.203869
  BL          60.978398      -13.404043      331.815953
  BL          62.260049      -11.995951      332.428036
  B          -16.225004     -299.497315      -77.519616
  B          -18.022453     -300.362976      -77.660357
  B          -19.819902     -301.228638      -77.801097
  B          -21.617350     -302.094300      -77.941838
  B          -23.414799     -302.959961      -78.082579
  B          -25.212248     -303.825623      -78.223320
  B          -27.009697     -304.691284      -78.364060
  B          -28.807145     -305.556946      -78.504801
  B          -30.604594     -306.422608      -78.645542
  B          -32.402043     -307.288269      -78.786283
  B          -34.199492     -308.153931      -78.927023
  B          -35.996941     -309.019592      -79.067764
  B          -37.794389     -309.885254      -79.208505
  B          -39.591838     -310.750916      -79.349245
  B          -41.389287     -311.616577      -79.489986
  B          -43.186736     -312.482239      -79.630727
  B          -44.984184     -313.347900      -79.771468
  B          -46.781633     -314.213562      -79.912208
  B          -48.579082     -315.079223      -80.052949
  B          -50.376531     -315.944885      -80.193690
  BL         -52.173979     -316.810547      -80.334430
  BL         -53.971428     -317.676208      -80.475171
  BL         -55.768877     -318.541870      -80.615912
  BL         -57.566326     -319.407531      -80.756653
  BL         -59.363774     -320.273193      -80.897393
  BL         -61.161223     -321.138855      -81.038134
  BL         -62.958672     -322.004516      -81.178875
  BL         -64.756121     -322.870178      -81.319615
  BL         -66.553569     -323.735839      -81.460356
  BL         -68.351018     -324.601501      -81.601097
  BL         -70.148467     -325.467163      -81.741838
  BL         -71.945916     -326.332824      -81.882578
  BL         -73.743364     -327.198486      -82.023319
  BL         -75.540813     -328.064147      -82.164060
  BL         -77.338262     -328.929809      -82.304800
  BL         -79.135711     -329.795471      -82.445541
  BL         -80.933160     -330.661132      -82.586282
  BL         -82.730608     -331.526794      -82.727023
  BL         -84.528057     -332.392455      -82.867763
  BL         -86.325506     -333.258117      -83.008504
  BL         -88.122955     -334.123779      -83.149245
  BL         -89.920403     -334.989440      -83.289986
  BL         -91.717852     -335.855102      -83.430726
  BL         -93.515301     -336.720763      -83.571467
  BL         -95.312750     -337.586425      -83.712208
  BL         -97.110198     -338.452087      -83.852948
  BL         -98.907647     -339.317748      -83.993689
  BL        -100.705096     -340.183410      -84.134430
  BL        -102.502545     -341.049071      -84.275171
  BL        -104.299993     -341.914733      -84.415911
  BL        -106.097442     -342.780395      -84.556652
  BL        -107.894891     -343.646056      -84.697393
  BL        -109.692340     -344.511718      -84.838133
  BL        -111.489788     -345.377379      -84.978874
  BL        -113.287237     -346.243041      -85.119615
  BL        -115.084686     -347.108703      -85.260356
  BL        -116.882135     -347.974364      -85.401096
  BL        -118.679583     -348.840026      -85.541837
  BL        -120.477032     -349.705687      -85.682578
  BL        -122.274481     -350.571349      -85.823318
  BL        -124.071930     -351.437011      -85.964059
  BL        -125.869379     -352.302672      -86.104800
  BL        -127.666827     -353.168334      -86.245541
  BL        -129.464276     -354.033995      -86.386281
  BL        -131.261725     -354.899657      -86.527022
  BL        -133.059174     -355.765319      -86.667763
  BL        -134.856622     -356.630980      -86.808504
  BL        -136.654071     -357.496642      -86.949244
  BL        -138.451520     -358.362303      -87.089985
  BL        -140.248969     -359.227965      -87.230726
  B          -24.653017      340.677180     -145.593091
  B          -26.623864      340.445539     -145.343885
  B          -28.594712      340.213897     -145.094679
  B          -30.565559      339.982256     -144.845473
  B          -32.536406      339.750614     -144.596267
  B          -34.507253      339.518972     -144.347061
  B          -36.478100      339.287331     -144.097855
  B          -38.448947      339.055689     -143.848649
  B          -40.419795      338.824048     -143.599443
  B          -42.390642      338.592406     -143.350237
  B          -44.361489      338.360765     -143.101032
  B          -46.332336      338.129123     -142.851826
  B          -48.303183      337.897482     -142.602620
  B          -50.274030      337.665840     -142.353414
  B          -52.244878      337.434199     -142.104208
  B          -54.215725      337.202557     -141.855002
  B          -56.186572      336.970915     -141.605796
  B          -58.157419      336.739274     -141.356590
  B          -60.128266      336.507632     -141.107384
  B          -62.099113      336.275991     -140.858178
  BL         -64.069961      336.044349     -140.608972
  BL         -66.040808      335.812708     -140.359766
  BL         -68.011655      335.581066     -140.110560
  BL         -69.982502      335.349425     -139.861354
  BL         -71.953349      335.117783     -139.612148
  BL         -73.924196      334.886141     -139.362942
  BL         -75.895044      334.654500     -139.113736
  BL         -77.865891      334.422858     -138.864530
  BL         -79.836738      334.191217     -138.615324
  BL         -81.807585      333.959575     -138.366118
  BL         -83.778432      333.727934     -138.116912
  BL         -85.749280      333.496292     -137.867706
  BL         -87.720127      333.264651     -137.618500
  BL         -89.690974      333.033009     -137.369294
  BL         -91.661821      332.801368     -137.120088
  BL         -93.632668      332.569726     -136.870882
  BL         -95.603515      332.338084     -136.621676
  BL         -97.574363      332.106443     -136.372470
  BL         -99.545210      331.874801     -136.123264
  BL        -101.516057      331.643160     -135.874058
  BL        -103.486904      331.411518     -135.624852
  BL        -105.457751      331.179877     -135.375646
  BL        -107.428598      330.948235     -135.126440
  BL        -109.399446      330.716594     -134.877234
  BL        -111.370293      330.484952     -134.628028
  BL        -113.341140      330.253310     -134.378822
  BL        -115.311987      330.021669     -134.129616
  BL        -117.282834      329.790027     -133.880410
  BL        -119.253681      329.558386     -133.631204
  BL        -121.224529      329.326744     -133.381998
  BL        -123.195376      329.095103     -133.132792
  BL        -125.166223      328.863461     -132.883587
  BL        -127.137070      328.631820     -132.634381
  BL        -129.107917      328.400178     -132.385175
  BL        -131.078764      328.168537     -132.135969
  BL        -133.049612      327.936895     -131.886763
  BL        -135.020459      327.705253     -131.637557
  BL        -136.991306      327.473612     -131.388351
  BL        -138.962153      327.241970     -131.139145
  BL        -140.933000      327.010329     -130.889939
  BL        -142.903847      326.778687     -130.640733
  BL        -144.874695      326.547046     -130.391527
  BL        -146.845542      326.315404     -130.142321
  BL        -148.816389      326.083763     -129.893115
  BL        -150.787236      325.852121     -129.643909
  BL        -152.758083      325.620479     -129.394703
  BL        -154.728931      325.388838     -129.145497
  BL        -156.699778      325.157196     -128.896291
  BL        -158.670625      324.925555     -128.647085
  BL        -160.641472      324.693913     -128.397879
  B          392.068408      -52.299959      -87.232453
  B          390.922409      -50.856977      -88.009942
  B          389.776411      -49.413994      -88.787431
  B          388.630412      -47.971012      -89.564920
  B          387.484414      -46.528030      -90.342409
  B          386.338415      -45.085047      -91.119899
  B          385.192417      -43.642065      -91.897388
  B          384.046418      -42.199083      -92.674877
  B          382.900420      -40.756100      -93.452366
  B          381.754421      -39.313118      -94.229855
  B          380.608423      -37.870136      -95.007344
  B          379.462424      -36.427153      -95.784834
  B          378.316425      -34.984171      -96.562323
  B          377.170427      -33.541189      -97.339812
  B          376.024428      -32.098206      -98.117301
  B          374.878430      -30.655224      -98.894790
  B          373.732431      -29.212242      -99.672279
  B          372.586433      -27.769259     -100.449768
  B          371.440434      -26.326277     -101.227258
  B          370.294436      -24.883295     -102.004747
  BL         369.148437      -23.440312     -102.782236
  BL         368.002439      -21.997330     -103.559725
  BL         366.856440      -20.554348     -104.337214
  BL         365.710442      -19.111365     -105.114703
  BL         364.564443      -17.668383     -105.892193
  BL         363.418445      -16.225401     -106.669682
  BL         362.272446      -14.782418     -107.447171
  BL         361.126448      -13.339436     -108.224660
  BL         359.980449      -11.896454     -109.002149
  BL         358.834451      -10.453471     -109.779638
  BL         357.688452       -9.010489     -110.557127
  BL         356.542454       -7.567507     -111.334617
  BL         355.396455       -6.124524     -112.112106
  BL         354.250457       -4.681542     -112.889595
  BL         353.104458       -3.238560     -113.667084
  BL         351.958460       -1.795577     -114.444573
  BL         350.812461       -0.352595     -115.222062
  BL         349.666463        1.090387     -115.999552
  BL         348.520464        2.533370     -116.777041
  BL         347.374466        3.976352     -117.554530
  BL         346.228467        5.419334     -118.332019
  BL         345.082469        6.862317     -119.109508
  BL         343.936470        8.305299     -119.886997
  BL         342.790472        9.748281     -120.664486
  BL         341.644473       11.191264     -121.441976
  BL         340.498474       12.634246     -122.219465
  BL         339.352476       14.077228     -122.996954
  BL         338.206477       15.520211     -123.774443
  BL         337.060479       16.963193     -124.551932
  BL         335.914480       18.406175     -125.329421
  BL         334.768482       19.849158     -126.106910
  BL         333.622483       21.292140     -126.884400
  BL         332.476485       22.735122     -127.661889
  BL         331.330486       24.178105     -128.439378
  BL         330.184488       25.621087     -129.216867
  BL         329.038489       27.064069     -129.994356
  BL         327.892491       28.507052     -130.771845
  BL         326.746492       29.950034     -131.549335
  BL         325.600494       31.393016     -132.326824
  BL         324.454495       32.835999     -133.104313
  BL         323.308497       34.278981     -133.881802
  BL         322.162498       35.721963     -134.659291
  BL         321.016500       37.164946     -135.436780
  BL         319.870501       38.607928     -136.214269
  BL         318.724503       40.050910     -136.991759
  BL         317.578504       41.493893     -137.769248
  BL         316.432506       42.936875     -138.546737
  BL         315.286507       44.379857     -139.324226
  BL         314.140509       45.822840     -140.101715
  BL         312.994510       47.265822     -140.879204
  B         -399.959733       38.508105     -379.569030
  B         -398.699107       39.976638     -379.064816
  B         -397.438480       41.445170     -378.560601
  B         -396.177853       42.913703     -378.056386
  B         -394.917227       44.382235     -377.552172
  B         -393.656600       45.850768     -377.047957
  B         -392.395973       47.319301     -376.543742
  B         -391.135347       48.787833     -376.039527
  B         -389.874720       50.256366     -375.535313
  B         -388.614094       51.724898     -375.031098
  B         -387.353467       53.193431     -374.526883
  B         -386.092840       54.661964     -374.022669
  B         -384.832214       56.130496     -373.518454
  B         -383.571587       57.599029     -373.014239
  B         -382.310960       59.067561     -372.510024
  B         -381.050334       60.536094     -372.005810
  B         -379.789707       62.004626     -371.501595
  B         -378.529080       63.473159     -370.997380
  B         -377.268454       64.941692     -370.493166
  B         -376.007827       66.410224     -369.988951
  BL        -374.747200       67.878757     -369.484736
  BL        -373.486574       69.347289     -368.980521
  BL        -372.225947       70.815822     -368.476307
  BL        -370.965320       72.284355     -367.972092
  BL        -369.704694       73.752887     -367.467877
  BL        -368.444067       75.221420     -366.963663
  BL        -367.183441       76.689952     -366.459448
  BL        -365.922814       78.158485     -365.955233
  BL        -364.662187       79.627018     -365.451018
  BL        -363.401561       81.095550     -364.946804
  BL        -362.140934       82.564083     -364.442589
  BL        -360.880307       84.032615     -363.938374
  BL        -359.619681       85.501148     -363.434160
  BL        -358.359054       86.969681     -362.929945
  BL        -357.098427       88.438213     -362.425730
  BL        -355.837801       89.906746     -361.921515
  BL        -354.577174       91.375278     -361.417301
  BL        -353.316547       92.843811     -360.913086
  BL        -352.055921       94.312343     -360.408871
  BL        -350.795294       95.780876     -359.904657
  BL        -349.534667       97.249409     -359.400442
  BL        -348.274041       98.717941     -358.896227
  BL        -347.013414      100.186474     -358.392012
  BL        -345.752787      101.655006     -357.887798
  BL        -344.492161      103.123539     -357.383583
  BL        -343.231534      104.592072     -356.879368
  BL        -341.970908      106.060604     -356.375154
  BL        -340.710281      107.529137     -355.870939
  BL        -339.449654      108.997669     -355.366724
  BL        -338.189028      110.466202     -354.862509
  BL        -336.928401      111.934735     -354.358295
  BL        -335.667774      113.403267     -353.854080
  BL        -334.407148      114.871800     -353.349865
  BL        -333.146521      116.340332     -352.845651
  BL        -331.885894      117.808865     -352.341436
  BL        -330.625268      119.277398     -351.837221
  BL        -329.364641      120.745930     -351.333006
  BL        -328.104014      122.214463     -350.828792
  BL        -326.843388      123.682995     -350.324577
  BL        -325.582761      125.151528     -349.820362
  BL        -324.322134      126.620061     -349.316148
  BL        -323.061508      128.088593     -348.811933
  BL        -321.800881      129.557126     -348.307718
  BL        -320.540254      131.025658     -347.803503
  BL        -319.279628      132.494191     -347.299289
  BL        -318.019001      133.962723     -346.795074
  BL        -316.758375      135.431256     -346.290859
  BL        -315.497748      136.899789     -345.786645
  BL        -314.237121      138.368321     -345.282430
  BL        -312.976495      139.836854     -344.778215
  B           28.951496     -373.319718       35.851008
  B           29.744915     -371.566877       36.396933
  B           30.538333     -369.814036       36.942859
  B           31.331752     -368.061194       37.488785
  B           32.125171     -366.308353       38.034710
  B           32.918589     -364.555512       38.580636
  B           33.712008     -362.802671       39.126561
  B           34.505427     -361.049830       39.672487
  B           35.298845     -359.296989       40.218413
  B           36.092264     -357.544148       40.764338
  B           36.885683     -355.791306       41.310264
  B           37.679101     -354.038465       41.856190
  B           38.472520     -352.285624       42.402115
  B           39.265938     -350.532783       42.948041
  B           40.059357     -348.779942       43.493967
  B           40.852776     -347.027101       44.039892
  B           41.646194     -345.274260       44.585818
  B           42.439613     -343.521418       45.131744
  B           43.233032     -341.768577       45.677669
  B           44.026450     -340.015736       46.223595
  BL          44.819869     -338.262895       46.769520
  BL          45.613287     -336.510054       47.315446
  BL          46.406706     -334.757213       47.861372
  BL          47.200125     -333.004372       48.407297
  BL          47.993543     -331.251530       48.953223
  BL          48.786962     -329.498689       49.499149
  BL          49.580381     -327.745848       50.045074
  BL          50.373799     -325.993007       50.591000
  BL          51.167218     -324.240166       51.136926
  BL          51.960637     -322.487325       51.682851
  BL          52.754055     -320.734484       52.228777
  BL          53.547474     -318.981642       52.774703
  BL          54.340892     -317.228801       53.320628
  BL          55.134311     -315.475960       53.866554
  BL          55.927730     -313.723119       54.412479
  BL          56.721148     -311.970278       54.958405
  BL          57.514567     -310.217437       55.504331
  BL          58.307986     -308.464596       56.050256
  BL          59.101404     -306.711754       56.596182
  BL          59.894823     -304.958913       57.142108
  BL          60.688241     -303.206072       57.688033
  BL          61.481660     -301.453231       58.233959
  BL          62.275079     -299.700390       58.779885
  BL          63.068497     -297.947549       59.325810
  BL          63.861916     -296.194708       59.871736
  BL          64.655335     -294.441866       60.417662
  BL          65.448753     -292.689025       60.963587
  BL          66.242172     -290.936184       61.509513
  BL          67.035591     -289.183343       62.055438
  BL          67.829009     -287.430502       62.601364
  BL          68.622428     -285.677661       63.147290
  BL          69.415846     -283.924820       63.693215
  BL          70.209265     -282.171978       64.239141
  BL          71.002684     -280.419137       64.785067
  BL          71.796102     -278.666296       65.330992
  BL          72.589521     -276.913455       65.876918
  BL          73.382940     -275.160614       66.422844
  BL          74.176358     -273.407773       66.968769
  BL          74.969777     -271.654932       67.514695
  BL          75.763195     -269.902090       68.060621
  BL          76.556614     -268.149249       68.606546
  BL          77.350033     -266.396408       69.152472
  BL          78.143451     -264.643567       69.698397
  BL          78.936870     -262.890726       70.244323
  BL          79.730289     -261.137885       70.790249
  BL          80.523707     -259.385044       71.336174
  BL          81.317126     -257.632202       71.882100
  BL          82.110545     -255.879361       72.428026
  BL          82.903963     -254.126520       72.973951
  BL          83.697382     -252.373679       73.519877
  B           47.995311       46.497577       83.114046
  B           46.739434       45.309730       84.119925
  B           45.483558       44.121882       85.125803
  B           44.227681       42.934034       86.131682
  B           42.971805       41.746187       87.137561
  B           41.715928       40.558339       88.143440
  B           40.460051       39.370492       89.149318
  B           39.204175       38.182644       90.155197
  B           37.948298       36.994796       91.161076
  B           36.692422       35.806949       92.166955
  B           35.436545       34.619101       93.172834
  B           34.180669       33.431253       94.178712
  B           32.924792       32.243406       95.184591
  B           31.668916       31.055558       96.190470
  B           30.413039       29.867711       97.196349
  B           29.157163       28.679863       98.202228
  B           27.901286       27.492015       99.208106
  B           26.645409       26.304168      100.213985
  B           25.389533       25.116320      101.219864
  B           24.133656       23.928472      102.225743
  BL          22.877780       22.740625      103.231621
  BL          21.621903       21.552777      104.237500
  BL          20.366027       20.364930      105.243379
  BL          19.110150       19.177082      106.249258
  BL          17.854274       17.989234      107.255137
  BL          16.598397       16.801387      108.261015
  BL          15.342521       15.613539      109.266894
  BL          14.086644       14.425692      110.272773
  BL          12.830767       13.237844      111.278652
  BL          11.574891       12.049996      112.284531
  BL          10.319014       10.862149      113.290409
  BL           9.063138        9.674301      114.296288
  BL           7.807261        8.486453      115.302167
  BL           6.551385        7.298606      116.308046
  BL           5.295508        6.110758      117.313924
  BL           4.039632        4.922911      118.319803
  BL           2.783755        3.735063      119.325682
  BL           1.527879        2.547215      120.331561
  BL           0.272002        1.359368      121.337440
  BL          -0.983875        0.171520      122.343318
  BL          -2.239751       -1.016328      123.349197
  BL          -3.495628       -2.204175      124.355076
  BL          -4.751504       -3.392023      125.360955
  BL          -6.007381       -4.579870      126.366833
  BL          -7.263257       -5.767718      127.372712
  BL          -8.519134       -6.955566      128.378591
  BL          -9.775010       -8.143413      129.384470
  BL         -11.030887       -9.331261      130.390349
  BL         -12.286764      -10.519109      131.396227
  BL         -13.542640      -11.706956      132.402106
  BL         -14.798517      -12.894804      133.407985
  BL         -16.054393      -14.082651      134.413864
  BL         -17.310270      -15.270499      135.419743
  BL         -18.566146      -16.458347      136.425621
  BL         -19.822023      -17.646194      137.431500
  BL         -21.077899      -18.834042      138.437379
  BL         -22.333776      -20.021890      139.443258
  BL         -23.589652      -21.209737      140.449136
  BL         -24.845529      -22.397585      141.455015
  BL         -26.101406      -23.585432      142.460894
  BL         -27.357282      -24.773280      143.466773
  BL         -28.613159      -25.961128      144.472652
  BL         -29.869035      -27.148975      145.478530
  BL         -31.124912      -28.336823      146.484409
  BL         -32.380788      -29.524670      147.490288
  BL         -33.636665      -30.712518      148.496167
  BL         -34.892541      -31.900366      149.502045
  BL         -36.148418      -33.088213      150.507924
  BL         -37.404294      -34.276061      151.513803
  BL         -38.660171      -35.463909      152.519682
  B          -15.722779     -293.824622     -194.502188
  B          -13.940062     -293.437533     -193.682383
  B          -12.157345     -293.050445     -192.862577
  B          -10.374628     -292.663356     -192.042771
  B           -8.591910     -292.276267     -191.222965
  B           -6.809193     -291.889179     -190.403159
  B           -5.026476     -291.502090     -189.583354
  B           -3.243759     -291.115001     -188.763548
  B           -1.461041     -290.727912     -187.943742
  B            0.321676     -290.340824     -187.123936
  B            2.104393     -289.953735     -186.304131
  B            3.887110     -289.566646     -185.484325
  B            5.669828     -289.179558     -184.664519
  B            7.452545     -288.792469     -183.844713
  B            9.235262     -288.405380     -183.024907
  B           11.017979     -288.018292     -182.205102
  B           12.800697     -287.631203     -181.385296
  B           14.583414     -287.244114     -180.565490
  B           16.366131     -286.857026     -179.745684
  B           18.148849     -286.469937     -178.925879
  BL          19.931566     -286.082848     -178.106073
  BL          21.714283     -285.695760     -177.286267
  BL          23.497000     -285.308671     -176.466461
  BL          25.279718     -284.921582     -175.646655
  BL          27.062435     -284.534494     -174.826850
  BL          28.845152     -284.147405     -174.007044
  BL          30.627869     -283.760316     -173.187238
  BL          32.410587     -283.373228     -172.367432
  BL          34.193304     -282.986139     -171.547626
  BL          35.976021     -282.599050     -170.727821
  BL          37.758738     -282.211962     -169.908015
  BL          39.541456     -281.824873     -169.088209
  BL          41.324173     -281.437784     -168.268403
  BL          43.106890     -281.050696     -167.448598
  BL          44.889607     -280.663607     -166.628792
  BL          46.672325     -280.276518     -165.808986
  BL          48.455042     -279.889430     -164.989180
  BL          50.237759     -279.502341     -164.169374
  BL          52.020477     -279.115252     -163.349569
  BL          53.803194     -278.728163     -162.529763
  BL          55.585911     -278.341075     -161.709957
  BL          57.368628     -277.953986     -160.890151
  BL          59.151346     -277.566897     -160.070346
  BL          60.934063     -277.179809     -159.250540
  BL          62.716780     -276.792720     -158.430734
  BL          64.499497     -276.405631     -157.610928
  BL          66.282215     -276.018543     -156.791122
  BL          68.064932     -275.631454     -155.971317
  BL          69.847649     -275.244365     -155.151511
  BL          71.630366     -274.857277     -154.331705
  BL          73.413084     -274.470188     -153.511899
  BL          75.195801     -274.083099     -152.692093
  BL          76.978518     -273.696011     -151.872288
  BL          78.761235     -273.308922     -151.052482
  BL          80.543953     -272.921833     -150.232676
  BL          82.326670     -272.534745     -149.412870
  BL          84.109387     -272.147656     -148.593065
  BL          85.892104     -271.760567     -147.773259
  BL          87.674822     -271.373479     -146.953453
  BL          89.457539     -270.986390     -146.133647
  BL          91.240256     -270.599301     -145.313841
  BL          93.022974     -270.212213     -144.494036
  BL          94.805691     -269.825124     -143.674230
  BL          96.588408     -269.438035     -142.854424
  BL          98.371125     -269.050947     -142.034618
  BL         100.153843     -268.663858     -141.214813
  BL         101.936560     -268.276769     -140.395007
  BL         103.719277     -267.889681     -139.575201
  BL         105.501994     -267.502592     -138.755395
  BL         107.284712     -267.115503     -137.935589
  B          147.093844      262.543946     -103.840362
  B          145.385220      262.667613     -102.808223
  B          143.676596      262.791280     -101.776084
  B          141.967972      262.914947     -100.743945
  B          140.259348      263.038614      -99.711806
  B          138.550724      263.162280      -98.679667
  B          136.842100      263.285947      -97.647528
  B          135.133476      263.409614      -96.615389
  B          133.424853      263.533281      -95.583250
  B          131.716229      263.656948      -94.551111
  B          130.007605      263.780615      -93.518972
  B          128.298981      263.904282      -92.486833
  B          126.590357      264.027949      -91.454694
  B          124.881733      264.151616      -90.422555
  B          123.173109      264.275283      -89.390416
  B          121.464485      264.398950      -88.358277
  B          119.755861      264.522617      -87.326138
  B          118.047237      264.646284      -86.293999
  B          116.338613      264.769951      -85.261860
  B          114.629990      264.893618      -84.229721
  BL         112.921366      265.017285      -83.197582
  BL         111.212742      265.140952      -82.165444
  BL         109.504118      265.264619      -81.133305
  BL         107.795494      265.388286      -80.101166
  BL         106.086870      265.511953      -79.069027
  BL         104.378246      265.635620      -78.036888
  BL         102.669622      265.759287      -77.004749
  BL         100.960998      265.882953      -75.972610
  BL          99.252374      266.006620      -74.940471
  BL          97.543750      266.130287      -73.908332
  BL          95.835127      266.253954      -72.876193
  BL          94.126503      266.377621      -71.844054
  BL          92.417879      266.501288      -70.811915
  BL          90.709255      266.624955      -69.779776
  BL          89.000631      266.748622      -68.747637
  BL          87.292007      266.872289      -67.715498
  BL          85.583383      266.995956      -66.683359
  BL          83.874759      267.119623      -65.651220
  BL          82.166135      267.243290      -64.619081
  BL          80.457511      267.366957      -63.586942
  BL          78.748887      267.490624      -62.554803
  BL          77.040264      267.614291      -61.522664
  BL          75.331640      267.737958      -60.490525
  BL          73.623016      267.861625      -59.458387
  BL          71.914392      267.985292      -58.426248
  BL          70.205768      268.108959      -57.394109
  BL          68.497144      268.232626      -56.361970
  BL          66.788520      268.356293      -55.329831
  BL          65.079896      268.479959      -54.297692
  BL          63.371272      268.603626      -53.265553
  BL          61.662648      268.727293      -52.233414
  BL          59.954024      268.850960      -51.201275
  BL          58.245401      268.974627      -50.169136
  BL          56.536777      269.098294      -49.136997
  BL          54.828153      269.221961      -48.104858
  BL          53.119529      269.345628      -47.072719
  BL          51.410905      269.469295      -46.040580
  BL          49.702281      269.592962      -45.008441
  BL          47.993657      269.716629      -43.976302
  BL          46.285033      269.840296      -42.944163
  BL          44.576409      269.963963      -41.912024
  BL          42.867785      270.087630      -40.879885
  BL          41.159161      270.211297      -39.847746
  BL          39.450538      270.334964      -38.815607
  BL          37.741914      270.458631      -37.783469
  BL          36.033290      270.582298      -36.751330
  BL          34.324666      270.705965      -35.719191
  BL          32.616042      270.829632      -34.687052
  BL          30.907418      270.953299      -33.654913
  BL          29.198794      271.076966      -32.622774
  B          -29.760070      -65.393288     -201.544020
  B          -29.405359      -67.031581     -200.453068
  B          -29.050648      -68.669873     -199.362116
  B          -28.695936      -70.308166     -198.271164
  B          -28.341225      -71.946459     -197.180211
  B          -27.986514      -73.584752     -196.089259
  B          -27.631803      -75.223044     -194.998307
  B          -27.277092      -76.861337     -193.907354
  B          -26.922380      -78.499630     -192.816402
  B          -26.567669      -80.137923     -191.725450
  B          -26.212958      -81.776215     -190.634498
  B          -25.858247      -83.414508     -189.543545
  B          -25.503536      -85.052801     -188.452593
  B          -25.148824      -86.691094     -187.361641
  B          -24.794113      -88.329386     -186.270689
  B          -24.439402      -89.967679     -185.179736
  B          -24.084691      -91.605972     -184.088784
  B          -23.729980      -93.244265     -182.997832
  B          -23.375268      -94.882557     -181.906880
  B          -23.020557      -96.520850     -180.815927
  BL         -22.665846      -98.159143     -179.724975
  BL         -22.311135      -99.797435     -178.634023
  BL         -21.956424     -101.435728     -177.543070
  BL         -21.601712     -103.074021     -176.452118
  BL         -21.247001     -104.712314     -175.361166
  BL         -20.892290     -106.350606     -174.270214
  BL         -20.537579     -107.988899     -173.179261
  BL         -20.182868     -109.627192     -172.088309
  BL         -19.828157     -111.265485     -170.997357
  BL         -19.473445     -112.903777     -169.906405
  BL         -19.118734     -114.542070     -168.815452
  BL         -18.764023     -116.180363     -167.724500
  BL         -18.409312     -117.818656     -166.633548
  BL         -18.054601     -119.456948     -165.542596
  BL         -17.699889     -121.095241     -164.451643
  BL         -17.345178     -122.733534     -163.360691
  BL         -16.990467     -124.371827     -162.269739
  BL         -16.635756     -126.010119     -161.178786
  BL         -16.281045     -127.648412     -160.087834
  BL         -15.926333     -129.286705     -158.996882
  BL         -15.571622     -130.924998     -157.905930
  BL         -15.216911     -132.563290     -156.814977
  BL         -14.862200     -134.201583     -155.724025
  BL         -14.507489     -135.839876     -154.633073
  BL         -14.152777     -137.478169     -153.542121
  BL         -13.798066     -139.116461     -152.451168
  BL         -13.443355     -140.754754     -151.360216
  BL         -13.088644     -142.393047     -150.269264
  BL         -12.733933     -144.031340     -149.178312
  BL         -12.379221     -145.669632     -148.087359
  BL         -12.024510     -147.307925     -146.996407
  BL         -11.669799     -148.946218     -145.905455
  BL         -11.315088     -150.584511     -144.814502
  BL         -10.960377     -152.222803     -143.723550
  BL         -10.605665     -153.861096     -142.632598
  BL         -10.250954     -155.499389     -141.541646
  BL          -9.896243     -157.137682     -140.450693
  BL          -9.541532     -158.775974     -139.359741
  BL          -9.186821     -160.414267     -138.268789
  BL          -8.832109     -162.052560     -137.177837
  BL          -8.477398     -163.690853     -136.086884
  BL          -8.122687     -165.329145     -134.995932
  BL          -7.767976     -166.967438     -133.904980
  BL          -7.413265     -168.605731     -132.814028
  BL          -7.058553     -170.244024     -131.723075
  BL          -6.703842     -171.882316     -130.632123
  BL          -6.349131     -173.520609     -129.541171
  BL          -5.994420     -175.158902     -128.450218
  BL          -5.639709     -176.797195     -127.359266
  BL          -5.284997     -178.435487     -126.268314
  B          105.068691       -1.853375      -77.509577
  B          105.776340       -3.721447      -77.607244
  B          106.483990       -5.589519      -77.704912
  B          107.191639       -7.457591      -77.802580
  B          107.899289       -9.325663      -77.900248
  B          108.606938      -11.193735      -77.997915
  B          109.314588      -13.061807      -78.095583
  B          110.022237      -14.929879      -78.193251
  B          110.729886      -16.797952      -78.290919
  B          111.437536      -18.666024      -78.388586
  B          112.145185      -20.534096      -78.486254
  B          112.852835      -22.402168      -78.583922
  B          113.560484      -24.270240      -78.681590
  B          114.268134      -26.138312      -78.779257
  B          114.975783      -28.006384      -78.876925
  B          115.683433      -29.874456      -78.974593
  B          116.391082      -31.742528      -79.072261
  B          117.098731      -33.610600      -79.169928
  B          117.806381      -35.478672      -79.267596
  B          118.514030      -37.346744      -79.365264
  BL         119.221680      -39.214816      -79.462932
  BL         119.929329      -41.082889      -79.560599
  BL         120.636979      -42.950961      -79.658267
  BL         121.344628      -44.819033      -79.755935
  BL         122.052278      -46.687105      -79.853603
  BL         122.759927      -48.555177      -79.951270
  BL         123.467576      -50.423249      -80.048938
  BL         124.175226      -52.291321      -80.146606
  BL         124.882875      -54.159393      -80.244274
  BL         125.590525      -56.027465      -80.341941
  BL         126.298174      -57.895537      -80.439609
  BL         127.005824      -59.763609      -80.537277
  BL         127.713473      -61.631681      -80.634945
  BL         128.421122      -63.499753      -80.732612
  BL         129.128772      -65.367826      -80.830280
  BL         129.836421      -67.235898      -80.927948
  BL         130.544071      -69.103970      -81.025616
  BL         131.251720      -70.972042      -81.123283
  BL         131.959370      -72.840114      -81.220951
  BL         132.667019      -74.708186      -81.318619
  BL         133.374669      -76.576258      -81.416287
  BL         134.082318      -78.444330      -81.513954
  BL         134.789967      -80.312402      -81.611622
  BL         135.497617      -82.180474      -81.709290
  BL         136.205266      -84.048546      -81.806958
  BL         136.912916      -85.916618      -81.904625
  BL         137.620565      -87.784690      -82.002293
  BL         138.328215      -89.652763      -82.099961
  BL         139.035864      -91.520835      -82.197629
  BL         139.743513      -93.388907      -82.295296
  BL         140.451163      -95.256979      -82.392964
  BL         141.158812      -97.125051      -82.490632
  BL         141.866462      -98.993123      -82.588300
  BL         142.574111     -100.861195      -82.685967
  BL         143.281761     -102.729267      -82.783635
  BL         143.989410     -104.597339      -82.881303
  BL         144.697060     -106.465411      -82.978971
  BL         145.404709     -108.333483      -83.076638
  BL         146.112358     -110.201555      -83.174306
  BL         146.820008     -112.069627      -83.271974
  BL         147.527657     -113.937700      -83.369642
  BL         148.235307     -115.805772      -83.467309
  BL         148.942956     -117.673844      -83.564977
  BL         149.650606     -119.541916      -83.662645
  BL         150.358255     -121.409988      -83.760313
  BL         151.065904     -123.278060      -83.857980
  BL         151.773554     -125.146132      -83.955648
  BL         152.481203     -127.014204      -84.053316
  BL         153.188853     -128.882276      -84.150984
  BL         153.896502     -130.750348      -84.248651
  B         -166.806298       49.401348       68.336903
  B         -166.796667       47.450612       68.777965
  B         -166.787035       45.499876       69.219026
  B         -166.777404       43.549140       69.660088
  B         -166.767773       41.598403       70.101150
  B         -166.758141       39.647667       70.542212
  B         -166.748510       37.696931       70.983274
  B         -166.738878       35.746195       71.424335
  B         -166.729247       33.795459       71.865397
  B         -166.719615       31.844722       72.306459
  B         -166.709984       29.893986       72.747521
  B         -166.700353       27.943250       73.188582
  B         -166.690721       25.992514       73.629644
  B         -166.681090       24.041777       74.070706
  B         -166.671458       22.091041       74.511768
  B         -166.661827       20.140305       74.952830
  B         -166.652195       18.189569       75.393891
  B         -166.642564       16.238833       75.834953
  B         -166.632933       14.288096       76.276015
  B         -166.623301       12.337360       76.717077
  BL        -166.613670       10.386624       77.158139
  BL        -166.604038        8.435888       77.599200
  BL        -166.594407        6.485152       78.040262
  BL        -166.584775        4.534415       78.481324
  BL        -166.575144        2.583679       78.922386
  BL        -166.565513        0.632943       79.363447
  BL        -166.555881       -1.317793       79.804509
  BL        -166.546250       -3.268529       80.245571
  BL        -166.536618       -5.219266       80.686633
  BL        -166.526987       -7.170002       81.127695
  BL        -166.517355       -9.120738       81.568756
  BL        -166.507724      -11.071474       82.009818
  BL        -166.498093      -13.022210       82.450880
  BL        -166.488461      -14.972947       82.891942
  BL        -166.478830      -16.923683       83.333003
  BL        -166.469198      -18.874419       83.774065
  BL        -166.459567      -20.825155       84.215127
  BL        -166.449935      -22.775891       84.656189
  BL        -166.440304      -24.726628       85.097251
  BL        -166.430673      -26.677364       85.538312
  BL        -166.421041      -28.628100       85.979374
  BL        -166.411410      -30.578836       86.420436
  BL        -166.401778      -32.529572       86.861498
  BL        -166.392147      -34.480309       87.302560
  BL        -166.382515      -36.431045       87.743621
  BL        -166.372884      -38.381781       88.184683
  BL        -166.363253      -40.332517       88.625745
  BL        -166.353621      -42.283253       89.066807
  BL        -166.343990      -44.233990       89.507868
  BL        -166.334358      -46.184726       89.948930
  BL        -166.324727      -48.135462       90.389992
  BL        -166.315095      -50.086198       90.831054
  BL        -166.305464      -52.036934       91.272116
  BL        -166.295833      -53.987671       91.713177
  BL        -166.286201      -55.938407       92.154239
  BL        -166.276570      -57.889143       92.595301
  BL        -166.266938      -59.839879       93.036363
  BL        -166.257307      -61.790616       93.477424
  BL        -166.247675      -63.741352       93.918486
  BL        -166.238044      -65.692088       94.359548
  BL        -166.228412      -67.642824       94.800610
  BL        -166.218781      -69.593560       95.241672
  BL        -166.209150      -71.544297       95.682733
  BL        -166.199518      -73.495033       96.123795
  BL        -166.189887      -75.445769       96.564857
  BL        -166.180255      -77.396505       97.005919
  BL        -166.170624      -79.347241       97.446981
  BL        -166.160992      -81.297978       97.888042
  BL        -166.151361      -83.248714       98.329104
  BL        -166.141730      -85.199450       98.770166
  B          -90.146457      -17.904708      212.477028
  B          -91.363744      -17.576782      210.924392
  B          -92.581030      -17.248856      209.371756
  B          -93.798317      -16.920930      207.819120
  B          -95.015603      -16.593004      206.266485
  B          -96.232890      -16.265078      204.713849
  B          -97.450176      -15.937152      203.161213
  B          -98.667463      -15.609226      201.608577
  B          -99.884750      -15.281300      200.055941
  B         -101.102036      -14.953374      198.503305
  B         -102.319323      -14.625448      196.950670
  B         -103.536609      -14.297522      195.398034
  B         -104.753896      -13.969596      193.845398
  B         -105.971182      -13.641671      192.292762
  B         -107.188469      -13.313745      190.740126
  B         -108.405755      -12.985819      189.187490
  B         -109.623042      -12.657893      187.634855
  B         -110.840328      -12.329967      186.082219
  B         -112.057615      -12.002041      184.529583
  B         -113.274902      -11.674115      182.976947
  BL        -114.492188      -11.346189      181.424311
  BL        -115.709475      -11.018263      179.871675
  BL        -116.926761      -10.690337      178.319040
  BL        -118.144048      -10.362411      176.766404
  BL        -119.361334      -10.034485      175.213768
  BL        -120.578621       -9.706559      173.661132
  BL        -121.795907       -9.378633      172.108496
  BL        -123.013194       -9.050707      170.555860
  BL        -124.230481       -8.722781      169.003225
  BL        -125.447767       -8.394856      167.450589
  BL        -126.665054       -8.066930      165.897953
  BL        -127.882340       -7.739004      164.345317
  BL        -129.099627       -7.411078      162.792681
  BL        -130.316913       -7.083152      161.240045
  BL        -131.534200       -6.755226      159.687410
  BL        -132.751486       -6.427300      158.134774
  BL        -133.968773       -6.099374      156.582138
  BL        -135.186060       -5.771448      155.029502
  BL        -136.403346       -5.443522      153.476866
  BL        -137.620633       -5.115596      151.924230
  BL        -138.837919       -4.787670      150.371595
  BL        -140.055206       -4.459744      148.818959
  BL        -141.272492       -4.131818      147.266323
  BL        -142.489779       -3.803892      145.713687
  BL        -143.707065       -3.475967      144.161051
  BL        -144.924352       -3.148041      142.608415
  BL        -146.141638       -2.820115      141.055780
  BL        -147.358925       -2.492189      139.503144
  BL        -148.576212       -2.164263      137.950508
  BL        -149.793498       -1.836337      136.397872
  BL        -151.010785       -1.508411      134.845236
  BL        -152.228071       -1.180485      133.292600
  BL        -153.445358       -0.852559      131.739965
  BL        -154.662644       -0.524633      130.187329
  BL        -155.879931       -0.196707      128.634693
  BL        -157.097217        0.131219      127.082057
  BL        -158.314504        0.459145      125.529421
  BL        -159.531791        0.787071      123.976785
  BL        -160.749077        1.114997      122.424150
  BL        -161.966364        1.442923      120.871514
  BL        -163.183650        1.770848      119.318878
  BL        -164.400937        2.098774      117.766242
  BL        -165.618223        2.426700      116.213606
  BL        -166.835510        2.754626      114.660970
  BL        -168.052796        3.082552      113.108335
  BL        -169.270083        3.410478      111.555699
  BL        -170.487370        3.738404      110.003063
  BL        -171.704656        4.066330      108.450427
  BL        -172.921943        4.394256      106.897791
  BL        -174.139229        4.722182      105.345155
  B          -31.550975     -341.619664     -306.449480
  B          -33.085177     -340.509440     -307.092615
  B          -34.619380     -339.399215     -307.735751
  B          -36.153582     -338.288990     -308.378887
  B          -37.687785     -337.178765     -309.022023
  B          -39.221987     -336.068540     -309.665158
  B          -40.756189     -334.958315     -310.308294
  B          -42.290392     -333.848090     -310.951430
  B          -43.824594     -332.737866     -311.594566
  B          -45.358797     -331.627641     -312.237701
  B          -46.892999     -330.517416     -312.880837
  B          -48.427202     -329.407191     -313.523973
  B          -49.961404     -328.296966     -314.167109
  B          -51.495607     -327.186741     -314.810244
  B          -53.029809     -326.076517     -315.453380
  B          -54.564012     -324.966292     -316.096516
  B          -56.098214     -323.856067     -316.739652
  B          -57.632417     -322.745842     -317.382787
  B          -59.166619     -321.635617     -318.025923
  B          -60.700821     -320.525392     -318.669059
  BL         -62.235024     -319.415167     -319.312195
  BL         -63.769226     -318.304943     -319.955330
  BL         -65.303429     -317.194718     -320.598466
  BL         -66.837631     -316.084493     -321.241602
  BL         -68.371834     -314.974268     -321.884738
  BL         -69.906036     -313.864043     -322.527873
  BL         -71.440239     -312.753818     -323.171009
  BL         -72.974441     -311.643593     -323.814145
  BL         -74.508644     -310.533369     -324.457280
  BL         -76.042846     -309.423144     -325.100416
  BL         -77.577049     -308.312919     -325.743552
  BL         -79.111251     -307.202694     -326.386688
  BL         -80.645453     -306.092469     -327.029823
  BL         -82.179656     -304.982244     -327.672959
  BL         -83.713858     -303.872019     -328.316095
  BL         -85.248061     -302.761795     -328.959231
  BL         -86.782263     -301.651570     -329.602366
  BL         -88.316466     -300.541345     -330.245502
  BL         -89.850668     -299.431120     -330.888638
  BL         -91.384871     -298.320895     -331.531774
  BL         -92.919073     -297.210670     -332.174909
  BL         -94.453276     -296.100445     -332.818045
  BL         -95.987478     -294.990221     -333.461181
  BL         -97.521681     -293.879996     -334.104317
  BL         -99.055883     -292.769771     -334.747452
  BL        -100.590085     -291.659546     -335.390588
  BL        -102.124288     -290.549321     -336.033724
  BL        -103.658490     -289.439096     -336.676860
  BL        -105.192693     -288.328872     -337.319995
  BL        -106.726895     -287.218647     -337.963131
  BL        -108.261098     -286.108422     -338.606267
  BL        -109.795300     -284.998197     -339.249403
  BL        -111.329503     -283.887972     -339.892538
  BL        -112.863705     -282.777747     -340.535674
  BL        -114.397908     -281.667522     -341.178810
  BL        -115.932110     -280.557298     -341.821946
  BL        -117.466313     -279.447073     -342.465081
  BL        -119.000515     -278.336848     -343.108217
  BL        -120.534717     -277.226623     -343.751353
  BL        -122.068920     -276.116398     -344.394488
  BL        -123.603122     -275.006173     -345.037624
  BL        -125.137325     -273.895948     -345.680760
  BL        -126.671527     -272.785724     -346.323896
  BL        -128.205730     -271.675499     -346.967031
  BL        -129.739932     -270.565274     -347.610167
  BL        -131.274135     -269.455049     -348.253303
  BL        -132.808337     -268.344824     -348.896439
  BL        -134.342540     -267.234599     -349.539574
  BL        -135.876742     -266.124374     -350.182710
  BL        -137.410945     -265.014150     -350.825846
  B          272.832722      372.082152      -84.181730
  B          274.417017      370.862490      -84.231056
  B          276.001313      369.642828      -84.280382
  B          277.585608      368.423166      -84.329707
  B          279.169904      367.203504      -84.379033
  B          280.754199      365.983842      -84.428358
  B          282.338494      364.764180      -84.477684
  B          283.922790      363.544518      -84.527010
  B          285.507085      362.324856      -84.576335
  B          287.091380      361.105194      -84.625661
  B          288.675676      359.885532      -84.674986
  B          290.259971      358.665871      -84.724312
  B          291.844267      357.446209      -84.773637
  B          293.428562      356.226547      -84.822963
  B          295.012857      355.006885      -84.872289
  B          296.597153      353.787223      -84.921614
  B          298.181448      352.567561      -84.970940
  B          299.765743      351.347899      -85.020265
  B          301.350039      350.128237      -85.069591
  B          302.934334      348.908575      -85.118917
  BL         304.518630      347.688913      -85.168242
  BL         306.102925      346.469252      -85.217568
  BL         307.687220      345.249590      -85.266893
  BL         309.271516      344.029928      -85.316219
  BL         310.855811      342.810266      -85.365544
  BL         312.440106      341.590604      -85.414870
  BL         314.024402      340.370942      -85.464196
  BL         315.608697      339.151280      -85.513521
  BL         317.192992      337.931618      -85.562847
  BL         318.777288      336.711956      -85.612172
  BL         320.361583      335.492294      -85.661498
  BL         321.945879      334.272632      -85.710824
  BL         323.530174      333.052971      -85.760149
  BL         325.114469      331.833309      -85.809475
  BL         326.698765      330.613647      -85.858800
  BL         328.283060      329.393985      -85.908126
  BL         329.867355      328.174323      -85.957451
  BL         331.451651      326.954661      -86.006777
  BL         333.035946      325.734999      -86.056103
  BL         334.620242      324.515337      -86.105428
  BL         336.204537      323.295675      -86.154754
  BL         337.788832      322.076013      -86.204079
  BL         339.373128      320.856352      -86.253405
  BL         340.957423      319.636690      -86.302731
  BL         342.541718      318.417028      -86.352056
  BL         344.126014      317.197366      -86.401382
  BL         345.710309      315.977704      -86.450707
  BL         347.294605      314.758042      -86.500033
  BL         348.878900      313.538380      -86.549358
  BL         350.463195      312.318718      -86.598684
  BL         352.047491      311.099056      -86.648010
  BL         353.631786      309.879394      -86.697335
  BL         355.216081      308.659732      -86.746661
  BL         356.800377      307.440071      -86.795986
  BL         358.384672      306.220409      -86.845312
  BL         359.968968      305.000747      -86.894638
  BL         361.553263      303.781085      -86.943963
  BL         363.137558      302.561423      -86.993289
  BL         364.721854      301.341761      -87.042614
  BL         366.306149      300.122099      -87.091940
  BL         367.890444      298.902437      -87.141265
  BL         369.474740      297.682775      -87.190591
  BL         371.059035      296.463113      -87.239917
  BL         372.643330      295.243452      -87.289242
  BL         374.227626      294.023790      -87.338568
  BL         375.811921      292.804128      -87.387893
  BL         377.396217      291.584466      -87.437219
  BL         378.980512      290.364804      -87.486545
  BL         380.564807      289.145142      -87.535870
  BL         382.149103      287.925480      -87.585196
  B         -325.485611      204.692464       62.454126
  B         -326.565452      203.182709       63.198830
  B         -327.645293      201.672954       63.943535
  B         -328.725133      200.163199       64.688239
  B         -329.804974      198.653444       65.432943
  B         -330.884815      197.143689       66.177647
  B         -331.964656      195.633935       66.922351
  B         -333.044496      194.124180       67.667055
  B         -334.124337      192.614425       68.411759
  B         -335.204178      191.104670       69.156463
  B         -336.284019      189.594915       69.901167
  B         -337.363860      188.085160       70.645871
  B         -338.443700      186.575406       71.390575
  B         -339.523541      185.065651       72.135280
  B         -340.603382      183.555896       72.879984
  B         -341.683223      182.046141       73.624688
  B         -342.763064      180.536386       74.369392
  B         -343.842904      179.026631       75.114096
  B         -344.922745      177.516877       75.858800
  B         -346.002586      176.007122       76.603504
  BL        -347.082427      174.497367       77.348208
  BL        -348.162267      172.987612       78.092912
  BL        -349.242108      171.477857       78.837616
  BL        -350.321949      169.968102       79.582320
  BL        -351.401790      168.458347       80.327025
  BL        -352.481631      166.948593       81.071729
  BL        -353.561471      165.438838       81.816433
  BL        -354.641312      163.929083       82.561137
  BL        -355.721153      162.419328       83.305841
  BL        -356.800994      160.909573       84.050545
  BL        -357.880835      159.399818       84.795249
  BL        -358.960675      157.890064       85.539953
  BL        -360.040516      156.380309       86.284657
  BL        -361.120357      154.870554       87.029361
  BL        -362.200198      153.360799       87.774065
  BL        -363.280039      151.851044       88.518770
  BL        -364.359879      150.341289       89.263474
  BL        -365.439720      148.831534       90.008178
  BL        -366.519561      147.321780       90.752882
  BL        -367.599402      145.812025       91.497586
  BL        -368.679242      144.302270       92.242290
  BL        -369.759083      142.792515       92.986994
  BL        -370.838924      141.282760       93.731698
  BL        -371.918765      139.773005       94.476402
  BL        -372.998606      138.263251       95.221106
  BL        -374.078446      136.753496       95.965810
  BL        -375.158287      135.243741       96.710515
  BL        -376.238128      133.733986       97.455219
  BL        -377.317969      132.224231       98.199923
  BL        -378.397810      130.714476       98.944627
  BL        -379.477650      129.204722       99.689331
  BL        -380.557491      127.694967      100.434035
  BL        -381.637332      126.185212      101.178739
  BL        -382.717173      124.675457      101.923443
  BL        -383.797013      123.165702      102.668147
  BL        -384.876854      121.655947      103.412851
  BL        -385.956695      120.146192      104.157555
  BL        -387.036536      118.636438      104.902260
  BL        -388.116377      117.126683      105.646964
  BL        -389.196217      115.616928      106.391668
  BL        -390.276058      114.107173      107.136372
  BL        -391.355899      112.597418      107.881076
  BL        -392.435740      111.087663      108.625780
  BL        -393.515581      109.577909      109.370484
  BL        -394.595421      108.068154      110.115188
  BL        -395.675262      106.558399      110.859892
  BL        -396.755103      105.048644      111.604596
  BL        -397.834944      103.538889      112.349300
  BL        -398.914785      102.029134      113.094005
  BL        -399.994625      100.519379      113.838709
  B         -241.707507      182.762800     -303.510045
  B         -241.145480      184.523577     -304.274106
  B         -240.583453      186.284354     -305.038167
  B         -240.021427      188.045132     -305.802228
  B         -239.459400      189.805909     -306.566289
  B         -238.897374      191.566686     -307.330350
  B         -238.335347      193.327464     -308.094411
  B         -237.773320      195.088241     -308.858473
  B         -237.211294      196.849018     -309.622534
  B         -236.649267      198.609795     -310.386595
  B         -236.087240      200.370573     -311.150656
  B         -235.525214      202.131350     -311.914717
  B         -234.963187      203.892127     -312.678778
  B         -234.401160      205.652905     -313.442839
  B         -233.839134      207.413682     -314.206900
  B         -233.277107      209.174459     -314.970961
  B         -232.715080      210.935236     -315.735022
  B         -232.153054      212.696014     -316.499084
  B         -231.591027      214.456791     -317.263145
  B         -231.029000      216.217568     -318.027206
  BL        -230.466974      217.978346     -318.791267
  BL        -229.904947      219.739123     -319.555328
  BL        -229.342920      221.499900     -320.319389
  BL        -228.780894      223.260677     -321.083450
  BL        -228.218867      225.021455     -321.847511
  BL        -227.656840      226.782232     -322.611572
  BL        -227.094814      228.543009     -323.375633
  BL        -226.532787      230.303787     -324.139694
  BL        -225.970760      232.064564     -324.903756
  BL        -225.408734      233.825341     -325.667817
  BL        -224.846707      235.586119     -326.431878
  BL        -224.284680      237.346896     -327.195939
  BL        -223.722654      239.107673     -327.960000
  BL        -223.160627      240.868450     -328.724061
  BL        -222.598601      242.629228     -329.488122
  BL        -222.036574      244.390005     -330.252183
  BL        -221.474547      246.150782     -331.016244
  BL        -220.912521      247.911560     -331.780305
  BL        -220.350494      249.672337     -332.544367
  BL        -219.788467      251.433114     -333.308428
  BL        -219.226441      253.193891     -334.072489
  BL        -218.664414      254.954669     -334.836550
  BL        -218.102387      256.715446     -335.600611
  BL        -217.540361      258.476223     -336.364672
  BL        -216.978334      260.237001     -337.128733
  BL        -216.416307      261.997778     -337.892794
  BL        -215.854281      263.758555     -338.656855
  BL        -215.292254      265.519333     -339.420916
  BL        -214.730227      267.280110     -340.184978
  BL        -214.168201      269.040887     -340.949039
  BL        -213.606174      270.801664     -341.713100
  BL        -213.044147      272.562442     -342.477161
  BL        -212.482121      274.323219     -343.241222
  BL        -211.920094      276.083996     -344.005283
  BL        -211.358067      277.844774     -344.769344
  BL        -210.796041      279.605551     -345.533405
  BL        -210.234014      281.366328     -346.297466
  BL        -209.671987      283.127105     -347.061527
  BL        -209.109961      284.887883     -347.825589
  BL        -208.547934      286.648660     -348.589650
  BL        -207.985907      288.409437     -349.353711
  BL        -207.423881      290.170215     -350.117772
  BL        -206.861854      291.930992     -350.881833
  BL        -206.299828      293.691769     -351.645894
  BL        -205.737801      295.452547     -352.409955
  BL        -205.175774      297.213324     -353.174016
  BL        -204.613748      298.974101     -353.938077
  BL        -204.051721      300.734878     -354.702138
  BL        -203.489694      302.495656     -355.466200
  BL        -202.927668      304.256433     -356.230261
  B         -344.800630      232.079239      -85.135180
  B         -345.334900      230.154668      -85.238055
  B         -345.869169      228.230097      -85.340931
  B         -346.403439      226.305526      -85.443806
  B         -346.937708      224.380956      -85.546682
  B         -347.471977      222.456385      -85.649557
  B         -348.006247      220.531814      -85.752432
  B         -348.540516      218.607243      -85.855308
  B         -349.074786      216.682672      -85.958183
  B         -349.609055      214.758101      -86.061059
  B         -350.143325      212.833531      -86.163934
  B         -350.677594      210.908960      -86.266809
  B         -351.211863      208.984389      -86.369685
  B         -351.746133      207.059818      -86.472560
  B         -352.280402      205.135247      -86.575436
  B         -352.814672      203.210677      -86.678311
  B         -353.348941      201.286106      -86.781186
  B         -353.883210      199.361535      -86.884062
  B         -354.417480      197.436964      -86.986937
  B         -354.951749      195.512393      -87.089813
  BL        -355.486019      193.587822      -87.192688
  BL        -356.020288      191.663252      -87.295563
  BL        -356.554558      189.738681      -87.398439
  BL        -357.088827      187.814110      -87.501314
  BL        -357.623096      185.889539      -87.604190
  BL        -358.157366      183.964968      -87.707065
  BL        -358.691635      182.040398      -87.809940
  BL        -359.225905      180.115827      -87.912816
  BL        -359.760174      178.191256      -88.015691
  BL        -360.294444      176.266685      -88.118567
  BL        -360.828713      174.342114      -88.221442
  BL        -361.362982      172.417543      -88.324317
  BL        -361.897252      170.492973      -88.427193
  BL        -362.431521      168.568402      -88.530068
  BL        -362.965791      166.643831      -88.632944
  BL        -363.500060      164.719260      -88.735819
  BL        -364.034329      162.794689      -88.838694
  BL        -364.568599      160.870119      -88.941570
  BL        -365.102868      158.945548      -89.044445
  BL        -365.637138      157.020977      -89.147321
  BL        -366.171407      155.096406      -89.250196
  BL        -366.705677      153.171835      -89.353071
  BL        -367.239946      151.247264      -89.455947
  BL        -367.774215      149.322694      -89.558822
  BL        -368.308485      147.398123      -89.661698
  BL        -368.842754      145.473552      -89.764573
  BL        -369.377024      143.548981      -89.867448
  BL        -369.911293      141.624410      -89.970324
  BL        -370.445563      139.699840      -90.073199
  BL        -370.979832      137.775269      -90.176075
  BL        -371.514101      135.850698      -90.278950
  BL        -372.048371      133.926127      -90.381825
  BL        -372.582640      132.001556      -90.484701
  BL        -373.116910      130.076985      -90.587576
  BL        -373.651179      128.152415      -90.690452
  BL        -374.185448      126.227844      -90.793327
  BL        -374.719718      124.303273      -90.896202
  BL        -375.253987      122.378702      -90.999078
  BL        -375.788257      120.454131      -91.101953
  BL        -376.322526      118.529560      -91.204829
  BL        -376.856796      116.604990      -91.307704
  BL        -377.391065      114.680419      -91.410579
  BL        -377.925334      112.755848      -91.513455
  BL        -378.459604      110.831277      -91.616330
  BL        -378.993873      108.906706      -91.719206
  BL        -379.528143      106.982136      -91.822081
  BL        -380.062412      105.057565      -91.924956
  BL        -380.596681      103.132994      -92.027832
  BL        -381.130951      101.208423      -92.130707
  BL        -381.665220       99.283852      -92.233583
  B           52.477099      112.891449       31.706653
  B           53.472160      112.122329       33.261744
  B           54.467221      111.353209       34.816835
  B           55.462282      110.584090       36.371926
  B           56.457344      109.814970       37.927017
  B           57.452405      109.045850       39.482108
  B           58.447466      108.276730       41.037199
  B           59.442527      107.507610       42.592290
  B           60.437589      106.738490       44.147381
  B           61.432650      105.969370       45.702471
  B           62.427711      105.200251       47.257562
  B           63.422772      104.431131       48.812653
  B           64.417833      103.662011       50.367744
  B           65.412895      102.892891       51.922835
  B           66.407956      102.123771       53.477926
  B           67.403017      101.354651       55.033017
  B           68.398078      100.585531       56.588108
  B           69.393140       99.816412       58.143199
  B           70.388201       99.047292       59.698290
  B           71.383262       98.278172       61.253381
  BL          72.378323       97.509052       62.808472
  BL          73.373385       96.739932       64.363563
  BL          74.368446       95.970812       65.918653
  BL          75.363507       95.201692       67.473744
  BL          76.358568       94.432572       69.028835
  BL          77.353630       93.663453       70.583926
  BL          78.348691       92.894333       72.139017
  BL          79.343752       92.125213       73.694108
  BL          80.338813       91.356093       75.249199
  BL          81.333874       90.586973       76.804290
  BL          82.328936       89.817853       78.359381
  BL          83.323997       89.048733       79.914472
  BL          84.319058       88.279614       81.469563
  BL          85.314119       87.510494       83.024654
  BL          86.309181       86.741374       84.579745
  BL          87.304242       85.972254       86.134835
  BL          88.299303       85.203134       87.689926
  BL          89.294364       84.434014       89.245017
  BL          90.289426       83.664894       90.800108
  BL          91.284487       82.895774       92.355199
  BL          92.279548       82.126655       93.910290
  BL          93.274609       81.357535       95.465381
  BL          94.269670       80.588415       97.020472
  BL          95.264732       79.819295       98.575563
  BL          96.259793       79.050175      100.130654
  BL          97.254854       78.281055      101.685745
  BL          98.249915       77.511935      103.240836
  BL          99.244977       76.742816      104.795927
  BL         100.240038       75.973696      106.351017
  BL         101.235099       75.204576      107.906108
  BL         102.230160       74.435456      109.461199
  BL         103.225222       73.666336      111.016290
  BL         104.220283       72.897216      112.571381
  BL         105.215344       72.128096      114.126472
  BL         106.210405       71.358976      115.681563
  BL         107.205466       70.589857      117.236654
  BL         108.200528       69.820737      118.791745
  BL         109.195589       69.051617      120.346836
  BL         110.190650       68.282497      121.901927
  BL         111.185711       67.513377      123.457018
  BL         112.180773       66.744257      125.012108
  BL         113.175834       65.975137      126.567199
  BL         114.170895       65.206018      128.122290
  BL         115.165956       64.436898      129.677381
  BL         116.161018       63.667778      131.232472
  BL         117.156079       62.898658      132.787563
  BL         118.151140       62.129538      134.342654
  BL         119.146201       61.360418      135.897745
  BL         120.141263       60.591298      137.452836
  BL         121.136324       59.822179      139.007927
  B         -184.411160       50.263394     -163.308152
  B         -182.926777       51.161426     -164.303214
  B         -181.442394       52.059457     -165.298275
  B         -179.958011       52.957488     -166.293337
  B         -178.473628       53.855519     -167.288399
  B         -176.989245       54.753550     -168.283460
  B         -175.504862       55.651581     -169.278522
  B         -174.020479       56.549612     -170.273583
  B         -172.536097       57.447643     -171.268645
  B         -171.051714       58.345674     -172.263707
  B         -169.567331       59.243705     -173.258768
  B         -168.082948       60.141736     -174.253830
  B         -166.598565       61.039767     -175.248891
  B         -165.114182       61.937798     -176.243953
  B         -163.629799       62.835830     -177.239015
  B         -162.145416       63.733861     -178.234076
  B         -160.661033       64.631892     -179.229138
  B         -159.176650       65.529923     -180.224199
  B         -157.692267       66.427954     -181.219261
  B         -156.207885       67.325985     -182.214322
  BL        -154.723502       68.224016     -183.209384
  BL        -153.239119       69.122047     -184.204446
  BL        -151.754736       70.020078     -185.199507
  BL        -150.270353       70.918109     -186.194569
  BL        -148.785970       71.816140     -187.189630
  BL        -147.301587       72.714171     -188.184692
  BL        -145.817204       73.612202     -189.179754
  BL        -144.332821       74.510233     -190.174815
  BL        -142.848438       75.408265     -191.169877
  BL        -141.364056       76.306296     -192.164938
  BL        -139.879673       77.204327     -193.160000
  BL        -138.395290       78.102358     -194.155062
  BL        -136.910907       79.000389     -195.150123
  BL        -135.426524       79.898420     -196.145185
  BL        -133.942141       80.796451     -197.140246
  BL        -132.457758       81.694482     -198.135308
  BL        -130.973375       82.592513     -199.130370
  BL        -129.488992       83.490544     -200.125431
  BL        -128.004609       84.388575     -201.120493
  BL        -126.520226       85.286606     -202.115554
  BL        -125.035844       86.184637     -203.110616
  BL        -123.551461       87.082669     -204.105678
  BL        -122.067078       87.980700     -205.100739
  BL        -120.582695       88.878731     -206.095801
  BL        -119.098312       89.776762     -207.090862
  BL        -117.613929       90.674793     -208.085924
  BL        -116.129546       91.572824     -209.080986
  BL        -114.645163       92.470855     -210.076047
  BL        -113.160780       93.368886     -211.071109
  BL        -111.676397       94.266917     -212.066170
  BL        -110.192014       95.164948     -213.061232
  BL        -108.707632       96.062979     -214.056294
  BL        -107.223249       96.961010     -215.051355
  BL        -105.738866       97.859041     -216.046417
  BL        -104.254483       98.757072     -217.041478
  BL        -102.770100       99.655104     -218.036540
  BL        -101.285717      100.553135     -219.031601
  BL         -99.801334      101.451166     -220.026663
  BL         -98.316951      102.349197     -221.021725
  BL         -96.832568      103.247228     -222.016786
  BL         -95.348185      104.145259     -223.011848
  BL         -93.863803      105.043290     -224.006909
  BL         -92.379420      105.941321     -225.001971
  BL         -90.895037      106.839352     -225.997033
  BL         -89.410654      107.737383     -226.992094
  BL         -87.926271      108.635414     -227.987156
  BL         -86.441888      109.533445     -228.982217
  BL         -84.957505      110.431476     -229.977279
  BL         -83.473122      111.329508     -230.972341
  BL         -81.988739      112.227539     -231.967402
  B          -58.262042     -299.082135     -224.798252
  B          -57.732750     -299.580850     -222.935154
  B          -57.203459     -300.079565     -221.072056
  B          -56.674167     -300.578281     -219.208959
  B          -56.144876     -301.076996     -217.345861
  B          -55.615584     -301.575711     -215.482763
  B          -55.086293     -302.074427     -213.619665
  B          -54.557001     -302.573142     -211.756567
  B          -54.027710     -303.071857     -209.893469
  B          -53.498418     -303.570572     -208.030372
  B          -52.969127     -304.069288     -206.167274
  B          -52.439835     -304.568003     -204.304176
  B          -51.910544     -305.066718     -202.441078
  B          -51.381252     -305.565434     -200.577980
  B          -50.851960     -306.064149     -198.714882
  B          -50.322669     -306.562864     -196.851784
  B          -49.793377     -307.061579     -194.988687
  B          -49.264086     -307.560295     -193.125589
  B          -48.734794     -308.059010     -191.262491
  B          -48.205503     -308.557725     -189.399393
  BL         -47.676211     -309.056441     -187.536295
  BL         -47.146920     -309.555156     -185.673197
  BL         -46.617628     -310.053871     -183.810100
  BL         -46.088337     -310.552586     -181.947002
  BL         -45.559045     -311.051302     -180.083904
  BL         -45.029754     -311.550017     -178.220806
  BL         -44.500462     -312.048732     -176.357708
  BL         -43.971171     -312.547447     -174.494610
  BL         -43.441879     -313.046163     -172.631513
  BL         -42.912588     -313.544878     -170.768415
  BL         -42.383296     -314.043593     -168.905317
  BL         -41.854005     -314.542309     -167.042219
  BL         -41.324713     -315.041024     -165.179121
  BL         -40.795422     -315.539739     -163.316023
  BL         -40.266130     -316.038454     -161.452925
  BL         -39.736839     -316.537170     -159.589828
  BL         -39.207547     -317.035885     -157.726730
  BL         -38.678256     -317.534600     -155.863632
  BL         -38.148964     -318.033316     -154.000534
  BL         -37.619673     -318.532031     -152.137436
  BL         -37.090381     -319.030746     -150.274338
  BL         -36.561090     -319.529461     -148.411241
  BL         -36.031798     -320.028177     -146.548143
  BL         -35.502507     -320.526892     -144.685045
  BL         -34.973215     -321.025607     -142.821947
  BL         -34.443924     -321.524323     -140.958849
  BL         -33.914632     -322.023038     -139.095751
  BL         -33.385341     -322.521753     -137.232654
  BL         -32.856049     -323.020468     -135.369556
  BL         -32.326758     -323.519184     -133.506458
  BL         -31.797466     -324.017899     -131.643360
  BL         -31.268175     -324.516614     -129.780262
  BL         -30.738883     -325.015329     -127.917164
  BL         -30.209592     -325.514045     -126.054066
  BL         -29.680300     -326.012760     -124.190969
  BL         -29.151009     -326.511475     -122.327871
  BL         -28.621717     -327.010191     -120.464773
  BL         -28.092426     -327.508906     -118.601675
  BL         -27.563134     -328.007621     -116.738577
  BL         -27.033843     -328.506336     -114.875479
  BL         -26.504551     -329.005052     -113.012382
  BL         -25.975260     -329.503767     -111.149284
  BL         -25.445968     -330.002482     -109.286186
  BL         -24.916677     -330.501198     -107.423088
  BL         -24.387385     -330.999913     -105.559990
  BL         -23.858094     -331.498628     -103.696892
  BL         -23.328802     -331.997343     -101.833795
  BL         -22.799511     -332.496059      -99.970697
  BL         -22.270219     -332.994774      -98.107599
  BL         -21.740928     -333.493489      -96.244501
  B           35.834826       95.755159     -172.632978
  B           34.208106       96.882612     -172.920436
  B           32.581386       98.010065     -173.207895
  B           30.954667       99.137518     -173.495353
  B           29.327947      100.264971     -173.782812
  B           27.701227      101.392425     -174.070270
  B           26.074508      102.519878     -174.357729
  B           24.447788      103.647331     -174.645188
  B           22.821068      104.774784     -174.932646
  B           21.194348      105.902237     -175.220105
  B           19.567629      107.029690     -175.507563
  B           17.940909      108.157143     -175.795022
  B           16.314189      109.284596     -176.082480
  B           14.687470      110.412049     -176.369939
  B           13.060750      111.539503     -176.657397
  B           11.434030      112.666956     -176.944856
  B            9.807310      113.794409     -177.232314
  B            8.180591      114.921862     -177.519773
  B            6.553871      116.049315     -177.807231
  B            4.927151      117.176768     -178.094690
  BL           3.300431      118.304221     -178.382148
  BL           1.673712      119.431674     -178.669607
  BL           0.046992      120.559128     -178.957065
  BL          -1.579728      121.686581     -179.244524
  BL          -3.206447      122.814034     -179.531983
  BL          -4.833167      123.941487     -179.819441
  BL          -6.459887      125.068940     -180.106900
  BL          -8.086607      126.196393     -180.394358
  BL          -9.713326      127.323846     -180.681817
  BL         -11.340046      128.451299     -180.969275
  BL         -12.966766      129.578753     -181.256734
  BL         -14.593485      130.706206     -181.544192
  BL         -16.220205      131.833659     -181.831651
  BL         -17.846925      132.961112     -182.119109
  BL         -19.473645      134.088565     -182.406568
  BL         -21.100364      135.216018     -182.694026
  BL         -22.727084      136.343471     -182.981485
  BL         -24.353804      137.470924     -183.268943
  BL         -25.980523      138.598378     -183.556402
  BL         -27.607243      139.725831     -183.843860
  BL         -29.233963      140.853284     -184.131319
  BL         -30.860683      141.980737     -184.418777
  BL         -32.487402      143.108190     -184.706236
  BL         -34.114122      144.235643     -184.993695
  BL         -35.740842      145.363096     -185.281153
  BL         -37.367562      146.490549     -185.568612
  BL         -38.994281      147.618003     -185.856070
  BL         -40.621001      148.745456     -186.143529
  BL         -42.247721      149.872909     -186.430987
  BL         -43.874440      151.000362     -186.718446
  BL         -45.501160      152.127815     -187.005904
  BL         -47.127880      153.255268     -187.293363
  BL         -48.754600      154.382721     -187.580821
  BL         -50.381319      155.510174     -187.868280
  BL         -52.008039      156.637628     -188.155738
  BL         -53.634759      157.765081     -188.443197
  BL         -55.261478      158.892534     -188.730655
  BL         -56.888198      160.019987     -189.018114
  BL         -58.514918      161.147440     -189.305572
  BL         -60.141638      162.274893     -189.593031
  BL         -61.768357      163.402346     -189.880490
  BL         -63.395077      164.529799     -190.167948
  BL         -65.021797      165.657252     -190.455407
  BL         -66.648517      166.784706     -190.742865
  BL         -68.275236      167.912159     -191.030324
  BL         -69.901956      169.039612     -191.317782
  BL         -71.528676      170.167065     -191.605241
  BL         -73.155395      171.294518     -191.892699
  BL         -74.782115      172.421971     -192.180158
  BL         -76.408835      173.549424     -192.467616
  B           90.413519     -119.165344      244.556972
  B           88.774900     -119.131258      245.703168
  B           87.136280     -119.097171      246.849363
  B           85.497660     -119.063084      247.995559
  B           83.859041     -119.028997      249.141754
  B           82.220421     -118.994911      250.287949
  B           80.581801     -118.960824      251.434145
  B           78.943182     -118.926737      252.580340
  B           77.304562     -118.892651      253.726535
  B           75.665942     -118.858564      254.872731
  B           74.027323     -118.824477      256.018926
  B           72.388703     -118.790390      257.165121
  B           70.750083     -118.756304      258.311317
  B           69.111464     -118.722217      259.457512
  B           67.472844     -118.688130      260.603707
  B           65.834225     -118.654043      261.749903
  B           64.195605     -118.619957      262.896098
  B           62.556985     -118.585870      264.042293
  B           60.918366     -118.551783      265.188489
  B           59.279746     -118.517697      266.334684
  BL          57.641126     -118.483610      267.480879
  BL          56.002507     -118.449523      268.627075
  BL          54.363887     -118.415436      269.773270
  BL          52.725267     -118.381350      270.919465
  BL          51.086648     -118.347263      272.065661
  BL          49.448028     -118.313176      273.211856
  BL          47.809409     -118.279090      274.358051
  BL          46.170789     -118.245003      275.504247
  BL          44.532169     -118.210916      276.650442
  BL          42.893550     -118.176829      277.796637
  BL          41.254930     -118.142743      278.942833
  BL          39.616310     -118.108656      280.089028
  BL          37.977691     -118.074569      281.235224
  BL          36.339071     -118.040482      282.381419
  BL          34.700451     -118.006396      283.527614
  BL          33.061832     -117.972309      284.673810
  BL          31.423212     -117.938222      285.820005
  BL          29.784592     -117.904136      286.966200
  BL          28.145973     -117.870049      288.112396
  BL          26.507353     -117.835962      289.258591
  BL          24.868734     -117.801875      290.404786
  BL          23.230114     -117.767789      291.550982
  BL          21.591494     -117.733702      292.697177
  BL          19.952875     -117.699615      293.843372
  BL          18.314255     -117.665529      294.989568
  BL          16.675635     -117.631442      296.135763
  BL          15.037016     -117.597355      297.281958
  BL          13.398396     -117.563268      298.428154
  BL          11.759776     -117.529182      299.574349
  BL          10.121157     -117.495095      300.720544
  BL           8.482537     -117.461008      301.866740
  BL           6.843917     -117.426921      303.012935
  BL           5.205298     -117.392835      304.159130
  BL           3.566678     -117.358748      305.305326
  BL           1.928059     -117.324661      306.451521
  BL           0.289439     -117.290575      307.597716
  BL          -1.349181     -117.256488      308.743912
  BL          -2.987800     -117.222401      309.890107
  BL          -4.626420     -117.188314      311.036302
  BL          -6.265040     -117.154228      312.182498
  BL          -7.903659     -117.120141      313.328693
  BL          -9.542279     -117.086054      314.474889
  BL         -11.180899     -117.051968      315.621084
  BL         -12.819518     -117.017881      316.767279
  BL         -14.458138     -116.983794      317.913475
  BL         -16.096757     -116.949707      319.059670
  BL         -17.735377     -116.915621      320.205865
  BL         -19.373997     -116.881534      321.352061
  BL         -21.012616     -116.847447      322.498256
  BL         -22.651236     -116.813360      323.644451
  B          207.428039     -171.690077      -97.731334
  B          207.830268     -172.312186      -95.873595
  B          208.232497     -172.934295      -94.015857
  B          208.634726     -173.556404      -92.158118
  B          209.036955     -174.178513      -90.300380
  B          209.439183     -174.800622      -88.442642
  B          209.841412     -175.422731      -86.584903
  B          210.243641     -176.044840      -84.727165
  B          210.645870     -176.666949      -82.869426
  B          211.048099     -177.289058      -81.011688
  B          211.450328     -177.911167      -79.153949
  B          211.852556     -178.533277      -77.296211
  B          212.254785     -179.155386      -75.438472
  B          212.657014     -179.777495      -73.580734
  B          213.059243     -180.399604      -71.722995
  B          213.461472     -181.021713      -69.865257
  B          213.863701     -181.643822      -68.007518
  B          214.265929     -182.265931      -66.149780
  B          214.668158     -182.888040      -64.292041
  B          215.070387     -183.510149      -62.434303
  BL         215.472616     -184.132258      -60.576564
  BL         215.874845     -184.754367      -58.718826
  BL         216.277073     -185.376476      -56.861087
  BL         216.679302     -185.998585      -55.003349
  BL         217.081531     -186.620694      -53.145610
  BL         217.483760     -187.242804      -51.287872
  BL         217.885989     -187.864913      -49.430133
  BL         218.288218     -188.487022      -47.572395
  BL         218.690446     -189.109131      -45.714656
  BL         219.092675     -189.731240      -43.856918
  BL         219.494904     -190.353349      -41.999179
  BL         219.897133     -190.975458      -40.141441
  BL         220.299362     -191.597567      -38.283702
  BL         220.701591     -192.219676      -36.425964
  BL         221.103819     -192.841785      -34.568225
  BL         221.506048     -193.463894      -32.710487
  BL         221.908277     -194.086003      -30.852749
  BL         222.310506     -194.708112      -28.995010
  BL         222.712735     -195.330221      -27.137272
  BL         223.114964     -195.952331      -25.279533
  BL         223.517192     -196.574440      -23.421795
  BL         223.919421     -197.196549      -21.564056
  BL         224.321650     -197.818658      -19.706318
  BL         224.723879     -198.440767      -17.848579
  BL         225.126108     -199.062876      -15.990841
  BL         225.528337     -199.684985      -14.133102
  BL         225.930565     -200.307094      -12.275364
  BL         226.332794     -200.929203      -10.417625
  BL         226.735023     -201.551312       -8.559887
  BL         227.137252     -202.173421       -6.702148
  BL         227.539481     -202.795530       -4.844410
  BL         227.941710     -203.417639       -2.986671
  BL         228.343938     -204.039748       -1.128933
  BL         228.746167     -204.661858        0.728806
  BL         229.148396     -205.283967        2.586544
  BL         229.550625     -205.906076        4.444283
  BL         229.952854     -206.528185        6.302021
  BL         230.355083     -207.150294        8.159760
  BL         230.757311     -207.772403       10.017498
  BL         231.159540     -208.394512       11.875237
  BL         231.561769     -209.016621       13.732975
  BL         231.963998     -209.638730       15.590714
  BL         232.366227     -210.260839       17.448452
  BL         232.768456     -210.882948       19.306191
  BL         233.170684     -211.505057       21.163929
  BL         233.572913     -212.127166       23.021667
  BL         233.975142     -212.749275       24.879406
  BL         234.377371     -213.371385       26.737144
  BL         234.779600     -213.993494       28.594883
  BL         235.181829     -214.615603       30.452621
  B          -21.331461      333.582392      340.795250
  B          -21.771549      331.636781      340.939877
  B          -22.211638      329.691169      341.084504
  B          -22.651727      327.745557      341.229131
  B          -23.091816      325.799946      341.373758
  B          -23.531904      323.854334      341.518386
  B          -23.971993      321.908722      341.663013
  B          -24.412082      319.963110      341.807640
  B          -24.852171      318.017499      341.952267
  B          -25.292260      316.071887      342.096894
  B          -25.732348      314.126275      342.241521
  B          -26.172437      312.180664      342.386148
  B          -26.612526      310.235052      342.530775
  B          -27.052615      308.289440      342.675403
  B          -27.492703      306.343829      342.820030
  B          -27.932792      304.398217      342.964657
  B          -28.372881      302.452605      343.109284
  B          -28.812970      300.506993      343.253911
  B          -29.253058      298.561382      343.398538
  B          -29.693147      296.615770      343.543165
  BL         -30.133236      294.670158      343.687792
  BL         -30.573325      292.724547      343.832420
  BL         -31.013413      290.778935      343.977047
  BL         -31.453502      288.833323      344.121674
  BL         -31.893591      286.887712      344.266301
  BL         -32.333680      284.942100      344.410928
  BL         -32.773769      282.996488      344.555555
  BL         -33.213857      281.050876      344.700182
  BL         -33.653946      279.105265      344.844809
  BL         -34.094035      277.159653      344.989437
  BL         -34.534124      275.214041      345.134064
  BL         -34.974212      273.268430      345.278691
  BL         -35.414301      271.322818      345.423318
  BL         -35.854390      269.377206      345.567945
  BL         -36.294479      267.431595      345.712572
  BL         -36.734567      265.485983      345.857199
  BL         -37.174656      263.540371      346.001826
  BL         -37.614745      261.594760      346.146454
  BL         -38.054834      259.649148      346.291081
  BL         -38.494922      257.703536      346.435708
  BL         -38.935011      255.757924      346.580335
  BL         -39.375100      253.812313      346.724962
  BL         -39.815189      251.866701      346.869589
  BL         -40.255278      249.921089      347.014216
  BL         -40.695366      247.975478      347.158843
  BL         -41.135455      246.029866      347.303471
  BL         -41.575544      244.084254      347.448098
  BL         -42.015633      242.138643      347.592725
  BL         -42.455721      240.193031      347.737352
  BL         -42.895810      238.247419      347.881979
  BL         -43.335899      236.301807      348.026606
  BL         -43.775988      234.356196      348.171233
  BL         -44.216076      232.410584      348.315860
  BL         -44.656165      230.464972      348.460488
  BL         -45.096254      228.519361      348.605115
  BL         -45.536343      226.573749      348.749742
  BL         -45.976431      224.628137      348.894369
  BL         -46.416520      222.682526      349.038996
  BL         -46.856609      220.736914      349.183623
  BL         -47.296698      218.791302      349.328250
  BL         -47.736787      216.845691      349.472877
  BL         -48.176875      214.900079      349.617505
  BL         -48.616964      212.954467      349.762132
  BL         -49.057053      211.008855      349.906759
  BL         -49.497142      209.063244      350.051386
  BL         -49.937230      207.117632      350.196013
  BL         -50.377319      205.172020      350.340640
  BL         -50.817408      203.226409      350.485267
  BL         -51.257497      201.280797      350.629894
  BL         -51.697585      199.335185      350.774522
  B          118.362868      -67.231202      326.483437
  B          117.890889      -68.648782      325.153886
  B          117.418910      -70.066361      323.824336
  B          116.946931      -71.483941      322.494785
  B          116.474952      -72.901520      321.165235
  B          116.002974      -74.319100      319.835684
  B          115.530995      -75.736679      318.506134
  B          115.059016      -77.154259      317.176583
  B          114.587037      -78.571838      315.847033
  B          114.115058      -79.989418      314.517482
  B          113.643080      -81.406997      313.187932
  B          113.171101      -82.824577      311.858382
  B          112.699122      -84.242156      310.528831
  B          112.227143      -85.659736      309.199281
  B          111.755164      -87.077315      307.869730
  B          111.283185      -88.494894      306.540180
  B          110.811207      -89.912474      305.210629
  B          110.339228      -91.330053      303.881079
  B          109.867249      -92.747633      302.551528
  B          109.395270      -94.165212      301.221978
  BL         108.923291      -95.582792      299.892427
  BL         108.451313      -97.000371      298.562877
  BL         107.979334      -98.417951      297.233326
  BL         107.507355      -99.835530      295.903776
  BL         107.035376     -101.253110      294.574225
  BL         106.563397     -102.670689      293.244675
  BL         106.091419     -104.088269      291.915124
  BL         105.619440     -105.505848      290.585574
  BL         105.147461     -106.923427      289.256023
  BL         104.675482     -108.341007      287.926473
  BL         104.203503     -109.758586      286.596922
  BL         103.731524     -111.176166      285.267372
  BL         103.259546     -112.593745      283.937822
  BL         102.787567     -114.011325      282.608271
  BL         102.315588     -115.428904      281.278721
  BL         101.843609     -116.846484      279.949170
  BL         101.371630     -118.264063      278.619620
  BL         100.899652     -119.681643      277.290069
  BL         100.427673     -121.099222      275.960519
  BL          99.955694     -122.516802      274.630968
  BL          99.483715     -123.934381      273.301418
  BL          99.011736     -125.351961      271.971867
  BL          98.539758     -126.769540      270.642317
  BL          98.067779     -128.187119      269.312766
  BL          97.595800     -129.604699      267.983216
  BL          97.123821     -131.022278      266.653665
  BL          96.651842     -132.439858      265.324115
  BL          96.179863     -133.857437      263.994564
  BL          95.707885     -135.275017      262.665014
  BL          95.235906     -136.692596      261.335463
  BL          94.763927     -138.110176      260.005913
  BL          94.291948     -139.527755      258.676363
  BL          93.819969     -140.945335      257.346812
  BL          93.347991     -142.362914      256.017262
  BL          92.876012     -143.780494      254.687711
  BL          92.404033     -145.198073      253.358161
  BL          91.932054     -146.615652      252.028610
  BL          91.460075     -148.033232      250.699060
  BL          90.988097     -149.450811      249.369509
  BL          90.516118     -150.868391      248.039959
  BL          90.044139     -152.285970      246.710408
  BL          89.572160     -153.703550      245.380858
  BL          89.100181     -155.121129      244.051307
  BL          88.628203     -156.538709      242.721757
  BL          88.156224     -157.956288      241.392206
  BL          87.684245     -159.373868      240.062656
  BL          87.212266     -160.791447      238.733105
  BL          86.740287     -162.209027      237.403555
  BL          86.268308     -163.626606      236.074004
  BL          85.796330     -165.044186      234.744454
  B          -69.497749      103.850713      205.675035
  B          -67.526147      103.682278      205.384493
  B          -65.554545      103.513844      205.093950
  B          -63.582942      103.345410      204.803408
  B          -61.611340      103.176976      204.512865
  B          -59.639738      103.008541      204.222323
  B          -57.668136      102.840107      203.931780
  B          -55.696534      102.671673      203.641238
  B          -53.724932      102.503239      203.350695
  B          -51.753330      102.334804      203.060153
  B          -49.781727      102.166370      202.769610
  B          -47.810125      101.997936      202.479068
  B          -45.838523      101.829501      202.188525
  B          -43.866921      101.661067      201.897983
  B          -41.895319      101.492633      201.607440
  B          -39.923717      101.324199      201.316898
  B          -37.952115      101.155764      201.026355
  B          -35.980513      100.987330      200.735813
  B          -34.008910      100.818896      200.445270
  B          -32.037308      100.650462      200.154728
  BL         -30.065706      100.482027      199.864185
  BL         -28.094104      100.313593      199.573643
  BL         -26.122502      100.145159      199.283100
  BL         -24.150900       99.976724      198.992558
  BL         -22.179298       99.808290      198.702015
  BL         -20.207696       99.639856      198.411473
  BL         -18.236093       99.471422      198.120930
  BL         -16.264491       99.302987      197.830388
  BL         -14.292889       99.134553      197.539845
  BL         -12.321287       98.966119      197.249303
  BL         -10.349685       98.797685      196.958760
  BL          -8.378083       98.629250      196.668218
  BL          -6.406481       98.460816      196.377675
  BL          -4.434879       98.292382      196.087133
  BL          -2.463276       98.123947      195.796590
  BL          -0.491674       97.955513      195.506048
  BL           1.479928       97.787079      195.215505
  BL           3.451530       97.618645      194.924963
  BL           5.423132       97.450210      194.634420
  BL           7.394734       97.281776      194.343878
  BL           9.366336       97.113342      194.053335
  BL          11.337939       96.944908      193.762793
  BL          13.309541       96.776473      193.472250
  BL          15.281143       96.608039      193.181708
  BL          17.252745       96.439605      192.891165
  BL          19.224347       96.271170      192.600623
  BL          21.195949       96.102736      192.310080
  BL          23.167551       95.934302      192.019538
  BL          25.139153       95.765868      191.728995
  BL          27.110756       95.597433      191.438453
  BL          29.082358       95.428999      191.147910
  BL          31.053960       95.260565      190.857368
  BL          33.025562       95.092131      190.566825
  BL          34.997164       94.923696      190.276283
  BL          36.968766       94.755262      189.985740
  BL          38.940368       94.586828      189.695198
  BL          40.911970       94.418393      189.404655
  BL          42.883573       94.249959      189.114113
  BL          44.855175       94.081525      188.823570
  BL          46.826777       93.913091      188.533028
  BL          48.798379       93.744656      188.242485
  BL          50.769981       93.576222      187.951943
  BL          52.741583       93.407788      187.661400
  BL          54.713185       93.239354      187.370858
  BL          56.684787       93.070919      187.080315
  BL          58.656390       92.902485      186.789773
  BL          60.627992       92.734051      186.499230
  BL          62.599594       92.565617      186.208688
  BL          64.571196       92.397182      185.918145
  BL          66.542798       92.228748      185.627603
  B          -93.020654      155.712557      237.977846
  B          -93.951366      157.107576      239.067663
  B          -94.882077      158.502594      240.157479
  B          -95.812788      159.897613      241.247296
  B          -96.743499      161.292631      242.337113
  B          -97.674210      162.687650      243.426929
  B          -98.604921      164.082668      244.516746
  B          -99.535632      165.477687      245.606563
  B         -100.466343      166.872705      246.696380
  B         -101.397054      168.267724      247.786196
  B         -102.327765      169.662742      248.876013
  B         -103.258476      171.057760      249.965830
  B         -104.189187      172.452779      251.055646
  B         -105.119898      173.847797      252.145463
  B         -106.050609      175.242816      253.235280
  B         -106.981320      176.637834      254.325096
  B         -107.912031      178.032853      255.414913
  B         -108.842742      179.427871      256.504730
  B         -109.773453      180.822890      257.594546
  B         -110.704164      182.217908      258.684363
  BL        -111.634875      183.612927      259.774180
  BL        -112.565586      185.007945      260.863996
  BL        -113.496297      186.402964      261.953813
  BL        -114.427008      187.797982      263.043630
  BL        -115.357719      189.193001      264.133447
  BL        -116.288430      190.588019      265.223263
  BL        -117.219141      191.983038      266.313080
  BL        -118.149852      193.378056      267.402897
  BL        -119.080563      194.773075      268.492713
  BL        -120.011274      196.168093      269.582530
  BL        -120.941985      197.563112      270.672347
  BL        -121.872696      198.958130      271.762163
  BL        -122.803407      200.353149      272.851980
  BL        -123.734118      201.748167      273.941797
  BL        -124.664829      203.143186      275.031613
  BL        -125.595540      204.538204      276.121430
  BL        -126.526251      205.933223      277.211247
  BL        -127.456962      207.328241      278.301063
  BL        -128.387673      208.723260      279.390880
  BL        -129.318384      210.118278      280.480697
  BL        -130.249095      211.513297      281.570514
  BL        -131.179807      212.908315      282.660330
  BL        -132.110518      214.303334      283.750147
  BL        -133.041229      215.698352      284.839964
  BL        -133.971940      217.093371      285.929780
  BL        -134.902651      218.488389      287.019597
  BL        -135.833362      219.883407      288.109414
  BL        -136.764073      221.278426      289.199230
  BL        -137.694784      222.673444      290.289047
  BL        -138.625495      224.068463      291.378864
  BL        -139.556206      225.463481      292.468680
  BL        -140.486917      226.858500      293.558497
  BL        -141.417628      228.253518      294.648314
  BL        -142.348339      229.648537      295.738131
  BL        -143.279050      231.043555      296.827947
  BL        -144.209761      232.438574      297.917764
  BL        -145.140472      233.833592      299.007581
  BL        -146.071183      235.228611      300.097397
  BL        -147.001894      236.623629      301.187214
  BL        -147.932605      238.018648      302.277031
  BL        -148.863316      239.413666      303.366847
  BL        -149.794027      240.808685      304.456664
  BL        -150.724738      242.203703      305.546481
  BL        -151.655449      243.598722      306.636297
  BL        -152.586160      244.993740      307.726114
  BL        -153.516871      246.388759      308.815931
  BL        -154.447582      247.783777      309.905747
  BL        -155.378293      249.178796      310.995564
  BL        -156.309004      250.573814      312.085381
  BL        -157.239715      251.968833      313.175198
  B         -328.251636     -226.478684       -9.437924
  B         -327.730327     -226.075525      -11.326230
  B         -327.209018     -225.672366      -13.214536
  B         -326.687708     -225.269207      -15.102842
  B         -326.166399     -224.866048      -16.991148
  B         -325.645090     -224.462889      -18.879454
  B         -325.123781     -224.059730      -20.767760
  B         -324.602471     -223.656571      -22.656066
  B         -324.081162     -223.253412      -24.544372
  B         -323.559853     -222.850253      -26.432678
  B         -323.038544     -222.447094      -28.320984
  B         -322.517235     -222.043934      -30.209290
  B         -321.995925     -221.640775      -32.097596
  B         -321.474616     -221.237616      -33.985902
  B         -320.953307     -220.834457      -35.874208
  B         -320.431998     -220.431298      -37.762514
  B         -319.910688     -220.028139      -39.650820
  B         -319.389379     -219.624980      -41.539126
  B         -318.868070     -219.221821      -43.427431
  B         -318.346761     -218.818662      -45.315737
  BL        -317.825452     -218.415503      -47.204043
  BL        -317.304142     -218.012343      -49.092349
  BL        -316.782833     -217.609184      -50.980655
  BL        -316.261524     -217.206025      -52.868961
  BL        -315.740215     -216.802866      -54.757267
  BL        -315.218905     -216.399707      -56.645573
  BL        -314.697596     -215.996548      -58.533879
  BL        -314.176287     -215.593389      -60.422185
  BL        -313.654978     -215.190230      -62.310491
  BL        -313.133669     -214.787071      -64.198797
  BL        -312.612359     -214.383912      -66.087103
  BL        -312.091050     -213.980753      -67.975409
  BL        -311.569741     -213.577593      -69.863715
  BL        -311.048432     -213.174434      -71.752021
  BL        -310.527122     -212.771275      -73.640327
  BL        -310.005813     -212.368116      -75.528633
  BL        -309.484504     -211.964957      -77.416939
  BL        -308.963195     -211.561798      -79.305245
  BL        -308.441886     -211.158639      -81.193551
  BL        -307.920576     -210.755480      -83.081857
  BL        -307.399267     -210.352321      -84.970163
  BL        -306.877958     -209.949162      -86.858469
  BL        -306.356649     -209.546003      -88.746775
  BL        -305.835339     -209.142843      -90.635081
  BL        -305.314030     -208.739684      -92.523387
  BL        -304.792721     -208.336525      -94.411693
  BL        -304.271412     -207.933366      -96.299999
  BL        -303.750103     -207.530207      -98.188305
  BL        -303.228793     -207.127048     -100.076611
  BL        -302.707484     -206.723889     -101.964917
  BL        -302.186175     -206.320730     -103.853223
  BL        -301.664866     -205.917571     -105.741529
  BL        -301.143556     -205.514412     -107.629835
  BL        -300.622247     -205.111253     -109.518141
  BL        -300.100938     -204.708093     -111.406446
  BL        -299.579629     -204.304934     -113.294752
  BL        -299.058320     -203.901775     -115.183058
  BL        -298.537010     -203.498616     -117.071364
  BL        -298.015701     -203.095457     -118.959670
  BL        -297.494392     -202.692298     -120.847976
  BL        -296.973083     -202.289139     -122.736282
  BL        -296.451773     -201.885980     -124.624588
  BL        -295.930464     -201.482821     -126.512894
  BL        -295.409155     -201.079662     -128.401200
  BL        -294.887846     -200.676503     -130.289506
  BL        -294.366537     -200.273343     -132.177812
  BL        -293.845227     -199.870184     -134.066118
  BL        -293.323918     -199.467025     -135.954424
  BL        -292.802609     -199.063866     -137.842730
  BL        -292.281300     -198.660707     -139.731036
  B           -9.984397      233.162753     -191.213626
  B          -11.372649      234.567343     -191.529672
  B          -12.760901      235.971932     -191.845717
  B          -14.149153      237.376522     -192.161763
  B          -15.537405      238.781111     -192.477808
  B          -16.925657      240.185701     -192.793854
  B          -18.313909      241.590290     -193.109900
  B          -19.702161      242.994880     -193.425945
  B          -21.090413      244.399469     -193.741991
  B          -22.478665      245.804059     -194.058036
  B          -23.866917      247.208649     -194.374082
  B          -25.255169      248.613238     -194.690128
  B          -26.643420      250.017828     -195.006173
  B          -28.031672      251.422417     -195.322219
  B          -29.419924      252.827007     -195.638265
  B          -30.808176      254.231596     -195.954310
  B          -32.196428      255.636186     -196.270356
  B          -33.584680      257.040775     -196.586401
  B          -34.972932      258.445365     -196.902447
  B          -36.361184      259.849954     -197.218493
  BL         -37.749436      261.254544     -197.534538
  BL         -39.137688      262.659133     -197.850584
  BL         -40.525940      264.063723     -198.166629
  BL         -41.914192      265.468312     -198.482675
  BL         -43.302444      266.872902     -198.798721
  BL         -44.690696      268.277491     -199.114766
  BL         -46.078948      269.682081     -199.430812
  BL         -47.467200      271.086670     -199.746858
  BL         -48.855451      272.491260     -200.062903
  BL         -50.243703      273.895849     -200.378949
  BL         -51.631955      275.300439     -200.694994
  BL         -53.020207      276.705028     -201.011040
  BL         -54.408459      278.109618     -201.327086
  BL         -55.796711      279.514208     -201.643131
  BL         -57.184963      280.918797     -201.959177
  BL         -58.573215      282.323387     -202.275223
  BL         -59.961467      283.727976     -202.591268
  BL         -61.349719      285.132566     -202.907314
  BL         -62.737971      286.537155     -203.223359
  BL         -64.126223      287.941745     -203.539405
  BL         -65.514475      289.346334     -203.855451
  BL         -66.902727      290.750924     -204.171496
  BL         -68.290979      292.155513     -204.487542
  BL         -69.679231      293.560103     -204.803587
  BL         -71.067482      294.964692     -205.119633
  BL         -72.455734      296.369282     -205.435679
  BL         -73.843986      297.773871     -205.751724
  BL         -75.232238      299.178461     -206.067770
  BL         -76.620490      300.583050     -206.383816
  BL         -78.008742      301.987640     -206.699861
  BL         -79.396994      303.392229     -207.015907
  BL         -80.785246      304.796819     -207.331952
  BL         -82.173498      306.201408     -207.647998
  BL         -83.561750      307.605998     -207.964044
  BL         -84.950002      309.010587     -208.280089
  BL         -86.338254      310.415177     -208.596135
  BL         -87.726506      311.819767     -208.912180
  BL         -89.114758      313.224356     -209.228226
  BL         -90.503010      314.628946     -209.544272
  BL         -91.891262      316.033535     -209.860317
  BL         -93.279513      317.438125     -210.176363
  BL         -94.667765      318.842714     -210.492409
  BL         -96.056017      320.247304     -210.808454
  BL         -97.444269      321.651893     -211.124500
  BL         -98.832521      323.056483     -211.440545
  BL        -100.220773      324.461072     -211.756591
  BL        -101.609025      325.865662     -212.072637
  BL        -102.997277      327.270251     -212.388682
  BL        -104.385529      328.674841     -212.704728
  BL        -105.773781      330.079430     -213.020774
  B          -10.955848        7.479988      374.496854
  B          -12.528659        8.422865      373.698574
  B          -14.101470        9.365741      372.900295
  B          -15.674281       10.308617      372.102016
  B          -17.247092       11.251493      371.303736
  B          -18.819903       12.194369      370.505457
  B          -20.392714       13.137246      369.707178
  B          -21.965525       14.080122      368.908898
  B          -23.538336       15.022998      368.110619
  B          -25.111147       15.965874      367.312340
  B          -26.683958       16.908750      366.514060
  B          -28.256769       17.851627      365.715781
  B          -29.829580       18.794503      364.917502
  B          -31.402391       19.737379      364.119222
  B          -32.975202       20.680255      363.320943
  B          -34.548014       21.623131      362.522664
  B          -36.120825       22.566008      361.724384
  B          -37.693636       23.508884      360.926105
  B          -39.266447       24.451760      360.127825
  B          -40.839258       25.394636      359.329546
  BL         -42.412069       26.337512      358.531267
  BL         -43.984880       27.280389      357.732987
  BL         -45.557691       28.223265      356.934708
  BL         -47.130502       29.166141      356.136429
  BL         -48.703313       30.109017      355.338149
  BL         -50.276124       31.051893      354.539870
  BL         -51.848935       31.994770      353.741591
  BL         -53.421746       32.937646      352.943311
  BL         -54.994557       33.880522      352.145032
  BL         -56.567368       34.823398      351.346753
  BL         -58.140179       35.766274      350.548473
  BL         -59.712990       36.709151      349.750194
  BL         -61.285801       37.652027      348.951915
  BL         -62.858612       38.594903      348.153635
  BL         -64.431423       39.537779      347.355356
  BL         -66.004234       40.480655      346.557077
  BL         -67.577045       41.423532      345.758797
  BL         -69.149856       42.366408      344.960518
  BL         -70.722667       43.309284      344.162239
  BL         -72.295478       44.252160      343.363959
  BL         -73.868289       45.195036      342.565680
  BL         -75.441100       46.137913      341.767400
  BL         -77.013911       47.080789      340.969121
  BL         -78.586722       48.023665      340.170842
  BL         -80.159534       48.966541      339.372562
  BL         -81.732345       49.909417      338.574283
  BL         -83.305156       50.852294      337.776004
  BL         -84.877967       51.795170      336.977724
  BL         -86.450778       52.738046      336.179445
  BL         -88.023589       53.680922      335.381166
  BL         -89.596400       54.623798      334.582886
  BL         -91.169211       55.566675      333.784607
  BL         -92.742022       56.509551      332.986328
  BL         -94.314833       57.452427      332.188048
  BL         -95.887644       58.395303      331.389769
  BL         -97.460455       59.338179      330.591490
  BL         -99.033266       60.281056      329.793210
  BL        -100.606077       61.223932      328.994931
  BL        -102.178888       62.166808      328.196652
  BL        -103.751699       63.109684      327.398372
  BL        -105.324510       64.052560      326.600093
  BL        -106.897321       64.995437      325.801813
  BL        -108.470132       65.938313      325.003534
  BL        -110.042943       66.881189      324.205255
  BL        -111.615754       67.824065      323.406975
  BL        -113.188565       68.766941      322.608696
  BL        -114.761376       69.709818      321.810417
  BL        -116.334187       70.652694      321.012137
  BL        -117.906998       71.595570      320.213858
  BL        -119.479809       72.538446      319.415579
  B          341.465293      206.762481     -194.113499
  B          340.957899      205.477060     -192.667732
  B          340.450504      204.191638     -191.221965
  B          339.943109      202.906217     -189.776198
  B          339.435715      201.620795     -188.330431
  B          338.928320      200.335374     -186.884664
  B          338.420925      199.049953     -185.438897
  B          337.913530      197.764531     -183.993130
  B          337.406136      196.479110     -182.547363
  B          336.898741      195.193688     -181.101596
  B          336.391346      193.908267     -179.655829
  B          335.883952      192.622845     -178.210062
  B          335.376557      191.337424     -176.764294
  B          334.869162      190.052003     -175.318527
  B          334.361767      188.766581     -173.872760
  B          333.854373      187.481160     -172.426993
  B          333.346978      186.195738     -170.981226
  B          332.839583      184.910317     -169.535459
  B          332.332189      183.624895     -168.089692
  B          331.824794      182.339474     -166.643925
  BL         331.317399      181.054053     -165.198158
  BL         330.810004      179.768631     -163.752391
  BL         330.302610      178.483210     -162.306624
  BL         329.795215      177.197788     -160.860857
  BL         329.287820      175.912367     -159.415090
  BL         328.780426      174.626945     -157.969323
  BL         328.273031      173.341524     -156.523556
  BL         327.765636      172.056103     -155.077789
  BL         327.258241      170.770681     -153.632022
  BL         326.750847      169.485260     -152.186255
  BL         326.243452      168.199838     -150.740488
  BL         325.736057      166.914417     -149.294721
  BL         325.228663      165.628995     -147.848954
  BL         324.721268      164.343574     -146.403186
  BL         324.213873      163.058153     -144.957419
  BL         323.706478      161.772731     -143.511652
  BL         323.199084      160.487310     -142.065885
  BL         322.691689      159.201888     -140.620118
  BL         322.184294      157.916467     -139.174351
  BL         321.676900      156.631045     -137.728584
  BL         321.169505      155.345624     -136.282817
  BL         320.662110      154.060203     -134.837050
  BL         320.154716      152.774781     -133.391283
  BL         319.647321      151.489360     -131.945516
  BL         319.139926      150.203938     -130.499749
  BL         318.632531      148.918517     -129.053982
  BL         318.125137      147.633095     -127.608215
  BL         317.617742      146.347674     -126.162448
  BL         317.110347      145.062253     -124.716681
  BL         316.602953      143.776831     -123.270914
  BL         316.095558      142.491410     -121.825147
  BL         315.588163      141.205988     -120.379380
  BL         315.080768      139.920567     -118.933613
  BL         314.573374      138.635145     -117.487846
  BL         314.065979      137.349724     -116.042078
  BL         313.558584      136.064303     -114.596311
  BL         313.051190      134.778881     -113.150544
  BL         312.543795      133.493460     -111.704777
  BL         312.036400      132.208038     -110.259010
  BL         311.529005      130.922617     -108.813243
  BL         311.021611      129.637195     -107.367476
  BL         310.514216      128.351774     -105.921709
  BL         310.006821      127.066353     -104.475942
  BL         309.499427      125.780931     -103.030175
  BL         308.992032      124.495510     -101.584408
  BL         308.484637      123.210088     -100.138641
  BL         307.977242      121.924667      -98.692874
  BL         307.469848      120.639245      -97.247107
  BL         306.962453      119.353824      -95.801340
  BL         306.455058      118.068403      -94.355573
  B          249.866108      131.089007     -299.120317
  B          250.298603      129.212008     -299.658671
  B          250.731097      127.335010     -300.197025
  B          251.163592      125.458011     -300.735379
  B          251.596086      123.581013     -301.273733
  B          252.028581      121.704014     -301.812087
  B          252.461075      119.827015     -302.350441
  B          252.893569      117.950017     -302.888794
  B          253.326064      116.073018     -303.427148
  B          253.758558      114.196020     -303.965502
  B          254.191053      112.319021     -304.503856
  B          254.623547      110.442022     -305.042210
  B          255.056042      108.565024     -305.580564
  B          255.488536      106.688025     -306.118918
  B          255.921031      104.811027     -306.657271
  B          256.353525      102.934028     -307.195625
  B          256.786019      101.057029     -307.733979
  B          257.218514       99.180031     -308.272333
  B          257.651008       97.303032     -308.810687
  B          258.083503       95.426034     -309.349041
  BL         258.515997       93.549035     -309.887395
  BL         258.948492       91.672037     -310.425748
  BL         259.380986       89.795038     -310.964102
  BL         259.813480       87.918039     -311.502456
  BL         260.245975       86.041041     -312.040810
  BL         260.678469       84.164042     -312.579164
  BL         261.110964       82.287044     -313.117518
  BL         261.543458       80.410045     -313.655872
  BL         261.975953       78.533046     -314.194226
  BL         262.408447       76.656048     -314.732579
  BL         262.840941       74.779049     -315.270933
  BL         263.273436       72.902051     -315.809287
  BL         263.705930       71.025052     -316.347641
  BL         264.138425       69.148054     -316.885995
  BL         264.570919       67.271055     -317.424349
  BL         265.003414       65.394056     -317.962703
  BL         265.435908       63.517058     -318.501056
  BL         265.868402       61.640059     -319.039410
  BL         266.300897       59.763061     -319.577764
  BL         266.733391       57.886062     -320.116118
  BL         267.165886       56.009063     -320.654472
  BL         267.598380       54.132065     -321.192826
  BL         268.030875       52.255066     -321.731180
  BL         268.463369       50.378068     -322.269533
  BL         268.895863       48.501069     -322.807887
  BL         269.328358       46.624070     -323.346241
  BL         269.760852       44.747072     -323.884595
  BL         270.193347       42.870073     -324.422949
  BL         270.625841       40.993075     -324.961303
  BL         271.058336       39.116076     -325.499657
  BL         271.490830       37.239078     -326.038010
  BL         271.923324       35.362079     -326.576364
  BL         272.355819       33.485080     -327.114718
  BL         272.788313       31.608082     -327.653072
  BL         273.220808       29.731083     -328.191426
  BL         273.653302       27.854085     -328.729780
  BL         274.085797       25.977086     -329.268134
  BL         274.518291       24.100087     -329.806487
  BL         274.950785       22.223089     -330.344841
  BL         275.383280       20.346090     -330.883195
  BL         275.815774       18.469092     -331.421549
  BL         276.248269       16.592093     -331.959903
  BL         276.680763       14.715095     -332.498257
  BL         277.113258       12.838096     -333.036611
  BL         277.545752       10.961097     -333.574964
  BL         277.978246        9.084099     -334.113318
  BL         278.410741        7.207100     -334.651672
  BL         278.843235        5.330102     -335.190026
  BL         279.275730        3.453103     -335.728380
  BL         279.708224        1.576104     -336.266734
  B         -147.833369     -118.887792     -100.922589
  B         -149.339880     -118.867939     -102.237896
  B         -150.846390     -118.848086     -103.553203
  B         -152.352900     -118.828233     -104.868510
  B         -153.859410     -118.808381     -106.183817
  B         -155.365921     -118.788528     -107.499124
  B         -156.872431     -118.768675     -108.814431
  B         -158.378941     -118.748822     -110.129739
  B         -159.885451     -118.728969     -111.445046
  B         -161.391961     -118.709116     -112.760353
  B         -162.898472     -118.689263     -114.075660
  B         -164.404982     -118.669411     -115.390967
  B         -165.911492     -118.649558     -116.706274
  B         -167.418002     -118.629705     -118.021581
  B         -168.924513     -118.609852     -119.336888
  B         -170.431023     -118.589999     -120.652195
  B         -171.937533     -118.570146     -121.967502
  B         -173.444043     -118.550294     -123.282810
  B         -174.950554     -118.530441     -124.598117
  B         -176.457064     -118.510588     -125.913424
  BL        -177.963574     -118.490735     -127.228731
  BL        -179.470084     -118.470882     -128.544038
  BL        -180.976594     -118.451029     -129.859345
  BL        -182.483105     -118.431176     -131.174652
  BL        -183.989615     -118.411324     -132.489959
  BL        -185.496125     -118.391471     -133.805266
  BL        -187.002635     -118.371618     -135.120573
  BL        -188.509146     -118.351765     -136.435881
  BL        -190.015656     -118.331912     -137.751188
  BL        -191.522166     -118.312059     -139.066495
  BL        -193.028676     -118.292207     -140.381802
  BL        -194.535187     -118.272354     -141.697109
  BL        -196.041697     -118.252501     -143.012416
  BL        -197.548207     -118.232648     -144.327723
  BL        -199.054717     -118.212795     -145.643030
  BL        -200.561228     -118.192942     -146.958337
  BL        -202.067738     -118.173090     -148.273645
  BL        -203.574248     -118.153237     -149.588952
  BL        -205.080758     -118.133384     -150.904259
  BL        -206.587268     -118.113531     -152.219566
  BL        -208.093779     -118.093678     -153.534873
  BL        -209.600289     -118.073825     -154.850180
  BL        -211.106799     -118.053972     -156.165487
  BL        -212.613309     -118.034120     -157.480794
  BL        -214.119820     -118.014267     -158.796101
  BL        -215.626330     -117.994414     -160.111408
  BL        -217.132840     -117.974561     -161.426716
  BL        -218.639350     -117.954708     -162.742023
  BL        -220.145861     -117.934855     -164.057330
  BL        -221.652371     -117.915003     -165.372637
  BL        -223.158881     -117.895150     -166.687944
  BL        -224.665391     -117.875297     -168.003251
  BL        -226.171902     -117.855444     -169.318558
  BL        -227.678412     -117.835591     -170.633865
  BL        -229.184922     -117.815738     -171.949172
  BL        -230.691432     -117.795885     -173.264479
  BL        -232.197942     -117.776033     -174.579787
  BL        -233.704453     -117.756180     -175.895094
  BL        -235.210963     -117.736327     -177.210401
  BL        -236.717473     -117.716474     -178.525708
  BL        -238.223983     -117.696621     -179.841015
  BL        -239.730494     -117.676768     -181.156322
  BL        -241.237004     -117.656916     -182.471629
  BL        -242.743514     -117.637063     -183.786936
  BL        -244.250024     -117.617210     -185.102243
  BL        -245.756535     -117.597357     -186.417551
  BL        -247.263045     -117.577504     -187.732858
  BL        -248.769555     -117.557651     -189.048165
  BL        -250.276065     -117.537798     -190.363472
  BL        -251.782576     -117.517946     -191.678779
  B         -399.775935      195.099470      165.455406
  B         -397.898652      194.978891      164.776238
  B         -396.021369      194.858311      164.097069
  B         -394.144087      194.737732      163.417900
  B         -392.266804      194.617153      162.738731
  B         -390.389521      194.496573      162.059563
  B         -388.512238      194.375994      161.380394
  B         -386.634956      194.255415      160.701225
  B         -384.757673      194.134835      160.022056
  B         -382.880390      194.014256      159.342887
  B         -381.003108      193.893677      158.663719
  B         -379.125825      193.773097      157.984550
  B         -377.248542      193.652518      157.305381
  B         -375.371259      193.531938      156.626212
  B         -373.493977      193.411359      155.947043
  B         -371.616694      193.290780      155.267875
  B         -369.739411      193.170200      154.588706
  B         -367.862129      193.049621      153.909537
  B         -365.984846      192.929042      153.230368
  B         -364.107563      192.808462      152.551199
  BL        -362.230280      192.687883      151.872031
  BL        -360.352998      192.567303      151.192862
  BL        -358.475715      192.446724      150.513693
  BL        -356.598432      192.326145      149.834524
  BL        -354.721150      192.205565      149.155356
  BL        -352.843867      192.084986      148.476187
  BL        -350.966584      191.964407      147.797018
  BL        -349.089302      191.843827      147.117849
  BL        -347.212019      191.723248      146.438680
  BL        -345.334736      191.602669      145.759512
  BL        -343.457453      191.482089      145.080343
  BL        -341.580171      191.361510      144.401174
  BL        -339.702888      191.240930      143.722005
  BL        -337.825605      191.120351      143.042836
  BL        -335.948323      190.999772      142.363668
  BL        -334.071040      190.879192      141.684499
  BL        -332.193757      190.758613      141.005330
  BL        -330.316474      190.638034      140.326161
  BL        -328.439192      190.517454      139.646992
  BL        -326.561909      190.396875      138.967824
  BL        -324.684626      190.276296      138.288655
  BL        -322.807344      190.155716      137.609486
  BL        -320.930061      190.035137      136.930317
  BL        -319.052778      189.914557      136.251149
  BL        -317.175495      189.793978      135.571980
  BL        -315.298213      189.673399      134.892811
  BL        -313.420930      189.552819      134.213642
  BL        -311.543647      189.432240      133.534473
  BL        -309.666365      189.311661      132.855305
  BL        -307.789082      189.191081      132.176136
  BL        -305.911799      189.070502      131.496967
  BL        -304.034516      188.949922      130.817798
  BL        -302.157234      188.829343      130.138629
  BL        -300.279951      188.708764      129.459461
  BL        -298.402668      188.588184      128.780292
  BL        -296.525386      188.467605      128.101123
  BL        -294.648103      188.347026      127.421954
  BL        -292.770820      188.226446      126.742785
  BL        -290.893538      188.105867      126.063617
  BL        -289.016255      187.985288      125.384448
  BL        -287.138972      187.864708      124.705279
  BL        -285.261689      187.744129      124.026110
  BL        -283.384407      187.623549      123.346942
  BL        -281.507124      187.502970      122.667773
  BL        -279.629841      187.382391      121.988604
  BL        -277.752559      187.261811      121.309435
  BL        -275.875276      187.141232      120.630266
  BL        -273.997993      187.020653      119.951098
  BL        -272.120710      186.900073      119.271929
  BL        -270.243428      186.779494      118.592760
  B         -307.001974      -83.915954      391.609076
  B         -307.630881      -82.628008      390.214204
  B         -308.259789      -81.340061      388.819331
  B         -308.888697      -80.052114      387.424459
  B         -309.517604      -78.764167      386.029587
  B         -310.146512      -77.476221      384.634715
  B         -310.775419      -76.188274      383.239843
  B         -311.404327      -74.900327      381.844970
  B         -312.033235      -73.612380      380.450098
  B         -312.662142      -72.324434      379.055226
  B         -313.291050      -71.036487      377.660354
  B         -313.919957      -69.748540      376.265482
  B         -314.548865      -68.460593      374.870610
  B         -315.177773      -67.172647      373.475737
  B         -315.806680      -65.884700      372.080865
  B         -316.435588      -64.596753      370.685993
  B         -317.064495      -63.308806      369.291121
  B         -317.693403      -62.020859      367.896249
  B         -318.322311      -60.732913      366.501377
  B         -318.951218      -59.444966      365.106504
  BL        -319.580126      -58.157019      363.711632
  BL        -320.209033      -56.869072      362.316760
  BL        -320.837941      -55.581126      360.921888
  BL        -321.466849      -54.293179      359.527016
  BL        -322.095756      -53.005232      358.132143
  BL        -322.724664      -51.717285      356.737271
  BL        -323.353571      -50.429339      355.342399
  BL        -323.982479      -49.141392      353.947527
  BL        -324.611387      -47.853445      352.552655
  BL        -325.240294      -46.565498      351.157783
  BL        -325.869202      -45.277552      349.762910
  BL        -326.498109      -43.989605      348.368038
  BL        -327.127017      -42.701658      346.973166
  BL        -327.755925      -41.413711      345.578294
  BL        -328.384832      -40.125765      344.183422
  BL        -329.013740      -38.837818      342.788550
  BL        -329.642647      -37.549871      341.393677
  BL        -330.271555      -36.261924      339.998805
  BL        -330.900462      -34.973978      338.603933
  BL        -331.529370      -33.686031      337.209061
  BL        -332.158278      -32.398084      335.814189
  BL        -332.787185      -31.110137      334.419316
  BL        -333.416093      -29.822191      333.024444
  BL        -334.045000      -28.534244      331.629572
  BL        -334.673908      -27.246297      330.234700
  BL        -335.302816      -25.958350      328.839828
  BL        -335.931723      -24.670404      327.444956
  BL        -336.560631      -23.382457      326.050083
  BL        -337.189538      -22.094510      324.655211
  BL        -337.818446      -20.806563      323.260339
  BL        -338.447354      -19.518617      321.865467
  BL        -339.076261      -18.230670      320.470595
  BL        -339.705169      -16.942723      319.075723
  BL        -340.334076      -15.654776      317.680850
  BL        -340.962984      -14.366829      316.285978
  BL        -341.591892      -13.078883      314.891106
  BL        -342.220799      -11.790936      313.496234
  BL        -342.849707      -10.502989      312.101362
  BL        -343.478614       -9.215042      310.706489
  BL        -344.107522       -7.927096      309.311617
  BL        -344.736430       -6.639149      307.916745
  BL        -345.365337       -5.351202      306.521873
  BL        -345.994245       -4.063255      305.127001
  BL        -346.623152       -2.775309      303.732129
  BL        -347.252060       -1.487362      302.337256
  BL        -347.880968       -0.199415      300.942384
  BL        -348.509875        1.088532      299.547512
  BL        -349.138783        2.376478      298.152640
  BL        -349.767690        3.664425      296.757768
  BL        -350.396598        4.952372      295.362896
  B          216.580709      333.976184      126.070142
  B          214.612747      333.863220      126.408317
  B          212.644784      333.750255      126.746493
  B          210.676822      333.637291      127.084668
  B          208.708859      333.524326      127.422844
  B          206.740897      333.411361      127.761019
  B          204.772934      333.298397      128.099195
  B          202.804972      333.185432      128.437370
  B          200.837009      333.072467      128.775546
  B          198.869047      332.959503      129.113721
  B          196.901084      332.846538      129.451897
  B          194.933122      332.733574      129.790072
  B          192.965159      332.620609      130.128248
  B          190.997197      332.507644      130.466423
  B          189.029234      332.394680      130.804598
  B          187.061272      332.281715      131.142774
  B          185.093309      332.168750      131.480949
  B          183.125347      332.055786      131.819125
  B          181.157384      331.942821      132.157300
  B          179.189422      331.829857      132.495476
  BL         177.221459      331.716892      132.833651
  BL         175.253497      331.603927      133.171827
  BL         173.285534      331.490963      133.510002
  BL         171.317572      331.377998      133.848178
  BL         169.349609      331.265034      134.186353
  BL         167.381647      331.152069      134.524529
  BL         165.413684      331.039104      134.862704
  BL         163.445722      330.926140      135.200880
  BL         161.477759      330.813175      135.539055
  BL         159.509797      330.700210      135.877231
  BL         157.541835      330.587246      136.215406
  BL         155.573872      330.474281      136.553582
  BL         153.605910      330.361317      136.891757
  BL         151.637947      330.248352      137.229933
  BL         149.669985      330.135387      137.568108
  BL         147.702022      330.022423      137.906284
  BL         145.734060      329.909458      138.244459
  BL         143.766097      329.796493      138.582634
  BL         141.798135      329.683529      138.920810
  BL         139.830172      329.570564      139.258985
  BL         137.862210      329.457600      139.597161
  BL         135.894247      329.344635      139.935336
  BL         133.926285      329.231670      140.273512
  BL         131.958322      329.118706      140.611687
  BL         129.990360      329.005741      140.949863
  BL         128.022397      328.892777      141.288038
  BL         126.054435      328.779812      141.626214
  BL         124.086472      328.666847      141.964389
  BL         122.118510      328.553883      142.302565
  BL         120.150547      328.440918      142.640740
  BL         118.182585      328.327953      142.978916
  BL         116.214622      328.214989      143.317091
  BL         114.246660      328.102024      143.655267
  BL         112.278697      327.989060      143.993442
  BL         110.310735      327.876095      144.331618
  BL         108.342772      327.763130      144.669793
  BL         106.374810      327.650166      145.007969
  BL         104.406847      327.537201      145.346144
  BL         102.438885      327.424237      145.684319
  BL         100.470922      327.311272      146.022495
  BL          98.502960      327.198307      146.360670
  BL          96.534997      327.085343      146.698846
  BL          94.567035      326.972378      147.037021
  BL          92.599073      326.859413      147.375197
  BL          90.631110      326.746449      147.713372
  BL          88.663148      326.633484      148.051548
  BL          86.695185      326.520520      148.389723
  BL          84.727223      326.407555      148.727899
  BL          82.759260      326.294590      149.066074
  BL          80.791298      326.181626      149.404250
  B         -274.663622       97.016422      263.759177
  B         -273.651786       98.704888      263.405239
  B         -272.639949      100.393353      263.051301
  B         -271.628112      102.081818      262.697363
  B         -270.616276      103.770283      262.343425
  B         -269.604439      105.458748      261.989487
  B         -268.592602      107.147213      261.635549
  B         -267.580766      108.835678      261.281611
  B         -266.568929      110.524144      260.927673
  B         -265.557092      112.212609      260.573735
  B         -264.545256      113.901074      260.219797
  B         -263.533419      115.589539      259.865859
  B         -262.521583      117.278004      259.511921
  B         -261.509746      118.966469      259.157983
  B         -260.497909      120.654934      258.804045
  B         -259.486073      122.343400      258.450108
  B         -258.474236      124.031865      258.096170
  B         -257.462399      125.720330      257.742232
  B         -256.450563      127.408795      257.388294
  B         -255.438726      129.097260      257.034356
  BL        -254.426889      130.785725      256.680418
  BL        -253.415053      132.474190      256.326480
  BL        -252.403216      134.162655      255.972542
  BL        -251.391379      135.851121      255.618604
  BL        -250.379543      137.539586      255.264666
  BL        -249.367706      139.228051      254.910728
  BL        -248.355869      140.916516      254.556790
  BL        -247.344033      142.604981      254.202852
  BL        -246.332196      144.293446      253.848914
  BL        -245.320359      145.981911      253.494976
  BL        -244.308523      147.670377      253.141039
  BL        -243.296686      149.358842      252.787101
  BL        -242.284849      151.047307      252.433163
  BL        -241.273013      152.735772      252.079225
  BL        -240.261176      154.424237      251.725287
  BL        -239.249339      156.112702      251.371349
  BL        -238.237503      157.801167      251.017411
  BL        -237.225666      159.489633      250.663473
  BL        -236.213829      161.178098      250.309535
  BL        -235.201993      162.866563      249.955597
  BL        -234.190156      164.555028      249.601659
  BL        -233.178319      166.243493      249.247721
  BL        -232.166483      167.931958      248.893783
  BL        -231.154646      169.620423      248.539845
  BL        -230.142809      171.308888      248.185907
  BL        -229.130973      172.997354      247.831970
  BL        -228.119136      174.685819      247.478032
  BL        -227.107299      176.374284      247.124094
  BL        -226.095463      178.062749      246.770156
  BL        -225.083626      179.751214      246.416218
  BL        -224.071789      181.439679      246.062280
  BL        -223.059953      183.128144      245.708342
  BL        -222.048116      184.816610      245.354404
  BL        -221.036280      186.505075      245.000466
  BL        -220.024443      188.193540      244.646528
  BL        -219.012606      189.882005      244.292590
  BL        -218.000770      191.570470      243.938652
  BL        -216.988933      193.258935      243.584714
  BL        -215.977096      194.947400      243.230776
  BL        -214.965260      196.635866      242.876838
  BL        -213.953423      198.324331      242.522901
  BL        -212.941586      200.012796      242.168963
  BL        -211.929750      201.701261      241.815025
  BL        -210.917913      203.389726      241.461087
  BL        -209.906076      205.078191      241.107149
  BL        -208.894240      206.766656      240.753211
  BL        -207.882403      208.455121      240.399273
  BL        -206.870566      210.143587      240.045335
  BL        -205.858730      211.832052      239.691397
  BL        -204.846893      213.520517      239.337459
  B           78.782785       79.586202      -12.357170
  B           79.478231       81.028362      -13.555723
  B           80.173677       82.470522      -14.754276
  B           80.869124       83.912682      -15.952829
  B           81.564570       85.354842      -17.151382
  B           82.260016       86.797001      -18.349936
  B           82.955462       88.239161      -19.548489
  B           83.650909       89.681321      -20.747042
  B           84.346355       91.123481      -21.945595
  B           85.041801       92.565641      -23.144148
  B           85.737247       94.007801      -24.342701
  B           86.432694       95.449960      -25.541254
  B           87.128140       96.892120      -26.739807
  B           87.823586       98.334280      -27.938360
  B           88.519033       99.776440      -29.136913
  B           89.214479      101.218600      -30.335466
  B           89.909925      102.660760      -31.534019
  B           90.605371      104.102919      -32.732573
  B           91.300818      105.545079      -33.931126
  B           91.996264      106.987239      -35.129679
  BL          92.691710      108.429399      -36.328232
  BL          93.387156      109.871559      -37.526785
  BL          94.082603      111.313719      -38.725338
  BL          94.778049      112.755878      -39.923891
  BL          95.473495      114.198038      -41.122444
  BL          96.168942      115.640198      -42.320997
  BL          96.864388      117.082358      -43.519550
  BL          97.559834      118.524518      -44.718103
  BL          98.255280      119.966678      -45.916656
  BL          98.950727      121.408837      -47.115210
  BL          99.646173      122.850997      -48.313763
  BL         100.341619      124.293157      -49.512316
  BL         101.037065      125.735317      -50.710869
  BL         101.732512      127.177477      -51.909422
  BL         102.427958      128.619637      -53.107975
  BL         103.123404      130.061796      -54.306528
  BL         103.818851      131.503956      -55.505081
  BL         104.514297      132.946116      -56.703634
  BL         105.209743      134.388276      -57.902187
  BL         105.905189      135.830436      -59.100740
  BL         106.600636      137.272596      -60.299293
  BL         107.296082      138.714755      -61.497846
  BL         107.991528      140.156915      -62.696400
  BL         108.686975      141.599075      -63.894953
  BL         109.382421      143.041235      -65.093506
  BL         110.077867      144.483395      -66.292059
  BL         110.773313      145.925555      -67.490612
  BL         111.468760      147.367715      -68.689165
  BL         112.164206      148.809874      -69.887718
  BL         112.859652      150.252034      -71.086271
  BL         113.555098      151.694194      -72.284824
  BL         114.250545      153.136354      -73.483377
  BL         114.945991      154.578514      -74.681930
  BL         115.641437      156.020674      -75.880483
  BL         116.336884      157.462833      -77.079037
  BL         117.032330      158.904993      -78.277590
  BL         117.727776      160.347153      -79.476143
  BL         118.423222      161.789313      -80.674696
  BL         119.118669      163.231473      -81.873249
  BL         119.814115      164.673633      -83.071802
  BL         120.509561      166.115792      -84.270355
  BL         121.205007      167.557952      -85.468908
  BL         121.900454      169.000112      -86.667461
  BL         122.595900      170.442272      -87.866014
  BL         123.291346      171.884432      -89.064567
  BL         123.986793      173.326592      -90.263120
  BL         124.682239      174.768751      -91.461673
  BL         125.377685      176.210911      -92.660227
  BL         126.073131      177.653071      -93.858780
  BL         126.768578      179.095231      -95.057333
  B          -22.957088      -75.985004      153.491675
  B          -23.404964      -75.243020      151.689214
  B          -23.852840      -74.501037      149.886752
  B          -24.300716      -73.759053      148.084291
  B          -24.748592      -73.017070      146.281829
  B          -25.196468      -72.275086      144.479367
  B          -25.644344      -71.533103      142.676906
  B          -26.092220      -70.791119      140.874444
  B          -26.540096      -70.049136      139.071983
  B          -26.987973      -69.307153      137.269521
  B          -27.435849      -68.565169      135.467060
  B          -27.883725      -67.823186      133.664598
  B          -28.331601      -67.081202      131.862137
  B          -28.779477      -66.339219      130.059675
  B          -29.227353      -65.597235      128.257214
  B          -29.675229      -64.855252      126.454752
  B          -30.123105      -64.113268      124.652291
  B          -30.570981      -63.371285      122.849829
  B          -31.018857      -62.629301      121.047368
  B          -31.466733      -61.887318      119.244906
  BL         -31.914609      -61.145334      117.442445
  BL         -32.362485      -60.403351      115.639983
  BL         -32.810361      -59.661367      113.837522
  BL         -33.258237      -58.919384      112.035060
  BL         -33.706113      -58.177400      110.232598
  BL         -34.153989      -57.435417      108.430137
  BL         -34.601865      -56.693433      106.627675
  BL         -35.049741      -55.951450      104.825214
  BL         -35.497618      -55.209466      103.022752
  BL         -35.945494      -54.467483      101.220291
  BL         -36.393370      -53.725499       99.417829
  BL         -36.841246      -52.983516       97.615368
  BL         -37.289122      -52.241532       95.812906
  BL         -37.736998      -51.499549       94.010445
  BL         -38.184874      -50.757565       92.207983
  BL         -38.632750      -50.015582       90.405522
  BL         -39.080626      -49.273599       88.603060
  BL         -39.528502      -48.531615       86.800599
  BL         -39.976378      -47.789632       84.998137
  BL         -40.424254      -47.047648       83.195676
  BL         -40.872130      -46.305665       81.393214
  BL         -41.320006      -45.563681       79.590753
  BL         -41.767882      -44.821698       77.788291
  BL         -42.215758      -44.079714       75.985829
  BL         -42.663634      -43.337731       74.183368
  BL         -43.111510      -42.595747       72.380906
  BL         -43.559386      -41.853764       70.578445
  BL         -44.007263      -41.111780       68.775983
  BL         -44.455139      -40.369797       66.973522
  BL         -44.903015      -39.627813       65.171060
  BL         -45.350891      -38.885830       63.368599
  BL         -45.798767      -38.143846       61.566137
  BL         -46.246643      -37.401863       59.763676
  BL         -46.694519      -36.659879       57.961214
  BL         -47.142395      -35.917896       56.158753
  BL         -47.590271      -35.175912       54.356291
  BL         -48.038147      -34.433929       52.553830
  BL         -48.486023      -33.691945       50.751368
  BL         -48.933899      -32.949962       48.948907
  BL         -49.381775      -32.207978       47.146445
  BL         -49.829651      -31.465995       45.343983
  BL         -50.277527      -30.724011       43.541522
  BL         -50.725403      -29.982028       41.739060
  BL         -51.173279      -29.240045       39.936599
  BL         -51.621155      -28.498061       38.134137
  BL         -52.069031      -27.756078       36.331676
  BL         -52.516908      -27.014094       34.529214
  BL         -52.964784      -26.272111       32.726753
  BL         -53.412660      -25.530127       30.924291
  BL         -53.860536      -24.788144       29.121830
  B            5.666406       33.494651       -5.143941
  B            6.333607       32.202115       -3.771282
  B            7.000807       30.909578       -2.398623
  B            7.668007       29.617042       -1.025963
  B            8.335207       28.324506        0.346696
  B            9.002408       27.031969        1.719355
  B            9.669608       25.739433        3.092015
  B           10.336808       24.446897        4.464674
  B           11.004008       23.154360        5.837333
  B           11.671209       21.861824        7.209993
  B           12.338409       20.569288        8.582652
  B           13.005609       19.276751        9.955311
  B           13.672809       17.984215       11.327970
  B           14.340009       16.691678       12.700630
  B           15.007210       15.399142       14.073289
  B           15.674410       14.106606       15.445948
  B           16.341610       12.814069       16.818608
  B           17.008810       11.521533       18.191267
  B           17.676011       10.228997       19.563926
  B           18.343211        8.936460       20.936586
  BL          19.010411        7.643924       22.309245
  BL          19.677611        6.351387       23.681904
  BL          20.344812        5.058851       25.054564
  BL          21.012012        3.766315       26.427223
  BL          21.679212        2.473778       27.799882
  BL          22.346412        1.181242       29.172541
  BL          23.013613       -0.111294       30.545201
  BL          23.680813       -1.403831       31.917860
  BL          24.348013       -2.696367       33.290519
  BL          25.015213       -3.988904       34.663179
  BL          25.682413       -5.281440       36.035838
  BL          26.349614       -6.573976       37.408497
  BL          27.016814       -7.866513       38.781157
  BL          27.684014       -9.159049       40.153816
  BL          28.351214      -10.451585       41.526475
  BL          29.018415      -11.744122       42.899135
  BL          29.685615      -13.036658       44.271794
  BL          30.352815      -14.329195       45.644453
  BL          31.020015      -15.621731       47.017112
  BL          31.687216      -16.914267       48.389772
  BL          32.354416      -18.206804       49.762431
  BL          33.021616      -19.499340       51.135090
  BL          33.688816      -20.791876       52.507750
  BL          34.356017      -22.084413       53.880409
  BL          35.023217      -23.376949       55.253068
  BL          35.690417      -24.669486       56.625728
  BL          36.357617      -25.962022       57.998387
  BL          37.024817      -27.254558       59.371046
  BL          37.692018      -28.547095       60.743705
  BL          38.359218      -29.839631       62.116365
  BL          39.026418      -31.132167       63.489024
  BL          39.693618      -32.424704       64.861683
  BL          40.360819      -33.717240       66.234343
  BL          41.028019      -35.009777       67.607002
  BL          41.695219      -36.302313       68.979661
  BL          42.362419      -37.594849       70.352321
  BL          43.029620      -38.887386       71.724980
  BL          43.696820      -40.179922       73.097639
  BL          44.364020      -41.472458       74.470299
  BL          45.031220      -42.764995       75.842958
  BL          45.698421      -44.057531       77.215617
  BL          46.365621      -45.350068       78.588276
  BL          47.032821      -46.642604       79.960936
  BL          47.700021      -47.935140       81.333595
  BL          48.367221      -49.227677       82.706254
  BL          49.034422      -50.520213       84.078914
  BL          49.701622      -51.812749       85.451573
  BL          50.368822      -53.105286       86.824232
  BL          51.036022      -54.397822       88.196892
  BL          51.703223      -55.690358       89.569551
  B           84.435113     -203.515546     -346.244830
  B           85.869995     -202.391128     -345.422153
  B           87.304878     -201.266710     -344.599477
  B           88.739760     -200.142292     -343.776800
  B           90.174642     -199.017874     -342.954123
  B           91.609525     -197.893456     -342.131447
  B           93.044407     -196.769038     -341.308770
  B           94.479290     -195.644620     -340.486093
  B           95.914172     -194.520203     -339.663417
  B           97.349054     -193.395785     -338.840740
  B           98.783937     -192.271367     -338.018063
  B          100.218819     -191.146949     -337.195387
  B          101.653702     -190.022531     -336.372710
  B          103.088584     -188.898113     -335.550033
  B          104.523466     -187.773695     -334.727357
  B          105.958349     -186.649277     -333.904680
  B          107.393231     -185.524860     -333.082003
  B          108.828114     -184.400442     -332.259327
  B          110.262996     -183.276024     -331.436650
  B          111.697879     -182.151606     -330.613973
  BL         113.132761     -181.027188     -329.791297
  BL         114.567643     -179.902770     -328.968620
  BL         116.002526     -178.778352     -328.145943
  BL         117.437408     -177.653934     -327.323267
  BL         118.872291     -176.529516     -326.500590
  BL         120.307173     -175.405099     -325.677913
  BL         121.742055     -174.280681     -324.855237
  BL         123.176938     -173.156263     -324.032560
  BL         124.611820     -172.031845     -323.209883
  BL         126.046703     -170.907427     -322.387207
  BL         127.481585     -169.783009     -321.564530
  BL         128.916467     -168.658591     -320.741853
  BL         130.351350     -167.534173     -319.919177
  BL         131.786232     -166.409756     -319.096500
  BL         133.221115     -165.285338     -318.273823
  BL         134.655997     -164.160920     -317.451147
  BL         136.090880     -163.036502     -316.628470
  BL         137.525762     -161.912084     -315.805793
  BL         138.960644     -160.787666     -314.983117
  BL         140.395527     -159.663248     -314.160440
  BL         141.830409     -158.538830     -313.337763
  BL         143.265292     -157.414412     -312.515087
  BL         144.700174     -156.289995     -311.692410
  BL         146.135056     -155.165577     -310.869733
  BL         147.569939     -154.041159     -310.047057
  BL         149.004821     -152.916741     -309.224380
  BL         150.439704     -151.792323     -308.401703
  BL         151.874586     -150.667905     -307.579027
  BL         153.309468     -149.543487     -306.756350
  BL         154.744351     -148.419069     -305.933673
  BL         156.179233     -147.294652     -305.110997
  BL         157.614116     -146.170234     -304.288320
  BL         159.048998     -145.045816     -303.465643
  BL         160.483880     -143.921398     -302.642967
  BL         161.918763     -142.796980     -301.820290
  BL         163.353645     -141.672562     -300.997613
  BL         164.788528     -140.548144     -300.174937
  BL         166.223410     -139.423726     -299.352260
  BL         167.658293     -138.299308     -298.529583
  BL         169.093175     -137.174891     -297.706907
  BL         170.528057     -136.050473     -296.884230
  BL         171.962940     -134.926055     -296.061553
  BL         173.397822     -133.801637     -295.238877
  BL         174.832705     -132.677219     -294.416200
  BL         176.267587     -131.552801     -293.593523
  BL         177.702469     -130.428383     -292.770847
  BL         179.137352     -129.303965     -291.948170
  BL         180.572234     -128.179548     -291.125493
  BL         182.007117     -127.055130     -290.302817
  BL         183.441999     -125.930712     -289.480140
  B         -217.283879      -28.219831       19.386632
  B         -215.340322      -28.333258       18.928676
  B         -213.396766      -28.446686       18.470720
  B         -211.453210      -28.560114       18.012764
  B         -209.509654      -28.673542       17.554808
  B         -207.566098      -28.786970       17.096852
  B         -205.622542      -28.900397       16.638896
  B         -203.678986      -29.013825       16.180939
  B         -201.735430      -29.127253       15.722983
  B         -199.791874      -29.240681       15.265027
  B         -197.848317      -29.354108       14.807071
  B         -195.904761      -29.467536       14.349115
  B         -193.961205      -29.580964       13.891159
  B         -192.017649      -29.694392       13.433203
  B         -190.074093      -29.807819       12.975247
  B         -188.130537      -29.921247       12.517291
  B         -186.186981      -30.034675       12.059335
  B         -184.243425      -30.148103       11.601378
  B         -182.299869      -30.261530       11.143422
  B         -180.356312      -30.374958       10.685466
  BL        -178.412756      -30.488386       10.227510
  BL        -176.469200      -30.601814        9.769554
  BL        -174.525644      -30.715242        9.311598
  BL        -172.582088      -30.828669        8.853642
  BL        -170.638532      -30.942097        8.395686
  BL        -168.694976      -31.055525        7.937730
  BL        -166.751420      -31.168953        7.479774
  BL        -164.807864      -31.282380        7.021818
  BL        -162.864307      -31.395808        6.563861
  BL        -160.920751      -31.509236        6.105905
  BL        -158.977195      -31.622664        5.647949
  BL        -157.033639      -31.736091        5.189993
  BL        -155.090083      -31.849519        4.732037
  BL        -153.146527      -31.962947        4.274081
  BL        -151.202971      -32.076375        3.816125
  BL        -149.259415      -32.189802        3.358169
  BL        -147.315859      -32.303230        2.900213
  BL        -145.372302      -32.416658        2.442257
  BL        -143.428746      -32.530086        1.984300
  BL        -141.485190      -32.643514        1.526344
  BL        -139.541634      -32.756941        1.068388
  BL        -137.598078      -32.870369        0.610432
  BL        -135.654522      -32.983797        0.152476
  BL        -133.710966      -33.097225       -0.305480
  BL        -131.767410      -33.210652       -0.763436
  BL        -129.823854      -33.324080       -1.221392
  BL        -127.880297      -33.437508       -1.679348
  BL        -125.936741      -33.550936       -2.137304
  BL        -123.993185      -33.664363       -2.595261
  BL        -122.049629      -33.777791       -3.053217
  BL        -120.106073      -33.891219       -3.511173
  BL        -118.162517      -34.004647       -3.969129
  BL        -116.218961      -34.118074       -4.427085
  BL        -114.275405      -34.231502       -4.885041
  BL        -112.331849      -34.344930       -5.342997
  BL        -110.388293      -34.458358       -5.800953
  BL        -108.444736      -34.571786       -6.258909
  BL        -106.501180      -34.685213       -6.716865
  BL        -104.557624      -34.798641       -7.174821
  BL        -102.614068      -34.912069       -7.632778
  BL        -100.670512      -35.025497       -8.090734
  BL         -98.726956      -35.138924       -8.548690
  BL         -96.783400      -35.252352       -9.006646
  BL         -94.839844      -35.365780       -9.464602
  BL         -92.896288      -35.479208       -9.922558
  BL         -90.952731      -35.592635      -10.380514
  BL         -89.009175      -35.706063      -10.838470
  BL         -87.065619      -35.819491      -11.296426
  BL         -85.122063      -35.932919      -11.754382
  BL         -83.178507      -36.046346      -12.212339
  B          -47.610742     -146.127747      268.339209
  B          -49.528993     -145.731573      268.743386
  B          -51.447244     -145.335399      269.147562
  B          -53.365495     -144.939224      269.551739
  B          -55.283746     -144.543050      269.955916
  B          -57.201997     -144.146875      270.360093
  B          -59.120248     -143.750701      270.764269
  B          -61.038499     -143.354527      271.168446
  B          -62.956750     -142.958352      271.572623
  B          -64.875001     -142.562178      271.976800
  B          -66.793252     -142.166004      272.380976
  B          -68.711503     -141.769829      272.785153
  B          -70.629754     -141.373655      273.189330
  B          -72.548005     -140.977481      273.593506
  B          -74.466256     -140.581306      273.997683
  B          -76.384507     -140.185132      274.401860
  B          -78.302758     -139.788958      274.806037
  B          -80.221009     -139.392783      275.210213
  B          -82.139260     -138.996609      275.614390
  B          -84.057511     -138.600434      276.018567
  BL         -85.975762     -138.204260      276.422744
  BL         -87.894013     -137.808086      276.826920
  BL         -89.812264     -137.411911      277.231097
  BL         -91.730515     -137.015737      277.635274
  BL         -93.648766     -136.619563      278.039451
  BL         -95.567018     -136.223388      278.443627
  BL         -97.485269     -135.827214      278.847804
  BL         -99.403520     -135.431040      279.251981
  BL        -101.321771     -135.034865      279.656157
  BL        -103.240022     -134.638691      280.060334
  BL        -105.158273     -134.242517      280.464511
  BL        -107.076524     -133.846342      280.868688
  BL        -108.994775     -133.450168      281.272864
  BL        -110.913026     -133.053993      281.677041
  BL        -112.831277     -132.657819      282.081218
  BL        -114.749528     -132.261645      282.485395
  BL        -116.667779     -131.865470      282.889571
  BL        -118.586030     -131.469296      283.293748
  BL        -120.504281     -131.073122      283.697925
  BL        -122.422532     -130.676947      284.102102
  BL        -124.340783     -130.280773      284.506278
  BL        -126.259034     -129.884599      284.910455
  BL        -128.177285     -129.488424      285.314632
  BL        -130.095536     -129.092250      285.718808
  BL        -132.013787     -128.696075      286.122985
  BL        -133.932038     -128.299901      286.527162
  BL        -135.850289     -127.903727      286.931339
  BL        -137.768540     -127.507552      287.335515
  BL        -139.686791     -127.111378      287.739692
  BL        -141.605042     -126.715204      288.143869
  BL        -143.523293     -126.319029      288.548046
  BL        -145.441545     -125.922855      288.952222
  BL        -147.359796     -125.526681      289.356399
  BL        -149.278047     -125.130506      289.760576
  BL        -151.196298     -124.734332      290.164753
  BL        -153.114549     -124.338158      290.568929
  BL        -155.032800     -123.941983      290.973106
  BL        -156.951051     -123.545809      291.377283
  BL        -158.869302     -123.149634      291.781459
  BL        -160.787553     -122.753460      292.185636
  BL        -162.705804     -122.357286      292.589813
  BL        -164.624055     -121.961111      292.993990
  BL        -166.542306     -121.564937      293.398166
  BL        -168.460557     -121.168763      293.802343
  BL        -170.378808     -120.772588      294.206520
  BL        -172.297059     -120.376414      294.610697
  BL        -174.215310     -119.980240      295.014873
  BL        -176.133561     -119.584065      295.419050
  BL        -178.051812     -119.187891      295.823227
  BL        -179.970063     -118.791717      296.227404
  B         -251.408526      217.131893     -101.943280
  B         -252.752407      215.693375     -102.296337
  B         -254.096289      214.254857     -102.649394
  B         -255.440170      212.816339     -103.002450
  B         -256.784051      211.377822     -103.355507
  B         -258.127933      209.939304     -103.708564
  B         -259.471814      208.500786     -104.061621
  B         -260.815696      207.062268     -104.414678
  B         -262.159577      205.623750     -104.767735
  B         -263.503459      204.185232     -105.120792
  B         -264.847340      202.746715     -105.473849
  B         -266.191222      201.308197     -105.826906
  B         -267.535103      199.869679     -106.179962
  B         -268.878984      198.431161     -106.533019
  B         -270.222866      196.992643     -106.886076
  B         -271.566747      195.554126     -107.239133
  B         -272.910629      194.115608     -107.592190
  B         -274.254510      192.677090     -107.945247
  B         -275.598392      191.238572     -108.298304
  B         -276.942273      189.800054     -108.651361
  BL        -278.286154      188.361536     -109.004417
  BL        -279.630036      186.923019     -109.357474
  BL        -280.973917      185.484501     -109.710531
  BL        -282.317799      184.045983     -110.063588
  BL        -283.661680      182.607465     -110.416645
  BL        -285.005562      181.168947     -110.769702
  BL        -286.349443      179.730430     -111.122759
  BL        -287.693325      178.291912     -111.475816
  BL        -289.037206      176.853394     -111.828873
  BL        -290.381087      175.414876     -112.181929
  BL        -291.724969      173.976358     -112.534986
  BL        -293.068850      172.537840     -112.888043
  BL        -294.412732      171.099323     -113.241100
  BL        -295.756613      169.660805     -113.594157
  BL        -297.100495      168.222287     -113.947214
  BL        -298.444376      166.783769     -114.300271
  BL        -299.788258      165.345251     -114.653328
  BL        -301.132139      163.906734     -115.006385
  BL        -302.476020      162.468216     -115.359441
  BL        -303.819902      161.029698     -115.712498
  BL        -305.163783      159.591180     -116.065555
  BL        -306.507665      158.152662     -116.418612
  BL        -307.851546      156.714144     -116.771669
  BL        -309.195428      155.275627     -117.124726
  BL        -310.539309      153.837109     -117.477783
  BL        -311.883191      152.398591     -117.830840
  BL        -313.227072      150.960073     -118.183896
  BL        -314.570953      149.521555     -118.536953
  BL        -315.914835      148.083038     -118.890010
  BL        -317.258716      146.644520     -119.243067
  BL        -318.602598      145.206002     -119.596124
  BL        -319.946479      143.767484     -119.949181
  BL        -321.290361      142.328966     -120.302238
  BL        -322.634242      140.890448     -120.655295
  BL        -323.978123      139.451931     -121.008352
  BL        -325.322005      138.013413     -121.361408
  BL        -326.665886      136.574895     -121.714465
  BL        -328.009768      135.136377     -122.067522
  BL        -329.353649      133.697859     -122.420579
  BL        -330.697531      132.259342     -122.773636
  BL        -332.041412      130.820824     -123.126693
  BL        -333.385294      129.382306     -123.479750
  BL        -334.729175      127.943788     -123.832807
  BL        -336.073056      126.505270     -124.185864
  BL        -337.416938      125.066753     -124.538920
  BL        -338.760819      123.628235     -124.891977
  BL        -340.104701      122.189717     -125.245034
  BL        -341.448582      120.751199     -125.598091
  BL        -342.792464      119.312681     -125.951148
  BL        -344.136345      117.874163     -126.304205
  B          327.209520      103.724080     -287.789612
  B          325.933921      104.845485     -286.733536
  B          324.658321      105.966890     -285.677459
  B          323.382722      107.088294     -284.621383
  B          322.107122      108.209699     -283.565307
  B          320.831523      109.331104     -282.509230
  B          319.555923      110.452509     -281.453154
  B          318.280324      111.573914     -280.397078
  B          317.004724      112.695319     -279.341001
  B          315.729125      113.816723     -278.284925
  B          314.453525      114.938128     -277.228849
  B          313.177926      116.059533     -276.172772
  B          311.902326      117.180938     -275.116696
  B          310.626727      118.302343     -274.060620
  B          309.351127      119.423747     -273.004544
  B          308.075528      120.545152     -271.948467
  B          306.799928      121.666557     -270.892391
  B          305.524329      122.787962     -269.836315
  B          304.248729      123.909367     -268.780238
  B          302.973130      125.030772     -267.724162
  BL         301.697530      126.152176     -266.668086
  BL         300.421931      127.273581     -265.612009
  BL         299.146331      128.394986     -264.555933
  BL         297.870732      129.516391     -263.499857
  BL         296.595132      130.637796     -262.443780
  BL         295.319533      131.759200     -261.387704
  BL         294.043933      132.880605     -260.331628
  BL         292.768334      134.002010     -259.275551
  BL         291.492734      135.123415     -258.219475
  BL         290.217135      136.244820     -257.163399
  BL         288.941535      137.366224     -256.107323
  BL         287.665936      138.487629     -255.051246
  BL         286.390336      139.609034     -253.995170
  BL         285.114737      140.730439     -252.939094
  BL         283.839137      141.851844     -251.883017
  BL         282.563538      142.973249     -250.826941
  BL         281.287939      144.094653     -249.770865
  BL         280.012339      145.216058     -248.714788
  BL         278.736740      146.337463     -247.658712
  BL         277.461140      147.458868     -246.602636
  BL         276.185541      148.580273     -245.546559
  BL         274.909941      149.701677     -244.490483
  BL         273.634342      150.823082     -243.434407
  BL         272.358742      151.944487     -242.378330
  BL         271.083143      153.065892     -241.322254
  BL         269.807543      154.187297     -240.266178
  BL         268.531944      155.308702     -239.210102
  BL         267.256344      156.430106     -238.154025
  BL         265.980745      157.551511     -237.097949
  BL         264.705145      158.672916     -236.041873
  BL         263.429546      159.794321     -234.985796
  BL         262.153946      160.915726     -233.929720
  BL         260.878347      162.037130     -232.873644
  BL         259.602747      163.158535     -231.817567
  BL         258.327148      164.279940     -230.761491
  BL         257.051548      165.401345     -229.705415
  BL         255.775949      166.522750     -228.649338
  BL         254.500349      167.644155     -227.593262
  BL         253.224750      168.765559     -226.537186
  BL         251.949150      169.886964     -225.481109
  BL         250.673551      171.008369     -224.425033
  BL         249.397951      172.129774     -223.368957
  BL         248.122352      173.251179     -222.312881
  BL         246.846752      174.372583     -221.256804
  BL         245.571153      175.493988     -220.200728
  BL         244.295553      176.615393     -219.144652
  BL         243.019954      177.736798     -218.088575
  BL         241.744354      178.858203     -217.032499
  BL         240.468755      179.979607     -215.976423
  BL         239.193155      181.101012     -214.920346
  B          348.337508     -181.756456     -347.590450
  B          347.484494     -180.014392     -347.103029
  B          346.631479     -178.272328     -346.615608
  B          345.778465     -176.530264     -346.128187
  B          344.925450     -174.788200     -345.640767
  B          344.072435     -173.046136     -345.153346
  B          343.219421     -171.304072     -344.665925
  B          342.366406     -169.562008     -344.178504
  B          341.513392     -167.819944     -343.691083
  B          340.660377     -166.077880     -343.203662
  B          339.807362     -164.335816     -342.716241
  B          338.954348     -162.593752     -342.228820
  B          338.101333     -160.851688     -341.741399
  B          337.248319     -159.109624     -341.253978
  B          336.395304     -157.367560     -340.766557
  B          335.542289     -155.625496     -340.279136
  B          334.689275     -153.883432     -339.791715
  B          333.836260     -152.141368     -339.304294
  B          332.983246     -150.399304     -338.816873
  B          332.130231     -148.657240     -338.329452
  BL         331.277216     -146.915176     -337.842032
  BL         330.424202     -145.173112     -337.354611
  BL         329.571187     -143.431048     -336.867190
  BL         328.718173     -141.688984     -336.379769
  BL         327.865158     -139.946920     -335.892348
  BL         327.012143     -138.204856     -335.404927
  BL         326.159129     -136.462792     -334.917506
  BL         325.306114     -134.720728     -334.430085
  BL         324.453100     -132.978664     -333.942664
  BL         323.600085     -131.236600     -333.455243
  BL         322.747070     -129.494536     -332.967822
  BL         321.894056     -127.752472     -332.480401
  BL         321.041041     -126.010408     -331.992980
  BL         320.188027     -124.268344     -331.505559
  BL         319.335012     -122.526280     -331.018138
  BL         318.481997     -120.784216     -330.530717
  BL         317.628983     -119.042152     -330.043297
  BL         316.775968     -117.300088     -329.555876
  BL         315.922954     -115.558024     -329.068455
  BL         315.069939     -113.815960     -328.581034
  BL         314.216925     -112.073896     -328.093613
  BL         313.363910     -110.331832     -327.606192
  BL         312.510895     -108.589768     -327.118771
  BL         311.657881     -106.847704     -326.631350
  BL         310.804866     -105.105640     -326.143929
  BL         309.951852     -103.363576     -325.656508
  BL         309.098837     -101.621512     -325.169087
  BL         308.245822      -99.879448     -324.681666
  BL         307.392808      -98.137384     -324.194245
  BL         306.539793      -96.395320     -323.706824
  BL         305.686779      -94.653256     -323.219403
  BL         304.833764      -92.911192     -322.731982
  BL         303.980749      -91.169129     -322.244562
  BL         303.127735      -89.427065     -321.757141
  BL         302.274720      -87.685001     -321.269720
  BL         301.421706      -85.942937     -320.782299
  BL         300.568691      -84.200873     -320.294878
  BL         299.715676      -82.458809     -319.807457
  BL         298.862662      -80.716745     -319.320036
  BL         298.009647      -78.974681     -318.832615
  BL         297.156633      -77.232617     -318.345194
  BL         296.303618      -75.490553     -317.857773
  BL         295.450603      -73.748489     -317.370352
  BL         294.597589      -72.006425     -316.882931
  BL         293.744574      -70.264361     -316.395510
  BL         292.891560      -68.522297     -315.908089
  BL         292.038545      -66.780233     -315.420668
  BL         291.185530      -65.038169     -314.933248
  BL         290.332516      -63.296105     -314.445827
  BL         289.479501      -61.554041     -313.958406
  B         -330.357257     -291.397010     -235.089807
  B         -329.105616     -292.297217     -236.363785
  B         -327.853974     -293.197425     -237.637762
  B         -326.602332     -294.097632     -238.911740
  B         -325.350690     -294.997840     -240.185718
  B         -324.099048     -295.898047     -241.459696
  B         -322.847407     -296.798255     -242.733673
  B         -321.595765     -297.698462     -244.007651
  B         -320.344123     -298.598670     -245.281629
  B         -319.092481     -299.498877     -246.555607
  B         -317.840839     -300.399085     -247.829584
  B         -316.589198     -301.299292     -249.103562
  B         -315.337556     -302.199500     -250.377540
  B         -314.085914     -303.099707     -251.651518
  B         -312.834272     -303.999915     -252.925495
  B         -311.582630     -304.900122     -254.199473
  B         -310.330989     -305.800330     -255.473451
  B         -309.079347     -306.700537     -256.747429
  B         -307.827705     -307.600744     -258.021406
  B         -306.576063     -308.500952     -259.295384
  BL        -305.324422     -309.401159     -260.569362
  BL        -304.072780     -310.301367     -261.843340
  BL        -302.821138     -311.201574     -263.117317
  BL        -301.569496     -312.101782     -264.391295
  BL        -300.317854     -313.001989     -265.665273
  BL        -299.066213     -313.902197     -266.939251
  BL        -297.814571     -314.802404     -268.213229
  BL        -296.562929     -315.702612     -269.487206
  BL        -295.311287     -316.602819     -270.761184
  BL        -294.059645     -317.503027     -272.035162
  BL        -292.808004     -318.403234     -273.309140
  BL        -291.556362     -319.303442     -274.583117
  BL        -290.304720     -320.203649     -275.857095
  BL        -289.053078     -321.103857     -277.131073
  BL        -287.801436     -322.004064     -278.405051
  BL        -286.549795     -322.904272     -279.679028
  BL        -285.298153     -323.804479     -280.953006
  BL        -284.046511     -324.704687     -282.226984
  BL        -282.794869     -325.604894     -283.500962
  BL        -281.543228     -326.505101     -284.774939
  BL        -280.291586     -327.405309     -286.048917
  BL        -279.039944     -328.305516     -287.322895
  BL        -277.788302     -329.205724     -288.596873
  BL        -276.536660     -330.105931     -289.870850
  BL        -275.285019     -331.006139     -291.144828
  BL        -274.033377     -331.906346     -292.418806
  BL        -272.781735     -332.806554     -293.692784
  BL        -271.530093     -333.706761     -294.966761
  BL        -270.278451     -334.606969     -296.240739
  BL        -269.026810     -335.507176     -297.514717
  BL        -267.775168     -336.407384     -298.788695
  BL        -266.523526     -337.307591     -300.062673
  BL        -265.271884     -338.207799     -301.336650
  BL        -264.020242     -339.108006     -302.610628
  BL        -262.768601     -340.008214     -303.884606
  BL        -261.516959     -340.908421     -305.158584
  BL        -260.265317     -341.808629     -306.432561
  BL        -259.013675     -342.708836     -307.706539
  BL        -257.762034     -343.609044     -308.980517
  BL        -256.510392     -344.509251     -310.254495
  BL        -255.258750     -345.409458     -311.528472
  BL        -254.007108     -346.309666     -312.802450
  BL        -252.755466     -347.209873     -314.076428
  BL        -251.503825     -348.110081     -315.350406
  BL        -250.252183     -349.010288     -316.624383
  BL        -249.000541     -349.910496     -317.898361
  BL        -247.748899     -350.810703     -319.172339
  BL        -246.497257     -351.710911     -320.446317
  BL        -245.245616     -352.611118     -321.720294
  BL        -243.993974     -353.511326     -322.994272
  B         -201.311975     -204.244549     -264.417417
  B         -200.384785     -202.540235     -263.931996
  B         -199.457595     -200.835921     -263.446575
  B         -198.530405     -199.131608     -262.961153
  B         -197.603215     -197.427294     -262.475732
  B         -196.676025     -195.722981     -261.990311
  B         -195.748835     -194.018667     -261.504890
  B         -194.821645     -192.314353     -261.019469
  B         -193.894455     -190.610040     -260.534047
  B         -192.967265     -188.905726     -260.048626
  B         -192.040075     -187.201413     -259.563205
  B         -191.112885     -185.497099     -259.077784
  B         -190.185695     -183.792785     -258.592362
  B         -189.258505     -182.088472     -258.106941
  B         -188.331315     -180.384158     -257.621520
  B         -187.404125     -178.679845     -257.136099
  B         -186.476935     -176.975531     -256.650677
  B         -185.549745     -175.271217     -256.165256
  B         -184.622555     -173.566904     -255.679835
  B         -183.695365     -171.862590     -255.194414
  BL        -182.768175     -170.158276     -254.708993
  BL        -181.840985     -168.453963     -254.223571
  BL        -180.913795     -166.749649     -253.738150
  BL        -179.986605     -165.045336     -253.252729
  BL        -179.059415     -163.341022     -252.767308
  BL        -178.132225     -161.636708     -252.281886
  BL        -177.205035     -159.932395     -251.796465
  BL        -176.277845     -158.228081     -251.311044
  BL        -175.350655     -156.523768     -250.825623
  BL        -174.423465     -154.819454     -250.340201
  BL        -173.496275     -153.115140     -249.854780
  BL        -172.569085     -151.410827     -249.369359
  BL        -171.641895     -149.706513     -248.883938
  BL        -170.714705     -148.002199     -248.398517
  BL        -169.787515     -146.297886     -247.913095
  BL        -168.860324     -144.593572     -247.427674
  BL        -167.933134     -142.889259     -246.942253
  BL        -167.005944     -141.184945     -246.456832
  BL        -166.078754     -139.480631     -245.971410
  BL        -165.151564     -137.776318     -245.485989
  BL        -164.224374     -136.072004     -245.000568
  BL        -163.297184     -134.367691     -244.515147
  BL        -162.369994     -132.663377     -244.029725
  BL        -161.442804     -130.959063     -243.544304
  BL        -160.515614     -129.254750     -243.058883
  BL        -159.588424     -127.550436     -242.573462
  BL        -158.661234     -125.846123     -242.088041
  BL        -157.734044     -124.141809     -241.602619
  BL        -156.806854     -122.437495     -241.117198
  BL        -155.879664     -120.733182     -240.631777
  BL        -154.952474     -119.028868     -240.146356
  BL        -154.025284     -117.324554     -239.660934
  BL        -153.098094     -115.620241     -239.175513
  BL        -152.170904     -113.915927     -238.690092
  BL        -151.243714     -112.211614     -238.204671
  BL        -150.316524     -110.507300     -237.719249
  BL        -149.389334     -108.802986     -237.233828
  BL        -148.462144     -107.098673     -236.748407
  BL        -147.534954     -105.394359     -236.262986
  BL        -146.607764     -103.690046     -235.777565
  BL        -145.680574     -101.985732     -235.292143
  BL        -144.753384     -100.281418     -234.806722
  BL        -143.826194      -98.577105     -234.321301
  BL        -142.899004      -96.872791     -233.835880
  BL        -141.971814      -95.168477     -233.350458
  BL        -141.044624      -93.464164     -232.865037
  BL        -140.117434      -91.759850     -232.379616
  BL        -139.190244      -90.055537     -231.894195
  BL        -138.263054      -88.351223     -231.408774
  BL        -137.335864      -86.646909     -230.923352
  B            5.104863      259.255330     -146.675724
  B            5.374947      258.750837     -148.592111
  B            5.645031      258.246344     -150.508499
  B            5.915115      257.741851     -152.424887
  B            6.185198      257.237358     -154.341274
  B            6.455282      256.732866     -156.257662
  B            6.725366      256.228373     -158.174050
  B            6.995450      255.723880     -160.090437
  B            7.265533      255.219387     -162.006825
  B            7.535617      254.714894     -163.923213
  B            7.805701      254.210401     -165.839600
  B            8.075785      253.705909     -167.755988
  B            8.345868      253.201416     -169.672376
  B            8.615952      252.696923     -171.588763
  B            8.886036      252.192430     -173.505151
  B            9.156120      251.687937     -175.421539
  B            9.426204      251.183444     -177.337926
  B            9.696287      250.678952     -179.254314
  B            9.966371      250.174459     -181.170702
  B           10.236455      249.669966     -183.087089
  BL          10.506539      249.165473     -185.003477
  BL          10.776622      248.660980     -186.919865
  BL          11.046706      248.156487     -188.836252
  BL          11.316790      247.651995     -190.752640
  BL          11.586874      247.147502     -192.669028
  BL          11.856957      246.643009     -194.585416
  BL          12.127041      246.138516     -196.501803
  BL          12.397125      245.634023     -198.418191
  BL          12.667209      245.129530     -200.334579
  BL          12.937292      244.625037     -202.250966
  BL          13.207376      244.120545     -204.167354
  BL          13.477460      243.616052     -206.083742
  BL          13.747544      243.111559     -208.000129
  BL          14.017628      242.607066     -209.916517
  BL          14.287711      242.102573     -211.832905
  BL          14.557795      241.598080     -213.749292
  BL          14.827879      241.093588     -215.665680
  BL          15.097963      240.589095     -217.582068
  BL          15.368046      240.084602     -219.498455
  BL          15.638130      239.580109     -221.414843
  BL          15.908214      239.075616     -223.331231
  BL          16.178298      238.571123     -225.247618
  BL          16.448381      238.066631     -227.164006
  BL          16.718465      237.562138     -229.080394
  BL          16.988549      237.057645     -230.996781
  BL          17.258633      236.553152     -232.913169
  BL          17.528716      236.048659     -234.829557
  BL          17.798800      235.544166     -236.745944
  BL          18.068884      235.039674     -238.662332
  BL          18.338968      234.535181     -240.578720
  BL          18.609052      234.030688     -242.495107
  BL          18.879135      233.526195     -244.411495
  BL          19.149219      233.021702     -246.327883
  BL          19.419303      232.517209     -248.244271
  BL          19.689387      232.012716     -250.160658
  BL          19.959470      231.508224     -252.077046
  BL          20.229554      231.003731     -253.993434
  BL          20.499638      230.499238     -255.909821
  BL          20.769722      229.994745     -257.826209
  BL          21.039805      229.490252     -259.742597
  BL          21.309889      228.985759     -261.658984
  BL          21.579973      228.481267     -263.575372
  BL          21.850057      227.976774     -265.491760
  BL          22.120141      227.472281     -267.408147
  BL          22.390224      226.967788     -269.324535
  BL          22.660308      226.463295     -271.240923
  BL          22.930392      225.958802     -273.157310
  BL          23.200476      225.454310     -275.073698
  BL          23.470559      224.949817     -276.990086
  BL          23.740643      224.445324     -278.906473
  B          -48.101551        4.754145       83.445486
  B          -46.641263        6.088580       83.150799
  B          -45.180975        7.423016       82.856111
  B          -43.720687        8.757451       82.561423
  B          -42.260398       10.091886       82.266735
  B          -40.800110       11.426322       81.972047
  B          -39.339822       12.760757       81.677359
  B          -37.879534       14.095192       81.382672
  B          -36.419246       15.429627       81.087984
  B          -34.958957       16.764063       80.793296
  B          -33.498669       18.098498       80.498608
  B          -32.038381       19.432933       80.203920
  B          -30.578093       20.767369       79.909232
  B          -29.117805       22.101804       79.614545
  B          -27.657517       23.436239       79.319857
  B          -26.197228       24.770674       79.025169
  B          -24.736940       26.105110       78.730481
  B          -23.276652       27.439545       78.435793
  B          -21.816364       28.773980       78.141105
  B          -20.356076       30.108415       77.846418
  BL         -18.895788       31.442851       77.551730
  BL         -17.435499       32.777286       77.257042
  BL         -15.975211       34.111721       76.962354
  BL         -14.514923       35.446157       76.667666
  BL         -13.054635       36.780592       76.372978
  BL         -11.594347       38.115027       76.078290
  BL         -10.134058       39.449462       75.783603
  BL          -8.673770       40.783898       75.488915
  BL          -7.213482       42.118333       75.194227
  BL          -5.753194       43.452768       74.899539
  BL          -4.292906       44.787204       74.604851
  BL          -2.832618       46.121639       74.310163
  BL          -1.372329       47.456074       74.015476
  BL           0.087959       48.790509       73.720788
  BL           1.548247       50.124945       73.426100
  BL           3.008535       51.459380       73.131412
  BL           4.468823       52.793815       72.836724
  BL           5.929112       54.128250       72.542036
  BL           7.389400       55.462686       72.247349
  BL           8.849688       56.797121       71.952661
  BL          10.309976       58.131556       71.657973
  BL          11.770264       59.465992       71.363285
  BL          13.230552       60.800427       71.068597
  BL          14.690841       62.134862       70.773909
  BL          16.151129       63.469297       70.479221
  BL          17.611417       64.803733       70.184534
  BL          19.071705       66.138168       69.889846
  BL          20.531993       67.472603       69.595158
  BL          21.992281       68.807039       69.300470
  BL          23.452570       70.141474       69.005782
  BL          24.912858       71.475909       68.711094
  BL          26.373146       72.810344       68.416407
  BL          27.833434       74.144780       68.121719
  BL          29.293722       75.479215       67.827031
  BL          30.754011       76.813650       67.532343
  BL          32.214299       78.148086       67.237655
  BL          33.674587       79.482521       66.942967
  BL          35.134875       80.816956       66.648280
  BL          36.595163       82.151391       66.353592
  BL          38.055451       83.485827       66.058904
  BL          39.515740       84.820262       65.764216
  BL          40.976028       86.154697       65.469528
  BL          42.436316       87.489132       65.174840
  BL          43.896604       88.823568       64.880152
  BL          45.356892       90.158003       64.585465
  BL          46.817181       91.492438       64.290777
  BL          48.277469       92.826874       63.996089
  BL          49.737757       94.161309       63.701401
  BL          51.198045       95.495744       63.406713
  BL          52.658333       96.830179       63.112025
  B          -70.340572      191.466138       59.186185
  B          -70.252120      189.540948       59.720805
  B          -70.163669      187.615758       60.255425
  B          -70.075217      185.690567       60.790045
  B          -69.986765      183.765377       61.324665
  B          -69.898314      181.840187       61.859285
  B          -69.809862      179.914996       62.393905
  B          -69.721411      177.989806       62.928525
  B          -69.632959      176.064616       63.463145
  B          -69.544508      174.139425       63.997765
  B          -69.456056      172.214235       64.532385
  B          -69.367605      170.289045       65.067005
  B          -69.279153      168.363855       65.601625
  B          -69.190702      166.438664       66.136246
  B          -69.102250      164.513474       66.670866
  B          -69.013799      162.588284       67.205486
  B          -68.925347      160.663093       67.740106
  B          -68.836895      158.737903       68.274726
  B          -68.748444      156.812713       68.809346
  B          -68.659992      154.887522       69.343966
  BL         -68.571541      152.962332       69.878586
  BL         -68.483089      151.037142       70.413206
  BL         -68.394638      149.111951       70.947826
  BL         -68.306186      147.186761       71.482446
  BL         -68.217735      145.261571       72.017066
  BL         -68.129283      143.336380       72.551686
  BL         -68.040832      141.411190       73.086306
  BL         -67.952380      139.486000       73.620926
  BL         -67.863929      137.560810       74.155546
  BL         -67.775477      135.635619       74.690166
  BL         -67.687025      133.710429       75.224786
  BL         -67.598574      131.785239       75.759406
  BL         -67.510122      129.860048       76.294026
  BL         -67.421671      127.934858       76.828647
  BL         -67.333219      126.009668       77.363267
  BL         -67.244768      124.084477       77.897887
  BL         -67.156316      122.159287       78.432507
  BL         -67.067865      120.234097       78.967127
  BL         -66.979413      118.308906       79.501747
  BL         -66.890962      116.383716       80.036367
  BL         -66.802510      114.458526       80.570987
  BL         -66.714059      112.533336       81.105607
  BL         -66.625607      110.608145       81.640227
  BL         -66.537155      108.682955       82.174847
  BL         -66.448704      106.757765       82.709467
  BL         -66.360252      104.832574       83.244087
  BL         -66.271801      102.907384       83.778707
  BL         -66.183349      100.982194       84.313327
  BL         -66.094898       99.057003       84.847947
  BL         -66.006446       97.131813       85.382567
  BL         -65.917995       95.206623       85.917187
  BL         -65.829543       93.281432       86.451807
  BL         -65.741092       91.356242       86.986427
  BL         -65.652640       89.431052       87.521048
  BL         -65.564189       87.505862       88.055668
  BL         -65.475737       85.580671       88.590288
  BL         -65.387285       83.655481       89.124908
  BL         -65.298834       81.730291       89.659528
  BL         -65.210382       79.805100       90.194148
  BL         -65.121931       77.879910       90.728768
  BL         -65.033479       75.954720       91.263388
  BL         -64.945028       74.029529       91.798008
  BL         -64.856576       72.104339       92.332628
  BL         -64.768125       70.179149       92.867248
  BL         -64.679673       68.253958       93.401868
  BL         -64.591222       66.328768       93.936488
  BL         -64.502770       64.403578       94.471108
  BL         -64.414319       62.478387       95.005728
  BL         -64.325867       60.553197       95.540348
  BL         -64.237415       58.628007       96.074968
  B         -248.887067      105.699052     -330.971834
  B         -247.907657      107.030039     -329.845233
  B         -246.928248      108.361027     -328.718632
  B         -245.948838      109.692014     -327.592031
  B         -244.969428      111.023001     -326.465430
  B         -243.990019      112.353988     -325.338829
  B         -243.010609      113.684976     -324.212228
  B         -242.031199      115.015963     -323.085627
  B         -241.051790      116.346950     -321.959026
  B         -240.072380      117.677937     -320.832425
  B         -239.092970      119.008925     -319.705824
  B         -238.113561      120.339912     -318.579223
  B         -237.134151      121.670899     -317.452622
  B         -236.154741      123.001886     -316.326022
  B         -235.175332      124.332874     -315.199421
  B         -234.195922      125.663861     -314.072820
  B         -233.216512      126.994848     -312.946219
  B         -232.237103      128.325836     -311.819618
  B         -231.257693      129.656823     -310.693017
  B         -230.278284      130.987810     -309.566416
  BL        -229.298874      132.318797     -308.439815
  BL        -228.319464      133.649785     -307.313214
  BL        -227.340055      134.980772     -306.186613
  BL        -226.360645      136.311759     -305.060012
  BL        -225.381235      137.642746     -303.933411
  BL        -224.401826      138.973734     -302.806810
  BL        -223.422416      140.304721     -301.680210
  BL        -222.443006      141.635708     -300.553609
  BL        -221.463597      142.966695     -299.427008
  BL        -220.484187      144.297683     -298.300407
  BL        -219.504777      145.628670     -297.173806
  BL        -218.525368      146.959657     -296.047205
  BL        -217.545958      148.290645     -294.920604
  BL        -216.566548      149.621632     -293.794003
  BL        -215.587139      150.952619     -292.667402
  BL        -214.607729      152.283606     -291.540801
  BL        -213.628320      153.614594     -290.414200
  BL        -212.648910      154.945581     -289.287599
  BL        -211.669500      156.276568     -288.160998
  BL        -210.690091      157.607555     -287.034398
  BL        -209.710681      158.938543     -285.907797
  BL        -208.731271      160.269530     -284.781196
  BL        -207.751862      161.600517     -283.654595
  BL        -206.772452      162.931504     -282.527994
  BL        -205.793042      164.262492     -281.401393
  BL        -204.813633      165.593479     -280.274792
  BL        -203.834223      166.924466     -279.148191
  BL        -202.854813      168.255454     -278.021590
  BL        -201.875404      169.586441     -276.894989
  BL        -200.895994      170.917428     -275.768388
  BL        -199.916584      172.248415     -274.641787
  BL        -198.937175      173.579403     -273.515186
  BL        -197.957765      174.910390     -272.388585
  BL        -196.978356      176.241377     -271.261985
  BL        -195.998946      177.572364     -270.135384
  BL        -195.019536      178.903352     -269.008783
  BL        -194.040127      180.234339     -267.882182
  BL        -193.060717      181.565326     -266.755581
  BL        -192.081307      182.896313     -265.628980
  BL        -191.101898      184.227301     -264.502379
  BL        -190.122488      185.558288     -263.375778
  BL        -189.143078      186.889275     -262.249177
  BL        -188.163669      188.220263     -261.122576
  BL        -187.184259      189.551250     -259.995975
  BL        -186.204849      190.882237     -258.869374
  BL        -185.225440      192.213224     -257.742773
  BL        -184.246030      193.544212     -256.616173
  BL        -183.266620      194.875199     -255.489572
  BL        -182.287211      196.206186     -254.362971
  BL        -181.307801      197.537173     -253.236370
  B         -381.955671      -89.387112      343.492194
  B         -380.153914      -90.223787      343.260577
  B         -378.352157      -91.060461      343.028961
  B         -376.550400      -91.897136      342.797344
  B         -374.748642      -92.733811      342.565728
  B         -372.946885      -93.570486      342.334111
  B         -371.145128      -94.407161      342.102495
  B         -369.343371      -95.243836      341.870878
  B         -367.541614      -96.080510      341.639262
  B         -365.739856      -96.917185      341.407645
  B         -363.938099      -97.753860      341.176028
  B         -362.136342      -98.590535      340.944412
  B         -360.334585      -99.427210      340.712795
  B         -358.532828     -100.263885      340.481179
  B         -356.731070     -101.100559      340.249562
  B         -354.929313     -101.937234      340.017946
  B         -353.127556     -102.773909      339.786329
  B         -351.325799     -103.610584      339.554713
  B         -349.524042     -104.447259      339.323096
  B         -347.722284     -105.283934      339.091480
  BL        -345.920527     -106.120608      338.859863
  BL        -344.118770     -106.957283      338.628246
  BL        -342.317013     -107.793958      338.396630
  BL        -340.515256     -108.630633      338.165013
  BL        -338.713498     -109.467308      337.933397
  BL        -336.911741     -110.303983      337.701780
  BL        -335.109984     -111.140657      337.470164
  BL        -333.308227     -111.977332      337.238547
  BL        -331.506470     -112.814007      337.006931
  BL        -329.704712     -113.650682      336.775314
  BL        -327.902955     -114.487357      336.543698
  BL        -326.101198     -115.324032      336.312081
  BL        -324.299441     -116.160706      336.080464
  BL        -322.497684     -116.997381      335.848848
  BL        -320.695927     -117.834056      335.617231
  BL        -318.894169     -118.670731      335.385615
  BL        -317.092412     -119.507406      335.153998
  BL        -315.290655     -120.344081      334.922382
  BL        -313.488898     -121.180755      334.690765
  BL        -311.687141     -122.017430      334.459149
  BL        -309.885383     -122.854105      334.227532
  BL        -308.083626     -123.690780      333.995916
  BL        -306.281869     -124.527455      333.764299
  BL        -304.480112     -125.364130      333.532682
  BL        -302.678355     -126.200804      333.301066
  BL        -300.876597     -127.037479      333.069449
  BL        -299.074840     -127.874154      332.837833
  BL        -297.273083     -128.710829      332.606216
  BL        -295.471326     -129.547504      332.374600
  BL        -293.669569     -130.384179      332.142983
  BL        -291.867811     -131.220853      331.911367
  BL        -290.066054     -132.057528      331.679750
  BL        -288.264297     -132.894203      331.448134
  BL        -286.462540     -133.730878      331.216517
  BL        -284.660783     -134.567553      330.984900
  BL        -282.859025     -135.404228      330.753284
  BL        -281.057268     -136.240902      330.521667
  BL        -279.255511     -137.077577      330.290051
  BL        -277.453754     -137.914252      330.058434
  BL        -275.651997     -138.750927      329.826818
  BL        -273.850239     -139.587602      329.595201
  BL        -272.048482     -140.424277      329.363585
  BL        -270.246725     -141.260951      329.131968
  BL        -268.444968     -142.097626      328.900352
  BL        -266.643211     -142.934301      328.668735
  BL        -264.841453     -143.770976      328.437119
  BL        -263.039696     -144.607651      328.205502
  BL        -261.237939     -145.444326      327.973885
  BL        -259.436182     -146.281000      327.742269
  BL        -257.634425     -147.117675      327.510652
  B         -337.456853     -167.232515     -368.873253
  B         -335.500097     -166.844370     -369.016246
  B         -333.543340     -166.456225     -369.159239
  B         -331.586583     -166.068080     -369.302232
  B         -329.629827     -165.679936     -369.445226
  B         -327.673070     -165.291791     -369.588219
  B         -325.716314     -164.903646     -369.731212
  B         -323.759557     -164.515501     -369.874206
  B         -321.802800     -164.127356     -370.017199
  B         -319.846044     -163.739211     -370.160192
  B         -317.889287     -163.351067     -370.303186
  B         -315.932530     -162.962922     -370.446179
  B         -313.975774     -162.574777     -370.589172
  B         -312.019017     -162.186632     -370.732166
  B         -310.062261     -161.798487     -370.875159
  B         -308.105504     -161.410342     -371.018152
  B         -306.148747     -161.022198     -371.161146
  B         -304.191991     -160.634053     -371.304139
  B         -302.235234     -160.245908     -371.447132
  B         -300.278477     -159.857763     -371.590126
  BL        -298.321721     -159.469618     -371.733119
  BL        -296.364964     -159.081473     -371.876112
  BL        -294.408208     -158.693328     -372.019106
  BL        -292.451451     -158.305184     -372.162099
  BL        -290.494694     -157.917039     -372.305092
  BL        -288.537938     -157.528894     -372.448086
  BL        -286.581181     -157.140749     -372.591079
  BL        -284.624424     -156.752604     -372.734072
  BL        -282.667668     -156.364459     -372.877065
  BL        -280.710911     -155.976315     -373.020059
  BL        -278.754155     -155.588170     -373.163052
  BL        -276.797398     -155.200025     -373.306045
  BL        -274.840641     -154.811880     -373.449039
  BL        -272.883885     -154.423735     -373.592032
  BL        -270.927128     -154.035590     -373.735025
  BL        -268.970371     -153.647446     -373.878019
  BL        -267.013615     -153.259301     -374.021012
  BL        -265.056858     -152.871156     -374.164005
  BL        -263.100102     -152.483011     -374.306999
  BL        -261.143345     -152.094866     -374.449992
  BL        -259.186588     -151.706721     -374.592985
  BL        -257.229832     -151.318577     -374.735979
  BL        -255.273075     -150.930432     -374.878972
  BL        -253.316318     -150.542287     -375.021965
  BL        -251.359562     -150.154142     -375.164959
  BL        -249.402805     -149.765997     -375.307952
  BL        -247.446049     -149.377852     -375.450945
  BL        -245.489292     -148.989707     -375.593939
  BL        -243.532535     -148.601563     -375.736932
  BL        -241.575779     -148.213418     -375.879925
  BL        -239.619022     -147.825273     -376.022919
  BL        -237.662265     -147.437128     -376.165912
  BL        -235.705509     -147.048983     -376.308905
  BL        -233.748752     -146.660838     -376.451898
  BL        -231.791996     -146.272694     -376.594892
  BL        -229.835239     -145.884549     -376.737885
  BL        -227.878482     -145.496404     -376.880878
  BL        -225.921726     -145.108259     -377.023872
  BL        -223.964969     -144.720114     -377.166865
  BL        -222.008212     -144.331969     -377.309858
  BL        -220.051456     -143.943825     -377.452852
  BL        -218.094699     -143.555680     -377.595845
  BL        -216.137943     -143.167535     -377.738838
  BL        -214.181186     -142.779390     -377.881832
  BL        -212.224429     -142.391245     -378.024825
  BL        -210.267673     -142.003100     -378.167818
  BL        -208.310916     -141.614956     -378.310812
  BL        -206.354159     -141.226811     -378.453805
  BL        -204.397403     -140.838666     -378.596798
  BL        -202.440646     -140.450521     -378.739792
  B         -244.201772       43.367902     -145.466390
  B         -242.371344       44.035020     -145.014190
  B         -240.540915       44.702138     -144.561989
  B         -238.710487       45.369256     -144.109789
  B         -236.880058       46.036374     -143.657588
  B         -235.049630       46.703493     -143.205388
  B         -233.219202       47.370611     -142.753187
  B         -231.388773       48.037729     -142.300986
  B         -229.558345       48.704847     -141.848786
  B         -227.727916       49.371965     -141.396585
  B         -225.897488       50.039083     -140.944385
  B         -224.067060       50.706201     -140.492184
  B         -222.236631       51.373319     -140.039984
  B         -220.406203       52.040437     -139.587783
  B         -218.575774       52.707556     -139.135583
  B         -216.745346       53.374674     -138.683382
  B         -214.914918       54.041792     -138.231182
  B         -213.084489       54.708910     -137.778981
  B         -211.254061       55.376028     -137.326781
  B         -209.423632       56.043146     -136.874580
  BL        -207.593204       56.710264     -136.422380
  BL        -205.762776       57.377382     -135.970179
  BL        -203.932347       58.044500     -135.517979
  BL        -202.101919       58.711618     -135.065778
  BL        -200.271490       59.378737     -134.613578
  BL        -198.441062       60.045855     -134.161377
  BL        -196.610634       60.712973     -133.709177
  BL        -194.780205       61.380091     -133.256976
  BL        -192.949777       62.047209     -132.804776
  BL        -191.119348       62.714327     -132.352575
  BL        -189.288920       63.381445     -131.900375
  BL        -187.458492       64.048563     -131.448174
  BL        -185.628063       64.715681     -130.995973
  BL        -183.797635       65.382800     -130.543773
  BL        -181.967206       66.049918     -130.091572
  BL        -180.136778       66.717036     -129.639372
  BL        -178.306350       67.384154     -129.187171
  BL        -176.475921       68.051272     -128.734971
  BL        -174.645493       68.718390     -128.282770
  BL        -172.815065       69.385508     -127.830570
  BL        -170.984636       70.052626     -127.378369
  BL        -169.154208       70.719744     -126.926169
  BL        -167.323779       71.386863     -126.473968
  BL        -165.493351       72.053981     -126.021768
  BL        -163.662923       72.721099     -125.569567
  BL        -161.832494       73.388217     -125.117367
  BL        -160.002066       74.055335     -124.665166
  BL        -158.171637       74.722453     -124.212966
  BL        -156.341209       75.389571     -123.760765
  BL        -154.510781       76.056689     -123.308565
  BL        -152.680352       76.723807     -122.856364
  BL        -150.849924       77.390925     -122.404164
  BL        -149.019495       78.058044     -121.951963
  BL        -147.189067       78.725162     -121.499763
  BL        -145.358639       79.392280     -121.047562
  BL        -143.528210       80.059398     -120.595361
  BL        -141.697782       80.726516     -120.143161
  BL        -139.867353       81.393634     -119.690960
  BL        -138.036925       82.060752     -119.238760
  BL        -136.206497       82.727870     -118.786559
  BL        -134.376068       83.394988     -118.334359
  BL        -132.545640       84.062107     -117.882158
  BL        -130.715211       84.729225     -117.429958
  BL        -128.884783       85.396343     -116.977757
  BL        -127.054355       86.063461     -116.525557
  BL        -125.223926       86.730579     -116.073356
  BL        -123.393498       87.397697     -115.621156
  BL        -121.563069       88.064815     -115.168955
  BL        -119.732641       88.731933     -114.716755
  BL        -117.902213       89.399051     -114.264554
  B         -309.242637      317.942058       25.435355
  B         -307.843637      316.567119       25.825668
  B         -306.444638      315.192181       26.215982
  B         -305.045639      313.817242       26.606296
  B         -303.646640      312.442303       26.996610
  B         -302.247640      311.067365       27.386923
  B         -300.848641      309.692426       27.777237
  B         -299.449642      308.317487       28.167551
  B         -298.050643      306.942549       28.557865
  B         -296.651643      305.567610       28.948178
  B         -295.252644      304.192671       29.338492
  B         -293.853645      302.817733       29.728806
  B         -292.454646      301.442794       30.119120
  B         -291.055646      300.067856       30.509433
  B         -289.656647      298.692917       30.899747
  B         -288.257648      297.317978       31.290061
  B         -286.858649      295.943040       31.680375
  B         -285.459649      294.568101       32.070689
  B         -284.060650      293.193162       32.461002
  B         -282.661651      291.818224       32.851316
  BL        -281.262652      290.443285       33.241630
  BL        -279.863652      289.068346       33.631944
  BL        -278.464653      287.693408       34.022257
  BL        -277.065654      286.318469       34.412571
  BL        -275.666655      284.943530       34.802885
  BL        -274.267655      283.568592       35.193199
  BL        -272.868656      282.193653       35.583512
  BL        -271.469657      280.818714       35.973826
  BL        -270.070658      279.443776       36.364140
  BL        -268.671658      278.068837       36.754454
  BL        -267.272659      276.693899       37.144767
  BL        -265.873660      275.318960       37.535081
  BL        -264.474661      273.944021       37.925395
  BL        -263.075661      272.569083       38.315709
  BL        -261.676662      271.194144       38.706022
  BL        -260.277663      269.819205       39.096336
  BL        -258.878664      268.444267       39.486650
  BL        -257.479664      267.069328       39.876964
  BL        -256.080665      265.694389       40.267277
  BL        -254.681666      264.319451       40.657591
  BL        -253.282667      262.944512       41.047905
  BL        -251.883667      261.569573       41.438219
  BL        -250.484668      260.194635       41.828532
  BL        -249.085669      258.819696       42.218846
  BL        -247.686670      257.444758       42.609160
  BL        -246.287670      256.069819       42.999474
  BL        -244.888671      254.694880       43.389787
  BL        -243.489672      253.319942       43.780101
  BL        -242.090673      251.945003       44.170415
  BL        -240.691673      250.570064       44.560729
  BL        -239.292674      249.195126       44.951042
  BL        -237.893675      247.820187       45.341356
  BL        -236.494676      246.445248       45.731670
  BL        -235.095676      245.070310       46.121984
  BL        -233.696677      243.695371       46.512298
  BL        -232.297678      242.320432       46.902611
  BL        -230.898679      240.945494       47.292925
  BL        -229.499679      239.570555       47.683239
  BL        -228.100680      238.195617       48.073553
  BL        -226.701681      236.820678       48.463866
  BL        -225.302682      235.445739       48.854180
  BL        -223.903682      234.070801       49.244494
  BL        -222.504683      232.695862       49.634808
  BL        -221.105684      231.320923       50.025121
  BL        -219.706685      229.945985       50.415435
  BL        -218.307685      228.571046       50.805749
  BL        -216.908686      227.196107       51.196063
  BL        -215.509687      225.821169       51.586376
  BL        -214.110688      224.446230       51.976690
  BL        -212.711688      223.071291       52.367004
  B          -86.443079     -110.766215      -92.831024
  B          -87.434894     -110.208747      -91.186174
  B          -88.426709     -109.651279      -89.541324
  B          -89.418525     -109.093811      -87.896474
  B          -90.410340     -108.536343      -86.251623
  B          -91.402155     -107.978875      -84.606773
  B          -92.393971     -107.421407      -82.961923
  B          -93.385786     -106.863939      -81.317073
  B          -94.377601     -106.306471      -79.672223
  B          -95.369417     -105.749003      -78.027373
  B          -96.361232     -105.191535      -76.382523
  B          -97.353047     -104.634067      -74.737673
  B          -98.344862     -104.076599      -73.092823
  B          -99.336678     -103.519131      -71.447973
  B         -100.328493     -102.961663      -69.803122
  B         -101.320308     -102.404195      -68.158272
  B         -102.312124     -101.846727      -66.513422
  B         -103.303939     -101.289259      -64.868572
  B         -104.295754     -100.731791      -63.223722
  B         -105.287570     -100.174323      -61.578872
  BL        -106.279385      -99.616855      -59.934022
  BL        -107.271200      -99.059387      -58.289172
  BL        -108.263015      -98.501919      -56.644322
  BL        -109.254831      -97.944451      -54.999472
  BL        -110.246646      -97.386983      -53.354621
  BL        -111.238461      -96.829515      -51.709771
  BL        -112.230277      -96.272047      -50.064921
  BL        -113.222092      -95.714579      -48.420071
  BL        -114.213907      -95.157111      -46.775221
  BL        -115.205723      -94.599643      -45.130371
  BL        -116.197538      -94.042175      -43.485521
  BL        -117.189353      -93.484707      -41.840671
  BL        -118.181168      -92.927239      -40.195821
  BL        -119.172984      -92.369771      -38.550971
  BL        -120.164799      -91.812303      -36.906120
  BL        -121.156614      -91.254835      -35.261270
  BL        -122.148430      -90.697367      -33.616420
  BL        -123.140245      -90.139899      -31.971570
  BL        -124.132060      -89.582431      -30.326720
  BL        -125.123876      -89.024963      -28.681870
  BL        -126.115691      -88.467495      -27.037020
  BL        -127.107506      -87.910027      -25.392170
  BL        -128.099321      -87.352559      -23.747320
  BL        -129.091137      -86.795091      -22.102470
  BL        -130.082952      -86.237623      -20.457620
  BL        -131.074767      -85.680155      -18.812769
  BL        -132.066583      -85.122687      -17.167919
  BL        -133.058398      -84.565219      -15.523069
  BL        -134.050213      -84.007751      -13.878219
  BL        -135.042029      -83.450283      -12.233369
  BL        -136.033844      -82.892815      -10.588519
  BL        -137.025659      -82.335347       -8.943669
  BL        -138.017474      -81.777879       -7.298819
  BL        -139.009290      -81.220411       -5.653969
  BL        -140.001105      -80.662943       -4.009119
  BL        -140.992920      -80.105475       -2.364268
  BL        -141.984736      -79.548007       -0.719418
  BL        -142.976551      -78.990539        0.925432
  BL        -143.968366      -78.433071        2.570282
  BL        -144.960182      -77.875603        4.215132
  BL        -145.951997      -77.318135        5.859982
  BL        -146.943812      -76.760667        7.504832
  BL        -147.935628      -76.203199        9.149682
  BL        -148.927443      -75.645731       10.794532
  BL        -149.919258      -75.088263       12.439382
  BL        -150.911073      -74.530795       14.084233
  BL        -151.902889      -73.973327       15.729083
  BL        -152.894704      -73.415860       17.373933
  BL        -153.886519      -72.858392       19.018783
  BL        -154.878335      -72.300924       20.663633
  B         -133.725772      -78.328935      325.871548
  B         -132.057068      -78.241717      324.772539
  B         -130.388364      -78.154499      323.673530
  B         -128.719660      -78.067282      322.574522
  B         -127.050956      -77.980064      321.475513
  B         -125.382252      -77.892846      320.376504
  B         -123.713548      -77.805628      319.277495
  B         -122.044844      -77.718410      318.178487
  B         -120.376140      -77.631192      317.079478
  B         -118.707437      -77.543974      315.980469
  B         -117.038733      -77.456757      314.881460
  B         -115.370029      -77.369539      313.782452
  B         -113.701325      -77.282321      312.683443
  B         -112.032621      -77.195103      311.584434
  B         -110.363917      -77.107885      310.485425
  B         -108.695213      -77.020667      309.386417
  B         -107.026509      -76.933449      308.287408
  B         -105.357805      -76.846231      307.188399
  B         -103.689101      -76.759014      306.089390
  B         -102.020397      -76.671796      304.990382
  BL        -100.351693      -76.584578      303.891373
  BL         -98.682989      -76.497360      302.792364
  BL         -97.014285      -76.410142      301.693355
  BL         -95.345581      -76.322924      300.594347
  BL         -93.676878      -76.235706      299.495338
  BL         -92.008174      -76.148489      298.396329
  BL         -90.339470      -76.061271      297.297320
  BL         -88.670766      -75.974053      296.198312
  BL         -87.002062      -75.886835      295.099303
  BL         -85.333358      -75.799617      294.000294
  BL         -83.664654      -75.712399      292.901285
  BL         -81.995950      -75.625181      291.802277
  BL         -80.327246      -75.537964      290.703268
  BL         -78.658542      -75.450746      289.604259
  BL         -76.989838      -75.363528      288.505250
  BL         -75.321134      -75.276310      287.406242
  BL         -73.652430      -75.189092      286.307233
  BL         -71.983726      -75.101874      285.208224
  BL         -70.315022      -75.014656      284.109215
  BL         -68.646319      -74.927439      283.010207
  BL         -66.977615      -74.840221      281.911198
  BL         -65.308911      -74.753003      280.812189
  BL         -63.640207      -74.665785      279.713181
  BL         -61.971503      -74.578567      278.614172
  BL         -60.302799      -74.491349      277.515163
  BL         -58.634095      -74.404131      276.416154
  BL         -56.965391      -74.316914      275.317146
  BL         -55.296687      -74.229696      274.218137
  BL         -53.627983      -74.142478      273.119128
  BL         -51.959279      -74.055260      272.020119
  BL         -50.290575      -73.968042      270.921111
  BL         -48.621871      -73.880824      269.822102
  BL         -46.953167      -73.793606      268.723093
  BL         -45.284463      -73.706389      267.624084
  BL         -43.615760      -73.619171      266.525076
  BL         -41.947056      -73.531953      265.426067
  BL         -40.278352      -73.444735      264.327058
  BL         -38.609648      -73.357517      263.228049
  BL         -36.940944      -73.270299      262.129041
  BL         -35.272240      -73.183081      261.030032
  BL         -33.603536      -73.095864      259.931023
  BL         -31.934832      -73.008646      258.832014
  BL         -30.266128      -72.921428      257.733006
  BL         -28.597424      -72.834210      256.633997
  BL         -26.928720      -72.746992      255.534988
  BL         -25.260016      -72.659774      254.435979
  BL         -23.591312      -72.572556      253.336971
  BL         -21.922608      -72.485338      252.237962
  BL         -20.253904      -72.398121      251.138953
  BL         -18.585201      -72.310903      250.039944
  B          184.035518     -381.801289     -154.723022
  B          185.942604     -381.207998     -154.828034
  B          187.849690     -380.614707     -154.933046
  B          189.756777     -380.021417     -155.038058
  B          191.663863     -379.428126     -155.143070
  B          193.570950     -378.834836     -155.248082
  B          195.478036     -378.241545     -155.353094
  B          197.385123     -377.648254     -155.458106
  B          199.292209     -377.054964     -155.563118
  B          201.199296     -376.461673     -155.668130
  B          203.106382     -375.868382     -155.773142
  B          205.013469     -375.275092     -155.878154
  B          206.920555     -374.681801     -155.983166
  B          208.827641     -374.088511     -156.088178
  B          210.734728     -373.495220     -156.193190
  B          212.641814     -372.901929     -156.298202
  B          214.548901     -372.308639     -156.403214
  B          216.455987     -371.715348     -156.508226
  B          218.363074     -371.122058     -156.613238
  B          220.270160     -370.528767     -156.718250
  BL         222.177247     -369.935476     -156.823262
  BL         224.084333     -369.342186     -156.928274
  BL         225.991420     -368.748895     -157.033286
  BL         227.898506     -368.155605     -157.138298
  BL         229.805592     -367.562314     -157.243310
  BL         231.712679     -366.969023     -157.348322
  BL         233.619765     -366.375733     -157.453334
  BL         235.526852     -365.782442     -157.558346
  BL         237.433938     -365.189152     -157.663358
  BL         239.341025     -364.595861     -157.768370
  BL         241.248111     -364.002570     -157.873382
  BL         243.155198     -363.409280     -157.978394
  BL         245.062284     -362.815989     -158.083406
  BL         246.969371     -362.222699     -158.188418
  BL         248.876457     -361.629408     -158.293430
  BL         250.783543     -361.036117     -158.398442
  BL         252.690630     -360.442827     -158.503454
  BL         254.597716     -359.849536     -158.608466
  BL         256.504803     -359.256246     -158.713478
  BL         258.411889     -358.662955     -158.818490
  BL         260.318976     -358.069664     -158.923502
  BL         262.226062     -357.476374     -159.028514
  BL         264.133149     -356.883083     -159.133526
  BL         266.040235     -356.289792     -159.238538
  BL         267.947321     -355.696502     -159.343550
  BL         269.854408     -355.103211     -159.448562
  BL         271.761494     -354.509921     -159.553574
  BL         273.668581     -353.916630     -159.658586
  BL         275.575667     -353.323339     -159.763598
  BL         277.482754     -352.730049     -159.868610
  BL         279.389840     -352.136758     -159.973622
  BL         281.296927     -351.543468     -160.078634
  BL         283.204013     -350.950177     -160.183646
  BL         285.111100     -350.356886     -160.288658
  BL         287.018186     -349.763596     -160.393670
  BL         288.925272     -349.170305     -160.498682
  BL         290.832359     -348.577015     -160.603694
  BL         292.739445     -347.983724     -160.708706
  BL         294.646532     -347.390433     -160.813717
  BL         296.553618     -346.797143     -160.918729
  BL         298.460705     -346.203852     -161.023741
  BL         300.367791     -345.610562     -161.128753
  BL         302.274878     -345.017271     -161.233765
  BL         304.181964     -344.423980     -161.338777
  BL         306.089051     -343.830690     -161.443789
  BL         307.996137     -343.237399     -161.548801
  BL         309.903223     -342.644109     -161.653813
  BL         311.810310     -342.050818     -161.758825
  BL         313.717396     -341.457527     -161.863837
  BL         315.624483     -340.864237     -161.968849
  B          146.651560      104.791001      361.713190
  B          146.594991      104.636492      359.719969
  B          146.538422      104.481983      357.726749
  B          146.481854      104.327474      355.733529
  B          146.425285      104.172965      353.740309
  B          146.368716      104.018456      351.747088
  B          146.312147      103.863947      349.753868
  B          146.255578      103.709438      347.760648
  B          146.199009      103.554929      345.767428
  B          146.142440      103.400420      343.774207
  B          146.085872      103.245911      341.780987
  B          146.029303      103.091402      339.787767
  B          145.972734      102.936893      337.794547
  B          145.916165      102.782384      335.801327
  B          145.859596      102.627875      333.808106
  B          145.803027      102.473366      331.814886
  B          145.746458      102.318857      329.821666
  B          145.689890      102.164348      327.828446
  B          145.633321      102.009839      325.835225
  B          145.576752      101.855330      323.842005
  BL         145.520183      101.700821      321.848785
  BL         145.463614      101.546312      319.855565
  BL         145.407045      101.391803      317.862344
  BL         145.350476      101.237294      315.869124
  BL         145.293907      101.082785      313.875904
  BL         145.237339      100.928276      311.882684
  BL         145.180770      100.773767      309.889463
  BL         145.124201      100.619258      307.896243
  BL         145.067632      100.464749      305.903023
  BL         145.011063      100.310240      303.909803
  BL         144.954494      100.155731      301.916582
  BL         144.897925      100.001222      299.923362
  BL         144.841357       99.846712      297.930142
  BL         144.784788       99.692203      295.936922
  BL         144.728219       99.537694      293.943701
  BL         144.671650       99.383185      291.950481
  BL         144.615081       99.228676      289.957261
  BL         144.558512       99.074167      287.964041
  BL         144.501943       98.919658      285.970821
  BL         144.445375       98.765149      283.977600
  BL         144.388806       98.610640      281.984380
  BL         144.332237       98.456131      279.991160
  BL         144.275668       98.301622      277.997940
  BL         144.219099       98.147113      276.004719
  BL         144.162530       97.992604      274.011499
  BL         144.105961       97.838095      272.018279
  BL         144.049392       97.683586      270.025059
  BL         143.992824       97.529077      268.031838
  BL         143.936255       97.374568      266.038618
  BL         143.879686       97.220059      264.045398
  BL         143.823117       97.065550      262.052178
  BL         143.766548       96.911041      260.058957
  BL         143.709979       96.756532      258.065737
  BL         143.653410       96.602023      256.072517
  BL         143.596842       96.447514      254.079297
  BL         143.540273       96.293005      252.086076
  BL         143.483704       96.138496      250.092856
  BL         143.427135       95.983987      248.099636
  BL         143.370566       95.829478      246.106416
  BL         143.313997       95.674969      244.113195
  BL         143.257428       95.520460      242.119975
  BL         143.200860       95.365951      240.126755
  BL         143.144291       95.211442      238.133535
  BL         143.087722       95.056933      236.140315
  BL         143.031153       94.902424      234.147094
  BL         142.974584       94.747915      232.153874
  BL         142.918015       94.593406      230.160654
  BL         142.861446       94.438897      228.167434
  BL         142.804877       94.284388      226.174213
  BL         142.748309       94.129879      224.180993
  B          -30.785070      257.904319      335.410573
  B          -29.017033      258.633761      334.825802
  B          -27.248995      259.363203      334.241030
  B          -25.480958      260.092646      333.656258
  B          -23.712921      260.822088      333.071487
  B          -21.944883      261.551530      332.486715
  B          -20.176846      262.280972      331.901944
  B          -18.408808      263.010414      331.317172
  B          -16.640771      263.739856      330.732400
  B          -14.872733      264.469298      330.147629
  B          -13.104696      265.198740      329.562857
  B          -11.336658      265.928182      328.978085
  B           -9.568621      266.657624      328.393314
  B           -7.800583      267.387066      327.808542
  B           -6.032546      268.116508      327.223771
  B           -4.264509      268.845950      326.638999
  B           -2.496471      269.575392      326.054227
  B           -0.728434      270.304834      325.469456
  B            1.039604      271.034276      324.884684
  B            2.807641      271.763718      324.299912
  BL           4.575679      272.493160      323.715141
  BL           6.343716      273.222603      323.130369
  BL           8.111754      273.952045      322.545598
  BL           9.879791      274.681487      321.960826
  BL          11.647828      275.410929      321.376054
  BL          13.415866      276.140371      320.791283
  BL          15.183903      276.869813      320.206511
  BL          16.951941      277.599255      319.621739
  BL          18.719978      278.328697      319.036968
  BL          20.488016      279.058139      318.452196
  BL          22.256053      279.787581      317.867425
  BL          24.024091      280.517023      317.282653
  BL          25.792128      281.246465      316.697881
  BL          27.560166      281.975907      316.113110
  BL          29.328203      282.705349      315.528338
  BL          31.096240      283.434791      314.943566
  BL          32.864278      284.164233      314.358795
  BL          34.632315      284.893675      313.774023
  BL          36.400353      285.623117      313.189252
  BL          38.168390      286.352559      312.604480
  BL          39.936428      287.082002      312.019708
  BL          41.704465      287.811444      311.434937
  BL          43.472503      288.540886      310.850165
  BL          45.240540      289.270328      310.265393
  BL          47.008578      289.999770      309.680622
  BL          48.776615      290.729212      309.095850
  BL          50.544652      291.458654      308.511079
  BL          52.312690      292.188096      307.926307
  BL          54.080727      292.917538      307.341535
  BL          55.848765      293.646980      306.756764
  BL          57.616802      294.376422      306.171992
  BL          59.384840      295.105864      305.587220
  BL          61.152877      295.835306      305.002449
  BL          62.920915      296.564748      304.417677
  BL          64.688952      297.294190      303.832906
  BL          66.456990      298.023632      303.248134
  BL          68.225027      298.753074      302.663362
  BL          69.993064      299.482516      302.078591
  BL          71.761102      300.211959      301.493819
  BL          73.529139      300.941401      300.909047
  BL          75.297177      301.670843      300.324276
  BL          77.065214      302.400285      299.739504
  BL          78.833252      303.129727      299.154733
  BL          80.601289      303.859169      298.569961
  BL          82.369327      304.588611      297.985189
  BL          84.137364      305.318053      297.400418
  BL          85.905401      306.047495      296.815646
  BL          87.673439      306.776937      296.230874
  BL          89.441476      307.506379      295.646103
  BL          91.209514      308.235821      295.061331
