LAMMPS (5 Jun 2019)
Reading restart file ...
  restart file = 5 Jun 2019, LAMMPS = 5 Jun 2019
  restoring atom style full from restart
  orthogonal box = (-420 -420 -420) to (420 420 420)
  2 by 2 by 7 MPI processor grid
  restoring pair style lj/cut from restart
  restoring bond style hybrid from restart
  restoring angle style cosine from restart
  14000 atoms
  15404 bonds
  13600 angles
Finding 1-2 1-3 1-4 neighbors ...
  special bond factors lj:   0          1          1         
  special bond factors coul: 0          0          0         
  3 = max # of 1-2 neighbors
  4 = max # of 1-3 neighbors
  8 = max # of 1-4 neighbors
  56 = max # of special neighbors
  special bonds CPU = 2.15648 secs
  read_restart CPU = 2.24717 secs
Finding 1-2 1-3 1-4 neighbors ...
  special bond factors lj:   0          1          1         
  special bond factors coul: 0          0          0         
  3 = max # of 1-2 neighbors
  4 = max # of 1-3 neighbors
  8 = max # of 1-4 neighbors
  40032 = # of 1-3 neighbors before angle trim
  27200 = # of 1-3 neighbors after angle trim
  56 = max # of special neighbors
  special bonds CPU = 0.00166942 secs
Neighbor list info ...
  update every 1 steps, delay 1 steps, check yes
  max neighbors/atom: 2000, page size: 100000
  master list distance cutoff = 26.9
  ghost atom cutoff = 26.9
  binsize = 13.45, bins = 63 63 63
  1 neighbor lists, perpetual/occasional/extra = 1 0 0
  (1) pair lj/cut, perpetual
      attributes: half, newton on
      pair build: half/bin/newton
      stencil: half/bin/3d/newton
      bin: standard
Setting up Verlet run ...
  Unit style    : real
  Current step  : 400000000
  Time step     : 0.1
Per MPI rank memory allocation (min/avg/max) = 1.103 | 7.671 | 16.69 Mbytes
Step Temp E_pair E_mol TotEng Press 
400000000    312.60145   -3807.6782    7380.0675    16616.735 -0.061272322 
400010000    309.76014    -3799.973    7374.0795    16499.889 -0.034029389 
Loop time of 5.21471 on 28 procs for 10000 steps with 14000 atoms

Performance: 16.569 ns/day, 1.449 hours/ns, 1917.651 timesteps/s
99.6% CPU use with 28 MPI tasks x no OpenMP threads

MPI task timing breakdown:
Section |  min time  |  avg time  |  max time  |%varavg| %total
---------------------------------------------------------------
Pair    | 0.00035427 | 0.50939    | 2.7514     | 115.2 |  9.77
Bond    | 0.00049397 | 0.11081    | 0.5187     |  48.6 |  2.13
Neigh   | 0.020613   | 0.021875   | 0.024267   |   0.9 |  0.42
Comm    | 0.0019367  | 1.5269     | 3.7338     | 118.7 | 29.28
Output  | 8.1643e-05 | 0.00042956 | 0.00077111 |   0.0 |  0.01
Modify  | 0.00089216 | 0.24057    | 1.1162     |  70.7 |  4.61
Other   |            | 2.805      |            |       | 53.78

Nlocal:    500 ave 2343 max 0 min
Histogram: 16 1 4 2 1 0 0 1 0 3
Nghost:    493.929 ave 1876 max 0 min
Histogram: 13 3 0 4 3 1 0 0 3 1
Neighs:    6861.32 ave 34101 max 0 min
Histogram: 16 1 5 1 1 0 0 1 1 2

Total # of neighbors = 192117
Ave neighs/atom = 13.7226
Ave special neighs/atom = 7.86886
Neighbor list builds = 8
Dangerous builds = 0
4000 atoms in group rxnSites
Neighbor list info ...
  update every 1 steps, delay 1 steps, check yes
  max neighbors/atom: 2000, page size: 100000
  master list distance cutoff = 26.9
  ghost atom cutoff = 26.9
  binsize = 13.45, bins = 63 63 63
  2 neighbor lists, perpetual/occasional/extra = 1 1 0
  (1) pair lj/cut, perpetual
      attributes: half, newton on
      pair build: half/bin/newton
      stencil: half/bin/3d/newton
      bin: standard
  (2) fix bond/create/random, occasional, copy from (1)
      attributes: half, newton on
      pair build: copy
      stencil: none
      bin: none
Setting up Verlet run ...
  Unit style    : real
  Current step  : 0
  Time step     : 25
Per MPI rank memory allocation (min/avg/max) = 17.8 | 18.26 | 19.34 Mbytes
Step E_pair PotEng KinEng E_bond E_angle Temp Bonds 
       0    -3799.973    3574.1065    12925.783   -934.76786    8308.8473    309.76014    15404 
 1000000   -3745.2372    3362.2267    12818.504    -1097.308    8204.7719    307.18926    15410 
