LAMMPS (5 Jun 2019)
Reading restart file ...
  restart file = 5 Jun 2019, LAMMPS = 5 Jun 2019
  restoring atom style full from restart
  orthogonal box = (-420 -420 -420) to (420 420 420)
  2 by 2 by 7 MPI processor grid
  restoring pair style lj/cut from restart
  restoring bond style hybrid from restart
  restoring angle style cosine from restart
  14000 atoms
  15428 bonds
  13600 angles
Finding 1-2 1-3 1-4 neighbors ...
  special bond factors lj:   0          1          1         
  special bond factors coul: 0          0          0         
  3 = max # of 1-2 neighbors
  4 = max # of 1-3 neighbors
  8 = max # of 1-4 neighbors
  56 = max # of special neighbors
  special bonds CPU = 0.638926 secs
  read_restart CPU = 0.718682 secs
Finding 1-2 1-3 1-4 neighbors ...
  special bond factors lj:   0          1          1         
  special bond factors coul: 0          0          0         
  3 = max # of 1-2 neighbors
  4 = max # of 1-3 neighbors
  8 = max # of 1-4 neighbors
  40224 = # of 1-3 neighbors before angle trim
  27200 = # of 1-3 neighbors after angle trim
  56 = max # of special neighbors
  special bonds CPU = 0.00160142 secs
Neighbor list info ...
  update every 1 steps, delay 1 steps, check yes
  max neighbors/atom: 2000, page size: 100000
  master list distance cutoff = 26.9
  ghost atom cutoff = 26.9
  binsize = 13.45, bins = 63 63 63
  1 neighbor lists, perpetual/occasional/extra = 1 0 0
  (1) pair lj/cut, perpetual
      attributes: half, newton on
      pair build: half/bin/newton
      stencil: half/bin/3d/newton
      bin: standard
Setting up Verlet run ...
  Unit style    : real
  Current step  : 400000000
  Time step     : 0.1
Per MPI rank memory allocation (min/avg/max) = 1.103 | 7.659 | 16.74 Mbytes
Step Temp E_pair E_mol TotEng Press 
400000000    307.27474   -3863.8919    7230.4039    16188.583   0.11579035 
400010000    310.84988   -3842.4525    7215.4784    16344.282 -0.029879649 
Loop time of 6.38531 on 28 procs for 10000 steps with 14000 atoms

Performance: 13.531 ns/day, 1.774 hours/ns, 1566.095 timesteps/s
99.5% CPU use with 28 MPI tasks x no OpenMP threads

MPI task timing breakdown:
Section |  min time  |  avg time  |  max time  |%varavg| %total
---------------------------------------------------------------
Pair    | 0.00043823 | 0.5323     | 3.5069     | 137.2 |  8.34
Bond    | 0.00070313 | 0.11487    | 0.65679    |  55.5 |  1.80
Neigh   | 0.026187   | 0.027765   | 0.030515   |   0.9 |  0.43
Comm    | 0.0023771  | 2.0759     | 4.714      | 136.5 | 32.51
Output  | 8.7854e-05 | 0.00051479 | 0.00095152 |   0.0 |  0.01
Modify  | 0.0013584  | 0.24813    | 1.4107     |  81.2 |  3.89
Other   |            | 3.386      |            |       | 53.02

Nlocal:    500 ave 2868 max 0 min
Histogram: 17 3 4 0 0 0 0 2 0 2
Nghost:    493.143 ave 1992 max 0 min
Histogram: 13 3 2 3 3 0 0 0 2 2
Neighs:    6877.79 ave 42164 max 0 min
Histogram: 19 3 2 0 0 0 0 2 1 1

Total # of neighbors = 192578
Ave neighs/atom = 13.7556
Ave special neighs/atom = 7.89971
Neighbor list builds = 8
Dangerous builds = 0
4000 atoms in group rxnSites
Neighbor list info ...
  update every 1 steps, delay 1 steps, check yes
  max neighbors/atom: 2000, page size: 100000
  master list distance cutoff = 26.9
  ghost atom cutoff = 26.9
  binsize = 13.45, bins = 63 63 63
  2 neighbor lists, perpetual/occasional/extra = 1 1 0
  (1) pair lj/cut, perpetual
      attributes: half, newton on
      pair build: half/bin/newton
      stencil: half/bin/3d/newton
      bin: standard
  (2) fix bond/create/random, occasional, copy from (1)
      attributes: half, newton on
      pair build: copy
      stencil: none
      bin: none
Setting up Verlet run ...
  Unit style    : real
  Current step  : 0
  Time step     : 25
Per MPI rank memory allocation (min/avg/max) = 17.81 | 18.21 | 19.17 Mbytes
Step E_pair PotEng KinEng E_bond E_angle Temp Bonds 
       0   -3842.4525    3373.0258    12971.256   -1083.8487     8299.327    310.84988    15428 
 1000000   -3833.4802    3506.7817    12766.436   -1010.2174    8350.4794    305.94147    15422 
 2000000   -3865.1814    3538.3777    13064.732   -947.13784    8350.6969    313.08999    15412 
 3000000   -3872.6637    3351.5726     12902.51    -985.6622    8209.8985    309.20241    15426 
 4000000   -3801.2455    3534.7174    12874.132   -911.59354    8247.5565    308.52237    15394 
 5000000   -3903.9373    3349.1196    12978.898   -1088.3124    8341.3693    311.03302    15404 
 6000000   -3765.5421    3554.7222    12903.992   -901.79647    8222.0608    309.23794    15393 
 7000000   -3800.4985    3544.0542    13037.022   -984.13826     8328.691    312.42594    15407 
 8000000   -3768.5793    3473.6406     12982.49   -931.19609    8173.4159    311.11911    15390 
 9000000   -3712.8033    3535.8473    13028.607   -1008.9583    8257.6088    312.22428    15420 
10000000    -3838.185    3522.4528    12935.051   -948.78148    8309.4193    309.98225    15408 
11000000    -3726.426    3559.6543    13069.337   -962.00776    8248.0881    313.20035    15399 
12000000   -3831.7817    3318.3843      12921.3    -1181.327     8331.493    309.65272    15421 
13000000   -3737.8923    3685.6822    12862.038   -949.28806    8372.8625    308.23253    15404 
14000000   -3782.6119     3734.866    12868.174   -933.77994    8451.2578    308.37958    15410 
15000000   -3803.1486    3278.6578    12796.814   -1191.0596     8272.866    306.66948    15435 
16000000   -3779.0263    3471.5603    12989.797   -1082.4116    8332.9982    311.29421    15411 
17000000   -3777.5561    3392.8289    13082.304   -1000.2191    8170.6042    313.51109    15387 
18000000   -3857.9705     3549.576    12957.108   -959.35257    8366.8991    310.51083    15401 
19000000   -3771.1331    3554.5929    13109.591   -948.74743    8274.4734    314.16501    15408 
20000000   -3939.0943    3385.3307    13021.539   -932.47321    8256.8983     312.0549    15433 
21000000   -3799.3502    3492.8164    12861.514   -1005.9869    8298.1536    308.21997    15401 
22000000   -3743.8771    3436.8787    13066.457     -1104.45    8285.2057    313.13133    15415 
23000000   -3750.7399    3692.8966    12842.725   -864.89044     8308.527    307.76971    15382 
24000000   -3854.5109    3346.9902    12856.719   -984.33705    8185.8382    308.10505    15425 
25000000   -3789.3379    3488.4031    12941.243   -1000.6627    8278.4037    310.13065    15399 
26000000   -3694.9072    3696.5925    12969.749   -888.51615    8280.0158    310.81376    15384 
27000000   -3837.4537    3346.4276    12971.639   -1069.6644    8253.5457    310.85908    15419 
28000000   -3836.0277    3431.2845     12881.72   -1052.3501    8319.6623     308.7042    15413 
29000000   -3878.0314    3344.3028    12935.751    -1035.308    8257.6422    309.99903    15416 
30000000   -3783.4089    3472.0527     12983.63   -898.80305    8154.2647    311.14643    15409 
31000000   -3675.5452    3431.6698    13015.558    -1107.807    8215.0221    311.91157    15424 
32000000   -3760.0441    3523.6943    12944.667   -1019.9156    8303.6541    310.21271    15409 
33000000   -3782.7488     3465.926    12904.973   -1015.5157    8264.1905    309.26144    15399 
34000000   -3834.7374    3405.9727    12826.968   -1046.8961    8287.6062    307.39211    15400 
35000000   -3791.0455    3458.9955    12863.156   -991.60426    8241.6452    308.25933    15410 
36000000   -3824.7299    3495.5049    12831.884   -913.10753    8233.3423     307.5099    15375 
37000000    -3786.715     3439.016    12991.687    -1005.751    8231.4819    311.33952    15397 
38000000   -3892.4854    3335.1906    13011.534   -958.95998     8186.636    311.81512    15407 
39000000   -3781.3179    3362.9874    12851.264   -996.92391    8141.2292    307.97435    15415 
40000000   -3690.5039    3646.1577    12880.837   -883.93483    8220.5965    308.68304    15377 
41000000   -3824.3105    3480.9045    12972.256   -959.96773    8265.1828    310.87384    15395 
42000000   -3813.9356    3440.0878    12897.057   -924.50718    8178.5306    309.07175    15390 
43000000   -3760.6496    3580.2054    12996.138   -966.14142    8306.9964    311.44617    15403 
44000000   -3877.5572    3375.2812     12807.08     -994.408    8247.2464    306.91549    15413 
45000000   -3812.5054    3453.5504    12876.392   -982.21449    8248.2703    308.57652    15402 
46000000   -3787.8427    3466.2351    13008.665   -1025.5504    8279.6282    311.74637    15406 
47000000   -3804.7617    3439.7735     12883.15   -1068.7164    8313.2516    308.73847    15403 
48000000   -3791.8892    3480.7561    12896.194   -1035.0061    8307.6514    309.05106    15419 
49000000   -3742.2113    3417.1715    13056.828   -1056.7756    8216.1584    312.90057    15423 
50000000   -3740.7727    3663.0005    12966.727   -962.19712    8365.9704    310.74136    15406 
51000000   -3755.8477    3515.7481     12874.69   -953.25102    8224.8468    308.53574    15401 
52000000   -3756.2723     3662.907    12968.306   -902.43405    8321.6133     310.7792    15379 
53000000   -3823.0739    3460.2723    12871.288   -1057.8913    8341.2374    308.45421    15419 
54000000   -3837.5578    3328.0865    12884.799   -1018.6829    8184.3272      308.778    15396 
55000000   -3807.6018    3448.9697     12849.42   -932.52107    8189.0926    307.93016    15406 
56000000   -3786.6013    3382.6533    13031.973   -1020.6784    8189.9329    312.30494    15428 
57000000    -3775.632    3563.7422    12905.307   -1008.5626    8347.9369    309.26946    15394 
58000000    -3808.628    3420.3258    12912.838   -1052.6495    8281.6033    309.44994    15409 
59000000   -3791.9734    3427.0755    12751.892   -1012.1933    8231.2422    305.59294    15393 
60000000   -3848.2786    3286.9645    12946.453   -1139.8409    8275.0839     310.2555    15425 
61000000   -3810.0785    3152.6354    12853.942   -1175.5379    8138.2518    308.03852    15441 
62000000    -3936.791    3142.8181    12981.283   -1128.7286    8208.3377    311.09019    15423 
63000000   -3811.8779    3489.6043    13047.822   -1003.1564    8304.6386    312.68475    15406 
64000000   -3739.8459    3558.4277    12901.524   -1026.4917    8324.7653    309.17879    15406 
65000000   -3714.8977     3537.313    13115.567    -1146.997    8399.2076    314.30823    15427 
66000000   -3795.7019    3555.5491    13043.146   -901.34767    8252.5986    312.57271    15385 
67000000   -3803.1105    3614.8146    12948.174    -906.3695    8324.2946    310.29675    15400 
68000000   -3854.1753    3562.1771    13007.171   -852.08122    8268.4337    311.71056    15373 
69000000    -3794.333    3501.3425    12819.981   -929.82056     8225.496    307.22466    15420 
70000000   -3791.7501    3378.1113    13000.386   -1011.3193    8181.1806    311.54796    15382 
71000000    -3797.169    3443.3972    12890.967   -1005.3493    8245.9155    308.92579    15403 
72000000   -3857.3068    3482.9707    12980.657   -990.85375    8331.1313    311.07518    15407 
73000000    -3812.042    3477.5486    12973.383   -926.72559    8216.3162    310.90086    15402 
74000000   -3736.3975    3596.3948    12968.937   -941.08173     8273.874    310.79431    15384 
75000000   -3734.4635    3562.7059    12840.585    -957.2741    8254.4435    307.71842    15408 
76000000   -3774.2207    3530.7757    12911.765    -1007.209    8312.2054    309.42421    15383 
77000000   -3841.8252    3504.2479     12886.64   -935.49322    8281.5662    308.82212    15411 
78000000   -3824.4994    3568.3086    12956.138   -920.08662    8312.8946     310.4876    15407 
79000000   -3857.4324    3378.4149    12939.539   -1008.3559    8244.2031     310.0898    15415 
80000000   -3805.0028    3396.6951    12926.548   -1049.7055    8251.4033    309.77849    15415 
81000000   -3778.5802    3422.4399    13029.932    -1118.639    8319.6591    312.25603    15425 
82000000   -3820.2489    3514.7651    13129.278   -892.91988    8227.9339    314.63682    15391 
83000000   -3802.7409    3523.3106    12947.733   -974.03203    8300.0835    310.28617    15390 
84000000   -3845.5623    3483.8275    12894.048    -950.2546    8279.6444    308.99964    15409 
85000000   -3835.0068      3415.47    13063.946   -910.85221    8161.3289    313.07116    15402 
86000000   -3878.4725    3392.5367    12980.558   -1115.2793    8386.2885    311.07282    15431 
87000000    -3834.774    3534.2978    12952.902   -1001.6352     8370.707    310.41005    15395 
88000000   -3880.7979    3251.3928    12868.523   -1181.0469    8313.2376    308.38794    15410 
89000000   -3821.3019    3534.0872    12906.275   -917.60618    8272.9953    309.29264    15410 
90000000   -3773.9728    3555.6219    13024.978   -966.90638    8296.5011    312.13732    15392 
91000000   -3794.9489    3453.7876    13038.508   -988.75242    8237.4889    312.46154    15402 
92000000   -3788.9659    3472.5539    12910.673   -1063.3043    8324.8241    309.39804    15409 
93000000   -3973.1321    3145.5461    12918.408   -1063.1339     8181.812     309.5834    15422 
94000000   -3904.8989    3392.2949    13074.125   -956.48072    8253.6745    313.31509    15396 
95000000   -3833.0342    3366.1018     12904.88   -919.37716    8118.5132    309.25921    15387 
96000000   -3785.7966    3517.7851    13039.148   -914.41053    8217.9922    312.47689    15383 
97000000   -3742.9816     3616.909     12989.01    -921.6703    8281.5609    311.27536    15392 
98000000   -3812.2663     3508.869    12913.262   -917.02537    8238.1606     309.4601    15399 
99000000   -3813.0032    3448.2936    12930.967   -1026.1553    8287.4522    309.88439    15408 
100000000   -3840.5193    3491.4277    12801.703   -1033.1242    8365.0713    306.78663    15404 
101000000   -3756.7361    3600.0355    12927.533   -920.71558    8277.4871     309.8021    15402 
102000000   -3829.6068    3457.5657    12800.754    -987.8319    8275.0044     306.7639    15387 
103000000   -3951.0894    3398.7539    12809.149   -855.11624    8204.9595    306.96506    15393 
104000000   -3845.7542    3311.9024    12913.659   -1072.7749    8230.4315     309.4696    15425 
105000000   -3765.6813    3352.5077    13182.957   -1114.9637    8233.1526    315.92319    15415 
106000000   -3680.6979    3537.0036    12967.818    -1086.051    8303.7526     310.7675    15414 
107000000   -3877.3937    3426.9777    12783.982   -1022.7907    8327.1621    306.36196    15398 
108000000    -3752.476    3511.1549     12979.43   -927.27949    8190.9104    311.04577    15396 
109000000   -3806.8468    3622.3524     12943.69   -884.87295    8314.0722    310.18928    15382 
110000000   -3842.8944    3526.5368    12881.124   -1045.1016    8414.5328    308.68991    15421 
111000000   -3794.8442    3665.4993    12922.875   -941.03354     8401.377    309.69045    15387 
112000000   -3899.5646    3464.8351    12800.718   -966.13032    8330.5301    306.76303    15409 
113000000   -3878.4608    3429.2615    12789.027   -989.58772    8297.3101    306.48285    15408 
114000000   -3812.6683    3437.0734    12919.866   -1060.0971    8309.8388    309.61835    15414 
115000000   -3805.6118    3466.2606    12804.834   -1069.5257    8341.3981    306.86167    15418 
116000000   -3845.2433    3326.0755    12952.576   -1071.6556    8242.9744    310.40223    15397 
117000000   -3827.6485     3473.777    12991.709   -1013.6057    8315.0312    311.34004    15412 
118000000   -3861.2879    3416.6528    13123.038   -955.50366    8233.4444    314.48727    15413 
119000000   -3840.8264     3349.645    12931.994   -1051.9162    8242.3876      309.909    15386 
120000000   -3787.3144    3528.0187    12863.785   -938.67678    8254.0099    308.27439    15391 
121000000   -3738.3246    3503.3072    12781.921   -950.57796    8192.2098    306.31255    15387 
122000000    -3905.342    3182.1214     12928.34   -1111.2553    8198.7187    309.82142    15426 
123000000   -3893.4142    3381.1756    12894.664   -1091.1707    8365.7605     309.0144    15435 
124000000   -3772.7561    3631.7518    12872.832   -985.00207      8389.51     308.4912    15373 
125000000   -3873.2714    3435.8464    12768.057   -992.35588    8301.4737    305.98032    15408 
126000000   -3882.1982    3298.3533    13079.131   -1045.9955    8226.5469    313.43506    15422 
127000000   -3797.6989    3505.7224    13053.123   -989.40963    8292.8309    312.81179    15389 
128000000   -3726.4503    3535.5893    12801.909   -1002.6974     8264.737    306.79156    15387 
129000000   -3816.4876      3431.36    12918.553   -987.67742     8235.525    309.58689    15403 
130000000   -3792.0378    3338.4134    12904.689   -1061.6363    8192.0875    309.25464    15391 
131000000   -3867.2688    3389.3568    12929.559   -964.14579    8220.7714    309.85063    15421 
132000000   -3860.1133    3366.8457    12971.017   -1023.0214    8249.9804    310.84416    15425 
133000000   -3824.0287     3369.611    12949.358   -1082.3763     8276.016     310.3251    15417 
134000000   -3812.6009    3518.8019    12989.993   -941.73152    8273.1344    311.29891    15392 
135000000   -3944.2867    3346.6707    12884.847   -1051.4075    8342.3649    308.77914    15428 
136000000   -3868.0511    3368.2125    12935.187     -1043.92    8280.1836     309.9855    15411 
137000000   -3816.4781    3429.6507    12964.999    -948.1135    8194.2423    310.69995    15388 
138000000   -3910.9208    3299.6232    12902.255   -1032.7167    8243.2608    309.19631    15414 
139000000   -3764.4414    3604.4222    13030.751   -956.38057    8325.2442    312.27565    15397 
140000000   -3825.1628    3353.5844    12967.153   -1200.6266    8379.3738    310.75156    15430 
141000000   -3804.0449    3467.7444     12805.95   -929.70004    8201.4893     306.8884    15381 
142000000   -3795.8355    3417.9931    12829.029   -1013.1193    8226.9479    307.44149    15422 
143000000   -3797.0798    3425.0423    13031.523   -904.69278     8126.815    312.29415    15405 
144000000   -3721.2638    3412.8433     12793.94   -1024.8273    8158.9344    306.60059    15390 
145000000   -3829.0193    3362.3002    12893.863    -1018.344    8209.6635    308.99519    15415 
146000000   -3849.5978    3447.7625    12933.704   -1029.8172    8327.1775    309.94996    15408 
147000000   -3806.1173    3576.8256     12863.64   -859.96015    8242.9031    308.27092    15384 
148000000   -3858.8171    3558.4306    12822.376   -891.64885    8308.8966    307.28206    15386 
149000000   -3829.7055     3365.822    12907.976    -1019.815    8215.3425    309.33342    15400 
150000000   -3784.4042    3550.2381    12980.633   -908.60164     8243.244     311.0746    15393 
151000000   -3725.0731    3730.3521    12816.371   -851.86325    8307.2885    307.13813    15386 
152000000    -3778.851    3476.0416    12832.741   -1008.7991    8263.6917    307.53045    15410 
153000000   -3823.2007    3275.4476    13074.598   -1123.9221    8222.5703    313.32644    15420 
154000000   -3869.1596    3442.3784    13036.255   -950.84012    8262.3781    312.40755    15394 
155000000   -3775.4483    3609.5459    13024.659   -896.52976     8281.524    312.12967    15380 
156000000   -3773.5278     3457.987    12880.917   -990.26564    8221.7805    308.68495    15401 
157000000   -3819.4708    3603.6662    12796.699    -922.7761    8345.9131    306.66672    15388 
158000000   -3771.0272    3363.8483     12967.45    -1037.917    8172.7925    310.75867    15396 
159000000   -3738.7625    3514.4925    12846.138   -969.00875    8222.2638     307.8515    15405 
160000000    -3778.616    3259.1124    12778.934   -1288.4779    8326.2063    306.24098    15421 
161000000   -3845.1027    3434.5173    12939.258   -1015.1258    8294.7457    310.08307    15387 
162000000   -3900.0796    3199.9851    12977.019   -1054.1539    8154.2185    310.98799    15426 
163000000   -3724.7812    3469.4924    12993.469   -971.58349     8165.857     311.3822    15391 
164000000   -3858.7029    3421.7204    12962.291   -1027.3023    8307.7256    310.63504    15398 
165000000   -3781.6633    3420.0737    12971.325   -996.25133    8197.9883    310.85155    15410 
166000000   -3743.0502    3517.0362    12878.142   -1017.9056    8277.9919    308.61846    15409 
167000000   -3852.0859    3383.9605    12877.249   -962.69331    8198.7397    308.59707    15401 
168000000   -3731.9047    3386.7988    12955.719   -1041.4329    8160.1364    310.47755    15414 
169000000   -3822.9035    3386.0315     12990.28   -1007.7607    8216.6958    311.30579    15383 
170000000    -3808.318    3412.8152    12876.436   -968.33409    8189.4673    308.57758    15409 
171000000    -3824.045    3410.8358    12932.608   -1033.3835    8268.2643    309.92371    15409 
172000000     -3820.46    3513.1265    12950.414   -997.73784    8331.3244    310.35043    15403 
173000000   -3917.3919    3335.4155    12928.466    -1059.931    8312.7384    309.82444    15417 
174000000   -3863.8728    3358.4631    12948.405   -988.20289    8210.5388    310.30228    15408 
175000000   -3827.1265    3541.1554     12942.08   -916.75667    8285.0385     310.1507    15404 
176000000   -3921.2984    3407.5918    12934.228   -897.17919    8226.0694    309.96253    15393 
177000000   -3804.4085    3389.4721    12820.781   -1016.6953    8210.5759    307.24383    15391 
178000000   -3954.7834    3283.2517    12941.697    -1038.394    8276.4291    310.14153    15416 
179000000   -3819.1256    3597.4999    12963.241   -914.73893    8331.3645    310.65781    15390 
180000000   -3828.3924    3315.9699    12703.934   -1007.3366    8151.6988    304.44366    15392 
181000000   -3894.7253    3190.7856    12825.405   -1122.6594    8208.1703    307.35463    15425 
182000000   -3778.4409     3346.183     13070.78   -946.57133    8071.1952    313.23492    15398 
183000000   -3872.1159    3348.6442    12917.034   -1018.7487    8239.5088    309.55048    15397 
184000000   -3794.2552    3407.9169    12926.495   -978.52857    8180.7006    309.77722    15409 
185000000   -3808.6468    3494.5771    12841.857   -993.35294    8296.5768    307.74891    15401 
186000000   -3796.0001    3314.6987    13025.719   -1118.0538    8228.7526    312.15508    15423 
187000000   -3758.7043    3625.1255    13134.364   -931.98165    8315.8115     314.7587    15394 
188000000   -3731.5561    3390.6367     12979.92   -1010.6323    8132.8251    311.05751    15410 
189000000   -3859.0179    3327.9939     12996.91   -1074.8533    8261.8651    311.46466    15416 
190000000   -3922.7887    3361.5013    12961.831   -957.47643    8241.7665    310.62402    15393 
191000000   -3811.6951    3295.3671    12978.484   -1094.2696    8201.3318    311.02311    15421 
192000000   -3859.5242      3471.05    12981.351   -971.12235    8301.6965     311.0918    15401 
193000000   -3857.8993    3419.5815    12881.301   -1005.9887    8283.4695    308.69415    15405 
194000000   -3798.7886    3633.2068    12917.155   -851.60515    8283.6006    309.55339    15385 
195000000    -3767.423    3199.7143    12946.435   -1233.2526    8200.3898    310.25506    15416 
196000000   -3837.8461    3431.3428     12974.58   -1046.1515    8315.3404    310.92955    15411 
197000000    -3656.642    3742.8011     12893.25   -972.12252    8371.5656    308.98051    15384 
198000000    -3797.204    3493.9887    12970.784   -1086.5649    8377.7576    310.83857    15400 
199000000   -3839.4613    3474.9484    12931.197   -962.25795    8276.6677     309.8899    15397 
200000000    -3829.248    3464.7956    13034.243   -967.51801    8261.5616    312.35934    15410 
201000000   -3878.5785    3386.2753    12999.073   -979.57708    8244.4309     311.5165    15411 
202000000   -3696.2975    3578.8283    12794.995   -949.06404    8224.1899    306.62588    15402 
203000000   -3873.2383    3378.0102    12926.377   -1022.3583    8273.6068    309.77439    15417 
204000000   -3882.7788    3533.0922    13028.632   -987.37571    8403.2467    312.22488    15405 
205000000   -3775.9436    3446.5006    12949.534   -960.05903    8182.5032    310.32932    15393 
206000000   -3749.1398    3507.0077    12953.569   -1049.8548    8306.0023    310.42604    15403 
207000000   -3891.9966    3330.8176     12889.85   -1017.4806    8240.2948    308.89903    15400 
208000000    -3802.539    3488.0567    13058.488   -1029.3698    8319.9654    312.94036    15421 
209000000    -3862.605    3424.6317    12783.848   -1032.2498    8319.4865    306.35875    15414 
210000000    -3816.174    3444.1718    13164.243   -919.32921     8179.675    315.47473    15398 
211000000   -3757.1789    3539.5578    12885.034   -970.78687    8267.5236    308.78362    15400 
212000000   -3728.5779    3523.9217    12806.356   -972.79881    8225.2983    306.89814    15397 
213000000   -3812.2063    3540.2878    12962.174   -973.19156    8325.6857    310.63224    15409 
214000000   -3857.6338    3317.3406     12970.26    -1009.915    8184.8894    310.82601    15395 
215000000   -3847.1879    3336.7109    13050.487   -1024.7453    8208.6441    312.74862    15414 
216000000   -3841.8747    3391.7614    12921.883   -962.01584    8195.6519    309.66668    15396 
217000000   -3910.0874    3355.9889    12887.904   -1032.3307     8298.407    308.85241    15414 
218000000   -3846.6452    3252.9473    12954.567   -1071.5878    8171.1803    310.44994    15425 
219000000   -3898.1095    3464.0703    13020.299   -939.12785    8301.3076    312.02518    15387 
220000000    -3894.432    3195.7147    13007.106   -1002.1384    8092.2851    311.70902    15429 
221000000   -3808.0439    3423.9692    12898.763   -965.36036    8197.3735    309.11263    15406 
222000000   -3845.8603    3394.7779    13000.753   -1029.2439    8269.8821    311.55678    15403 
223000000   -3848.4217    3361.5777    12907.519   -994.30587    8204.3053    309.32245    15411 
224000000   -3782.1011    3391.9181    13059.978   -958.27115    8132.2903    312.97606    15399 
225000000   -3810.4205    3319.7788    12937.794   -986.93284    8117.1321      310.048    15415 
226000000   -3851.8228     3354.389    12719.246   -1007.7852     8213.997    304.81059    15425 
227000000    -3772.606    3446.9658    12854.061   -945.12995    8164.7018    308.04136    15401 
228000000   -3776.0348    3414.8327    12996.369   -1060.9957    8251.8633    311.45171    15407 
229000000   -3749.3371     3546.575    12853.645   -994.96271    8290.8749    308.03139    15409 
230000000    -3782.998    3532.6321     12953.77   -995.62198     8311.252    310.43086    15411 
231000000   -3840.3497    3349.9792    12837.803   -1065.6692    8255.9981    307.65174    15408 
232000000   -3776.5072    3644.6475    12939.486   -903.02739     8324.182    310.08854    15393 
233000000   -3823.2409    3467.4972    12828.979   -904.75099     8195.489    307.44029    15417 
234000000   -3826.9178    3622.4724     12768.58   -845.19702    8294.5872    305.99285    15368 
235000000   -3818.0897      3470.18    12951.613   -963.69735    8251.9671    310.37916    15387 
236000000   -3689.6919    3476.0245    12765.252   -998.74736    8164.4638     305.9131    15410 
237000000   -3858.4078    3367.0313    13050.408   -1035.1336    8260.5726    312.74673    15413 
238000000   -3795.9528    3564.6412    12920.544   -963.55995     8324.154    309.63459    15413 
239000000   -3825.1059    3432.1943    12948.476   -1098.7554    8356.0556    310.30399    15425 
240000000   -3726.7266    3631.6648    12978.869    -980.4173    8338.8087    311.03234    15399 
241000000   -3868.5913    3483.6999    12978.916   -964.39902    8316.6903    311.03347    15419 
242000000   -3873.7915    3178.1418     12964.22   -1110.4207    8162.3541    310.68128    15414 
243000000   -3755.5808    3427.6962    12843.991   -1086.9308    8270.2078    307.80003    15429 
244000000   -3837.0986    3349.6125    12910.298   -1057.8146    8244.5258    309.38907    15426 
245000000   -3835.2038    3402.3182    12934.548   -1074.8062    8312.3281    309.97019    15408 
246000000   -3808.7973    3487.0342    12982.287   -971.62227    8267.4538    311.11424    15399 
247000000   -3840.8958    3500.1729     12813.12   -979.51055    8320.5793    307.06024    15419 
248000000   -3866.6701    3443.2376    12767.988   -952.99875    8262.9064    305.97867    15389 
249000000    -3873.444    3252.1127    13041.313   -1072.4966    8198.0534    312.52878    15414 
250000000   -3879.9192    3413.7084    12933.273   -967.21918    8260.8467    309.93964    15404 
251000000    -3797.927    3455.4604    12952.937   -1000.2757     8253.663    310.41089    15414 
252000000   -3758.0563    3580.7818    12982.358   -920.56304    8259.4011    311.11593    15386 
253000000    -3769.477    3465.3828    12834.571   -970.67069    8205.5305     307.5743    15418 
254000000   -3840.7626    3437.0665    12959.757   -959.36865    8237.1978    310.57431    15389 
255000000   -3822.7356    3556.9643    13010.286   -991.21938    8370.9193    311.78522    15409 
256000000   -3932.0925    3311.2427    12924.033   -1038.7733    8282.1085    309.71821    15418 
257000000   -3813.2435    3617.4983    13012.737   -894.28814    8325.0299    311.84397    15400 
258000000   -3734.8082    3576.0822    13106.328   -950.41872    8261.3091    314.08681    15410 
259000000   -3814.9988     3403.558    12782.644   -994.97655    8213.5334     306.3299    15396 
260000000   -3712.2997    3483.0812    12788.313   -1014.5729    8209.9538    306.46574    15397 
261000000    -3741.522    3469.9784    12846.217   -1008.3712    8219.8716    307.85339    15386 
262000000   -3779.9724    3589.2143    12876.802   -981.76633     8350.953    308.58635    15394 
263000000   -3785.3625     3462.291    12988.682   -983.31827    8230.9718    311.26749    15396 
264000000   -3831.0233    3417.3936     13041.75    -981.4113    8229.8282    312.53925    15396 
265000000   -3882.0792     3400.188    12794.704   -1049.1534    8331.4207     306.6189    15408 
266000000   -3805.0458    3510.6311    13008.585   -920.89613    8236.5731    311.74446    15396 
267000000   -3707.0644    3547.7937    12854.724   -1073.3212    8328.1792    308.05725    15395 
268000000   -3767.7991    3516.3477    12819.718   -1056.0366    8340.1833    307.21836    15420 
269000000    -3812.693    3548.2822    12926.723   -941.46141    8302.4367    309.78267    15390 
270000000   -3822.4025    3445.1155    12897.252    -995.0613    8262.5793    309.07642    15412 
271000000   -3816.3753    3436.0327    13059.526   -1002.5991    8255.0072    312.96523    15412 
272000000   -3800.9774    3321.5702    12801.307   -1050.0113    8172.5589    306.77714    15404 
273000000   -3835.0801    3488.4335    12890.795   -922.75359    8246.2672    308.92167    15378 
274000000   -3721.6097    3488.4161    12896.103   -1003.9486    8213.9743    309.04889    15407 
275000000    -3716.692    3558.3459    12970.122   -993.58358    8268.6216    310.82271    15406 
276000000   -3692.2118    3694.8348     12831.18   -924.69106    8311.7377    307.49303    15390 
277000000   -3729.1719    3519.0601    13025.976   -1039.8206    8288.0526    312.16124    15408 
278000000   -3865.7149    3389.5008    13016.844   -1026.2313    8281.4469    311.94238    15422 
279000000   -3695.3249    3567.7345    12950.716   -969.10999    8232.1694    310.35766    15382 
280000000    -3851.724    3338.5183    12865.652   -1069.4666    8259.7089    308.31914    15419 
281000000   -3820.4739    3416.3503    12875.414   -941.87113    8178.6952    308.55307    15395 
282000000   -3814.7902     3249.548    13086.344    -1121.624    8185.9621    313.60793    15421 
283000000   -3765.3203    3411.5764    13008.614   -1038.9136    8215.8104    311.74515    15412 
284000000   -3828.2906    3424.1102    12843.788   -987.26526    8239.6661    307.79517    15399 
285000000   -3906.5044    3455.6492    12928.643   -944.44538    8306.5989    309.82868    15410 
286000000   -3737.9231    3684.1077    12914.645   -963.72246    8385.7532    309.49322    15410 
287000000   -3768.4794    3505.7941    12940.394   -983.92698    8258.2005    310.11031    15392 
288000000   -3736.1068    3540.8171    12938.735   -931.18311     8208.107    310.07054    15392 
289000000     -3827.21    3429.4508    12851.608   -1023.3616    8280.0225    307.98258    15407 
290000000   -3803.8787    3582.3783    12958.001   -882.42473    8268.6817    310.53224    15400 
291000000   -3829.4141    3453.1675     12789.54   -991.25823    8273.8399    306.49514    15410 
292000000   -3861.4686    3371.0438    13008.298   -982.11955     8214.632    311.73758    15421 
293000000    -3834.691    3454.4522    12963.509    -953.5365    8242.6798    310.66423    15417 
294000000   -3710.7685    3574.4754    12862.039   -985.18887    8270.4328    308.23256    15403 
295000000   -3820.0594    3590.2019    12792.336   -869.23436    8279.4957    306.56216    15384 
296000000   -3776.5522    3300.0864    12773.281   -1105.7846    8182.4232    306.10552    15423 
297000000   -3828.0973    3503.9444    12990.887   -882.50037     8214.542    311.32034    15375 
298000000   -3801.1032    3479.0305    12944.514   -1054.6051    8334.7388    310.20902    15399 
299000000   -3846.7068    3448.3127    12914.391   -926.16435    8221.1839    309.48714    15402 
300000000   -3958.5172    3366.1218    12981.837   -963.70499     8288.344    311.10346    15404 
301000000   -3868.5586    3280.2988    12817.823   -1083.4772    8232.3345    307.17294    15419 
302000000   -3892.5371    3269.2685    13099.489   -1060.1135    8221.9192    313.92293    15417 
303000000   -3853.5209    3252.0394    12908.921   -1002.1337     8107.694    309.35607    15389 
304000000   -3855.4845    3282.9648    12894.679   -1076.1916    8214.6408    309.01475    15406 
305000000    -3767.156    3536.7766    12853.242   -936.09575    8240.0283    308.02174    15393 
306000000   -3775.6664    3388.6217    12898.023   -1034.6578    8198.9459     309.0949    15397 
307000000   -3797.4904    3544.2995    12931.517   -994.16189    8335.9518    309.89755    15403 
308000000     -3875.74    3286.1267    12858.311   -1027.8217    8189.6885    308.14321    15430 
309000000    -3788.798    3392.7605    12822.534   -1012.6695     8194.228    307.28585    15396 
310000000   -3794.0951     3505.797    13009.843   -972.83774    8272.7299    311.77462    15402 
311000000   -3789.0861    3515.1121    12900.929   -984.61467    8288.8129    309.16454    15394 
312000000   -3848.5294    3467.4345    13007.658   -961.48245    8277.4464    311.72225    15402 
313000000   -3795.9254    3405.4496    13045.383   -989.08319    8190.4582    312.62629    15423 
314000000   -3779.7487    3226.4273    12939.955   -1083.1527    8089.3286    310.09979    15426 
315000000   -3840.7173    3521.2924    13071.573   -928.01423    8290.0239    313.25393    15402 
316000000   -3862.7187    3365.2347     12979.31   -893.32486    8121.2782    311.04291    15400 
317000000   -3842.0351    3438.8715    12932.971   -979.64786    8260.5545    309.93241    15401 
318000000    -3744.072    3517.2178    13114.723    -933.0827    8194.3725    314.28801    15383 
319000000   -3697.2011    3435.3547    12784.287   -1084.2311    8216.7869    306.36926    15414 
320000000   -3849.7505    3348.3311     12829.73   -958.18317    8156.2648    307.45828    15397 
321000000   -3836.5465    3463.5401    12854.285   -988.31267    8288.3993    308.04673    15406 
322000000   -3793.9351    3491.6671    12974.271   -962.76631    8248.3686    310.92215    15419 
323000000   -3735.0034    3541.2703    13000.907   -986.64831     8262.922    311.56045    15403 
324000000    -3809.122     3536.089    12915.241   -936.67132    8281.8823    309.50751    15377 
325000000   -3911.9347    3317.8877    12875.289   -1032.7264    8262.5489    308.55009    15428 
326000000   -3779.2185    3492.5898    13088.307   -906.59729    8178.4056    313.65496    15398 
327000000   -3883.4906     3479.097    12909.679   -990.11327    8352.7009    309.37421    15416 
328000000   -3834.2742     3492.935    12995.732   -978.46305    8305.6722    311.43643    15384 
329000000   -3830.8727    3501.6777    12921.741   -957.52244    8290.0728    309.66329    15425 
330000000    -3869.081    3327.9961    12982.687   -1071.8363    8268.9135    311.12383    15421 
331000000   -3709.7489    3640.5701    12935.405   -959.10322    8309.4222    309.99074    15392 
332000000   -3817.5683     3533.217    13044.214   -905.87775     8256.663    312.59829    15401 
333000000   -3790.4372    3335.3047    12729.291   -1133.7236    8259.4656     305.0513    15408 
334000000   -3800.2769    3640.8446    12931.641   -838.90116    8280.0227    309.90054    15386 
335000000   -3864.4006    3384.9356    12941.136   -998.81901    8248.1552    310.12807    15432 
336000000    -3857.157    3598.1122    12986.955   -937.98036    8393.2497     311.2261    15405 
337000000   -3715.2962    3473.7457    13030.015   -1063.5102    8252.5521    312.25801    15411 
338000000   -3812.1316    3540.7612    12767.376   -974.22118     8327.114    305.96401    15426 
339000000   -3797.8814    3553.5301    12785.772   -924.34667    8275.7582    306.40486    15389 
340000000   -3839.3906    3502.9819    12910.747   -1057.0002    8399.3727    309.39981    15421 
341000000   -3805.9512    3410.6719    12898.248    -1081.228    8297.8511     309.1003    15422 
342000000   -3758.3892    3458.3927    12931.355   -984.18362    8200.9655    309.89368    15416 
343000000   -3735.1499    3607.8449    12988.749   -996.61549    8339.6103    311.26911    15416 
344000000   -3731.8955    3571.1773    12891.923   -958.85556    8261.9284    308.94871    15420 
345000000   -3757.9567    3481.9702    12905.575   -1030.1531      8270.08    309.27587    15413 
346000000    -3926.714    3159.4123    12942.155   -1085.8505    8171.9768    310.15249    15427 
347000000   -3801.5755    3448.8679    12960.283   -1058.9478    8309.3912    310.58693    15414 
348000000   -3795.0893     3383.875     12962.98     -1036.51    8215.4743    310.65155    15399 
349000000   -3765.1652    3542.8127    12781.705   -952.90027    8260.8782    306.30739    15412 
350000000   -3718.0523    3551.8538     12938.66   -985.69368    8255.5998    310.06874    15394 
351000000   -3738.2382    3598.2644    12958.088   -1048.1064     8384.609    310.53431    15400 
352000000   -3838.2429    3534.9747    12910.275   -1069.1485    8442.3661    309.38852    15422 
353000000   -3807.4965    3693.9281    12997.303   -883.18884    8384.6134     311.4741    15389 
354000000   -3863.9677    3427.6301    12937.708   -1068.1527    8359.7505    310.04593    15417 
355000000   -3809.1481    3513.3403    12771.738   -1013.8774    8336.3658    306.06854    15409 
356000000   -3723.7009    3617.1075    12910.661   -908.92567    8249.7341    309.39776    15365 
357000000   -3745.4586    3394.1899    12823.593   -998.48099    8138.1294    307.31122    15401 
358000000   -3934.9961    3226.5048    13077.672   -1089.4048    8250.9057    313.40011    15428 
359000000   -3761.7522    3590.6118    12956.199   -942.22642    8294.5905    310.48905    15395 
360000000   -3831.4362    3250.1886    12930.198   -1047.0423    8128.6672    309.86595    15421 
361000000   -3739.7305    3502.8796    13097.215   -919.31721    8161.9273    313.86844    15393 
362000000   -3851.2526    3478.8127    12865.632    -913.8602    8243.9255    308.31865    15384 
363000000   -3771.0882    3535.2297    13013.547    -929.4339    8235.7518    311.86338    15401 
364000000   -3939.3753    3218.3559     13121.38    -1199.623    8357.3543    314.44754    15444 
365000000   -3779.5629    3236.6312    12801.465   -1102.4993    8118.6935    306.78093    15415 
366000000   -3828.3402    3456.3209    12848.463   -1076.7143    8361.3754    307.90721    15410 
367000000   -3901.0684    3110.8048    12887.755   -1121.9819    8133.8551    308.84883    15417 
368000000   -3830.4161    3460.1863    12884.449   -875.60545    8166.2079     308.7696    15399 
369000000   -3798.0127    3413.9078    13014.522   -939.60676    8151.5273    311.88674    15420 
370000000   -3819.4319    3351.7206    12856.384   -1061.9662    8233.1187    308.09703    15420 
371000000   -3859.3172    3312.1031    12863.604   -1043.7762    8215.1964    308.27006    15401 
372000000   -3783.2636    3550.9302    12910.103   -945.74384    8279.9376    309.38438    15402 
373000000   -3722.0832    3559.5728    12884.548   -896.47607    8178.1321    308.77196    15388 
374000000   -3850.0541    3356.1889    12911.519   -1033.8874    8240.1303    309.41833    15412 
375000000   -3859.0305    3232.7965    13087.686   -1195.6932    8287.5202    313.64007    15421 
376000000   -3931.1971    3183.9857    12915.432    -1096.409    8211.5918    309.51209    15421 
377000000   -3867.4482    3463.4139    12883.754   -925.37785      8256.24    308.75296    15401 
378000000   -3772.0473    3417.2804    12895.469   -1017.6468    8206.9744     309.0337    15407 
379000000   -3916.9858    3336.4621    12952.475   -987.18297    8240.6309    310.39981    15418 
380000000    -3860.764    3318.4675     12860.41   -1025.7372    8204.9687    308.19351    15417 
381000000    -3761.777    3468.2558    12977.148   -1043.8036    8273.8365    310.99108    15400 
382000000   -3813.7954    3451.9162    12770.338    -990.5783    8256.2899    306.03498    15414 
383000000   -3878.0052    3377.1743    12932.449   -1117.9136    8373.0932     309.9199    15421 
384000000    -3898.739     3523.511    12983.877   -849.03715    8271.2872    311.15235    15395 
385000000   -3824.0673    3366.5225    12942.514   -970.93063    8161.5204    310.16111    15394 
386000000   -3830.6014    3323.0092    12986.497   -1020.0807    8173.6914    311.21514    15400 
387000000   -3825.3357    3469.1562    13105.766   -940.83911    8235.3311    314.07336    15396 
388000000   -3870.8759    3370.7757    12875.615   -1066.4753    8308.1269     308.5579    15436 
389000000   -3899.2573    3487.3062    12876.435   -946.22887    8332.7924    308.57754    15414 
390000000   -3853.7399    3359.6584    13004.711   -963.09085    8176.4891    311.65162    15377 
391000000   -3905.8316      3378.68    12866.264   -950.01644    8234.5281     308.3338    15387 
392000000   -3950.9981    3222.2493    12841.187   -1039.6496    8212.8971    307.73284    15412 
393000000   -4009.2176    3192.2621    12921.902   -1091.4794    8292.9591    309.66715    15436 
394000000   -3902.9988    3396.8107    12845.284   -956.99391    8256.8034    307.83102    15398 
395000000   -3784.8599    3490.3543    12917.725   -885.76785    8160.9821    309.56705    15396 
396000000   -3825.4289    3305.9799    12905.441   -1051.7493    8183.1581    309.27267    15413 
397000000   -3956.9337    3460.7069    12958.037   -869.76915    8287.4098    310.53309    15395 
398000000    -3818.742    3395.9857    12725.389   -1037.7585    8252.4862    304.95781    15424 
399000000    -3851.035    3274.4407    12876.462   -1118.0334    8243.5091    308.57819    15423 
400000000   -3820.0132    3419.9125    12986.884   -1001.5937    8241.5193     311.2244    15414 
Loop time of 164071 on 28 procs for 400000000 steps with 14000 atoms

Performance: 5266.008 ns/day, 0.005 hours/ns, 2437.967 timesteps/s
99.5% CPU use with 28 MPI tasks x no OpenMP threads

MPI task timing breakdown:
Section |  min time  |  avg time  |  max time  |%varavg| %total
---------------------------------------------------------------
Pair    | 18614      | 23462      | 25679      |1198.6 | 14.30
Bond    | 4627.9     | 5994.4     | 8575       |2144.9 |  3.65
Neigh   | 53711      | 54480      | 55346      | 200.9 | 33.21
Comm    | 37522      | 45624      | 55780      |1777.7 | 27.81
Output  | 0.67353    | 0.67443    | 0.67549    |   0.1 |  0.00
Modify  | 21371      | 21619      | 22115      | 172.3 | 13.18
Other   |            | 1.289e+04  |            |       |  7.86

Nlocal:    500 ave 523 max 474 min
Histogram: 1 0 4 4 2 6 4 4 2 1
Nghost:    869.321 ave 1163 max 561 min
Histogram: 2 2 2 4 6 3 1 2 1 5
Neighs:    6878.29 ave 7993 max 5474 min
Histogram: 3 2 2 0 5 3 2 4 2 5

Total # of neighbors = 192592
Ave neighs/atom = 13.7566
Ave special neighs/atom = 8.80371
Neighbor list builds = 79940570
Dangerous builds = 0
System init for write_restart ...
Total wall time: 45:34:39
