LAMMPS (5 Jun 2019)
Reading restart file ...
  restart file = 5 Jun 2019, LAMMPS = 5 Jun 2019
  restoring atom style full from restart
  orthogonal box = (-420 -420 -420) to (420 420 420)
  2 by 2 by 7 MPI processor grid
  restoring pair style lj/cut from restart
  restoring bond style hybrid from restart
  restoring angle style cosine from restart
  14000 atoms
  15428 bonds
  13600 angles
Finding 1-2 1-3 1-4 neighbors ...
  special bond factors lj:   0          1          1         
  special bond factors coul: 0          0          0         
  3 = max # of 1-2 neighbors
  4 = max # of 1-3 neighbors
  8 = max # of 1-4 neighbors
  56 = max # of special neighbors
  special bonds CPU = 0.85599 secs
  read_restart CPU = 1.96319 secs
Finding 1-2 1-3 1-4 neighbors ...
  special bond factors lj:   0          1          1         
  special bond factors coul: 0          0          0         
  3 = max # of 1-2 neighbors
  4 = max # of 1-3 neighbors
  8 = max # of 1-4 neighbors
  40224 = # of 1-3 neighbors before angle trim
  27200 = # of 1-3 neighbors after angle trim
  56 = max # of special neighbors
  special bonds CPU = 0.00187734 secs
Neighbor list info ...
  update every 1 steps, delay 1 steps, check yes
  max neighbors/atom: 2000, page size: 100000
  master list distance cutoff = 26.9
  ghost atom cutoff = 26.9
  binsize = 13.45, bins = 63 63 63
  1 neighbor lists, perpetual/occasional/extra = 1 0 0
  (1) pair lj/cut, perpetual
      attributes: half, newton on
      pair build: half/bin/newton
      stencil: half/bin/3d/newton
      bin: standard
Setting up Verlet run ...
  Unit style    : real
  Current step  : 400000000
  Time step     : 0.1
Per MPI rank memory allocation (min/avg/max) = 1.103 | 7.659 | 16.74 Mbytes
Step Temp E_pair E_mol TotEng Press 
400000000    307.27474   -3863.8919    7230.4039    16188.583   0.11579035 
400010000    310.84988   -3842.4525    7215.4784    16344.282 -0.029879649 
Loop time of 6.25545 on 28 procs for 10000 steps with 14000 atoms

Performance: 13.812 ns/day, 1.738 hours/ns, 1598.606 timesteps/s
99.5% CPU use with 28 MPI tasks x no OpenMP threads

MPI task timing breakdown:
Section |  min time  |  avg time  |  max time  |%varavg| %total
---------------------------------------------------------------
Pair    | 0.00033802 | 0.51822    | 3.3928     | 134.5 |  8.28
Bond    | 0.00053379 | 0.11103    | 0.64066    |  54.7 |  1.77
Neigh   | 0.025092   | 0.026367   | 0.028766   |   0.8 |  0.42
Comm    | 0.0018702  | 2.0353     | 4.6421     | 134.4 | 32.54
Output  | 0.00044843 | 0.00085549 | 0.0012743  |   0.0 |  0.01
Modify  | 0.00096537 | 0.24135    | 1.3673     |  79.9 |  3.86
Other   |            | 3.322      |            |       | 53.11

Nlocal:    500 ave 2868 max 0 min
Histogram: 17 3 4 0 0 0 0 2 0 2
Nghost:    493.143 ave 1992 max 0 min
Histogram: 13 3 2 3 3 0 0 0 2 2
Neighs:    6877.79 ave 42164 max 0 min
Histogram: 19 3 2 0 0 0 0 2 1 1

Total # of neighbors = 192578
Ave neighs/atom = 13.7556
Ave special neighs/atom = 7.89971
Neighbor list builds = 8
Dangerous builds = 0
4000 atoms in group rxnSites
Neighbor list info ...
  update every 1 steps, delay 1 steps, check yes
  max neighbors/atom: 2000, page size: 100000
  master list distance cutoff = 26.9
  ghost atom cutoff = 26.9
  binsize = 13.45, bins = 63 63 63
  2 neighbor lists, perpetual/occasional/extra = 1 1 0
  (1) pair lj/cut, perpetual
      attributes: half, newton on
      pair build: half/bin/newton
      stencil: half/bin/3d/newton
      bin: standard
  (2) fix bond/create/random, occasional, copy from (1)
      attributes: half, newton on
      pair build: copy
      stencil: none
      bin: none
Setting up Verlet run ...
  Unit style    : real
  Current step  : 0
  Time step     : 25
Per MPI rank memory allocation (min/avg/max) = 17.81 | 18.21 | 19.17 Mbytes
Step E_pair PotEng KinEng E_bond E_angle Temp Bonds 
       0   -3842.4525    3373.0258    12971.256   -1083.8487     8299.327    310.84988    15428 
 1000000   -3786.7751     3584.417    13020.784   -981.26677    8352.4588     312.0368    15409 
 2000000   -3742.4492    3671.1998    12960.633   -911.33309    8324.9821    310.59531    15377 
 3000000   -3756.4608    3272.2217    12849.134   -1121.6923    8150.3748     307.9233    15417 
 4000000   -3883.4746    3373.7587    12977.613   -1054.1612    8311.3944    311.00223    15394 
 5000000   -3807.3705    3412.0606    13014.117   -994.70458    8214.1357    311.87703    15394 
 6000000   -3763.5701    3422.8921    12901.255   -978.85364    8165.3159    309.17235    15402 
 7000000   -3845.8495    3491.2539    13023.685   -1021.7785    8358.8819    312.10632    15424 
 8000000   -3800.2541    3286.4732    12851.399   -1084.8233    8171.5506    307.97757    15424 
 9000000   -3775.2305    3642.3297    12934.741   -942.48493    8360.0451    309.97482    15405 
10000000   -3827.4417    3504.8185    12897.923   -1016.1693    8348.4295    309.09249    15407 
11000000   -3677.1759    3587.6426    12979.046   -955.63761    8220.4561    311.03656    15385 
12000000   -3815.3362    3583.5633    12900.297   -933.55844     8332.458     309.1494    15386 
13000000   -3817.4944    3447.9838    12966.553   -1044.8582    8310.3364    310.73719    15407 
14000000   -3765.6717    3613.9183    12968.234   -873.42588    8253.0159    310.77747    15370 
15000000   -3730.4141    3388.6951    12864.674   -956.34981     8075.459     308.2957    15403 
16000000   -3884.8761    3262.5315    12979.547   -1051.4218    8198.8294    311.04858    15399 
17000000   -3801.6162    3491.5236    12910.216    -1023.413    8316.5528    309.38709    15409 
18000000    -3746.932    3550.2696    13073.247   -1003.7499    8300.9515    313.29405    15391 
19000000   -3798.4375    3447.0836    12994.955   -1008.0885    8253.6096    311.41782    15425 
20000000   -3762.2889    3644.6935    12860.503    -970.8333    8377.8158    308.19575    15402 
21000000   -3895.8536    3271.3649    13181.443   -1094.6472    8261.8657    315.88692    15421 
22000000   -3850.5498    3297.7819    12812.094   -1190.6255    8338.9571    307.03566    15411 
23000000   -3803.1515    3568.1489    12879.433   -937.99422    8309.2946     308.6494    15394 
24000000     -3822.78    3489.9064    13057.205   -1014.4809    8327.1673    312.90962    15409 
25000000   -3787.2027    3383.0552    12894.758   -968.40345    8138.6613    309.01664    15388 
26000000   -3730.0912    3583.8227    12938.864   -1035.9926    8349.9064    310.07364    15401 
27000000   -3874.0067    3438.8092    12898.168   -916.05315     8228.869    309.09837    15398 
28000000   -3793.1631    3569.7255    13008.124   -881.86424    8244.7528    311.73342    15384 
29000000   -3746.8699    3537.3281    12860.285   -970.37871    8254.5766    308.19053    15409 
30000000   -3833.0135    3299.6877    12972.815     -1102.93    8235.6312    310.88725    15427 
31000000    -3752.676    3346.1845    12858.742   -1106.9383    8205.7988    308.15353    15407 
32000000   -3732.9309    3682.5208    12940.978    -861.4284    8276.8801    310.12429    15369 
33000000   -3767.5616    3564.4844    12965.281   -863.70783    8195.7538    310.70671    15400 
34000000   -3857.1661    3390.7306    13021.048   -972.36292    8220.2596    312.04314    15403 
35000000   -3811.0409    3520.5012    12871.607   -1016.3629     8347.905    308.46186    15414 
36000000   -3800.6258    3417.6468    12827.741   -1048.2886    8266.5613    307.41063    15383 
37000000   -3889.2472    3408.4242    12976.986   -960.83935    8258.5108    310.98721    15400 
38000000   -3846.2996    3370.2655    12926.775   -1006.8162    8223.3813    309.78393    15417 
39000000   -3768.2717    3477.8293    12874.919   -965.88329    8211.9843    308.54122    15416 
40000000   -3826.4917    3583.3391    12868.313    -914.3736    8324.2044    308.38291    15421 
41000000   -3886.4108    3182.3573    12912.575   -1122.2823    8191.0504    309.44363    15434 
42000000    -3921.575    3369.2038    13025.558   -979.16794    8269.9467    312.15121    15418 
43000000   -3795.1895    3345.0623    12962.726   -1073.2958    8213.5476    310.64546    15407 
44000000     -3872.05    3451.6087    12984.382   -1036.9888    8360.6476    311.16446    15402 
45000000   -3830.3797    3393.6962    12902.822   -1028.3804    8252.4563     309.2099    15416 
46000000   -3744.5526    3527.2421    12794.901   -908.58237    8180.3771    306.62363    15403 
47000000   -3847.4301    3336.6792    12864.515   -1003.6423    8187.7516    308.29188    15401 
48000000   -3776.2369    3500.3526    12946.566   -972.43119    8249.0207    310.25819    15422 
49000000   -3724.4224    3539.7187     12946.41   -947.96432    8212.1054    310.25447    15387 
50000000   -3857.2223    3424.0266    12914.828   -1013.7057    8294.9547    309.49762    15416 
51000000   -3912.1004    3347.8038    12931.389   -964.26647    8224.1707     309.8945    15406 
52000000    -3817.571    3463.4314    13034.637   -1068.4504    8349.4528    312.36877    15404 
53000000   -3841.0371    3459.6145    12889.357   -1033.2149    8333.8665    308.88721    15420 
54000000   -3735.2069    3603.6873    12754.768   -831.25732    8170.1515    305.66185    15382 
55000000   -3787.2716    3485.3999    12945.506   -957.83519    8230.5067    310.23279    15397 
56000000   -3761.1075    3524.7278    12792.574   -993.55967     8279.395    306.56786    15403 
57000000   -3837.1947    3346.6001    13015.117   -1104.6114    8288.4061    311.90099    15426 
58000000    -3910.104    3298.2477    12795.365   -1002.5328    8210.8845    306.63474    15404 
59000000   -3877.1399    3354.7951     12967.08   -1043.5584    8275.4935    310.74982    15413 
60000000   -3906.7734    3419.5572     12962.51   -883.54546     8209.876     310.6403    15402 
61000000   -3905.7905    3392.2551    12821.831    -895.4144      8193.46    307.26899    15396 
62000000   -3840.0313    3602.0814    13040.088   -851.43155    8293.5443    312.49941    15373 
63000000   -3907.1713     3340.947    12965.691   -1029.1806    8277.2989    310.71652    15407 
64000000   -3817.8809    3421.0909    12884.667   -958.27762    8197.2494    308.77483    15401 
65000000   -3734.8882    3623.7658    12728.987   -897.46464    8256.1187    305.04404    15392 
66000000   -3841.2443    3507.3416    12858.969   -921.26312     8269.849    308.15899    15390 
67000000   -3826.3022    3541.5984    12826.083   -963.52486    8331.4254     307.3709    15394 
68000000   -3773.6646    3477.6465    12981.478   -1015.1707    8266.4818    311.09486    15397 
69000000   -3752.6528    3443.5677    12871.806   -1031.8036    8228.0242    308.46661    15409 
70000000   -3751.7474    3450.0026    12905.118   -1031.7551    8233.5051    309.26491    15404 
71000000   -3738.4796    3381.8179     12969.35   -1044.7443    8165.0418    310.80421    15425 
72000000   -3866.8373    3425.2932    12901.646   -959.42181    8251.5523    309.18172    15412 
73000000    -3706.807    3613.8511    13005.086   -923.56679    8244.2249    311.66062    15391 
74000000   -3816.1517    3161.8639    12961.937   -1088.7028    8066.7184    310.62656    15411 
75000000   -3734.9373     3603.541    12941.335   -963.42578    8301.9041    310.13284    15403 
76000000   -3768.1799    3471.1685    12942.718   -1040.4146    8279.7629    310.16599    15413 
77000000   -3834.9442    3506.8296    12929.381   -954.03649    8295.8103    309.84637    15400 
78000000    -3858.019    3360.7936    12919.674   -989.90027    8208.7129    309.61375    15417 
79000000   -3844.4122    3455.3247    12865.779   -973.91328    8273.6502    308.32218    15383 
80000000   -3932.2978    3255.5729    12920.655   -1040.7102    8228.5809    309.63725    15413 
81000000   -3804.3223     3399.001    13021.797   -938.44474     8141.768    312.06109    15404 
82000000   -3866.4993    3149.6646    12996.504   -1117.2232    8133.3872    311.45494    15429 
83000000   -3860.7687    3529.7392    12901.432    -963.6599    8354.1679     309.1766    15421 
84000000   -3811.7535    3354.4905    12851.159   -1137.8381     8304.082    307.97183    15416 
85000000   -3794.7475     3506.852    13032.917   -968.17274    8269.7722    312.32755    15423 
86000000   -3861.6811    3441.9482        13046   -986.72648    8290.3557    312.64109    15398 
87000000   -3866.3421     3533.833    13001.601   -921.48527    8321.6604     311.5771    15413 
88000000   -3756.8859    3457.0262    13055.685   -928.56842    8142.4805    312.87318    15391 
89000000   -3791.4689    3498.6209    12888.956   -938.93004    8229.0198     308.8776    15392 
90000000    -3770.839    3569.5961    12885.338   -810.38991     8150.825     308.7909    15387 
91000000   -3783.9738    3647.9008    12895.299    -982.9103    8414.7849    309.02961    15383 
92000000   -3856.1103    3257.3085    13009.245   -1041.3429    8154.7616    311.76028    15408 
93000000    -3770.796    3630.4814    12923.536   -891.21553    8292.4929    309.70631    15387 
94000000    -3788.421    3528.3857    12730.291   -998.42268    8315.2294    305.07529    15409 
95000000   -3792.6278    3437.3981     12892.15   -1000.2133    8230.2391    308.95415    15418 
96000000   -3857.5633    3515.1433    12987.022   -924.67802    8297.3847    311.22771    15394 
97000000    -3782.144    3494.6483    12970.925   -1014.3531    8291.1455    310.84197    15415 
98000000   -3829.4508    3498.3129    12926.395   -1013.1602    8340.9238    309.77481    15393 
99000000   -3820.1487    3325.7152    12994.967   -1004.3171     8150.181    311.41812    15401 
100000000   -3914.1394      3258.96    12906.223   -1029.5682    8202.6676    309.29139    15407 
101000000   -3853.5723    3338.1556    12960.779   -1075.9878    8267.7158    310.59881    15435 
102000000   -3826.3134    3395.8048    12955.837   -1085.7254    8307.8436    310.48038    15409 
103000000   -3988.3228    3218.7391    12789.271   -1086.6825    8293.7444    306.48871    15439 
104000000   -3827.0905    3543.7337    12844.217   -920.45756    8291.2817    307.80545    15397 
105000000   -3709.5089     3539.179    12894.583   -989.44997    8238.1379    309.01247    15409 
106000000   -3850.1983    3266.8217    12942.033   -1119.6088    8236.6288    310.14956    15437 
107000000   -3802.1895    3524.5545     12889.01   -961.39915    8288.1431    308.87891    15397 
108000000   -3839.6177    3558.6387    12918.272   -1025.8089    8424.0652    309.58014    15412 
109000000   -3722.5272    3576.3595     12988.04   -953.61762    8252.5043    311.25211    15399 
110000000   -3787.4796    3649.7236    12953.374   -857.99931    8295.2026    310.42135    15384 
111000000   -3853.8409    3505.4116     12923.75   -988.97025    8348.2228    309.71142    15407 
112000000   -3787.3881    3516.9391    12830.926   -1007.8574    8312.1847    307.48696    15409 
113000000   -3788.8908    3680.1867    13023.236   -849.65616    8318.7336    312.09556    15395 
114000000   -3768.9374    3518.1607    12953.867   -997.40154    8284.4997    310.43316    15395 
115000000   -3858.8992    3385.5524    13094.633   -1016.0434     8260.495    313.80655    15411 
116000000   -3875.4473    3394.3107    12969.259   -1007.8564    8277.6143    310.80203    15415 
117000000   -3701.5717    3606.9387    12851.048   -995.65228    8304.1626    307.96916    15404 
118000000   -3699.2743    3677.8793    12892.626   -890.19488    8267.3485    308.96556    15382 
119000000   -3783.7573    3510.4876    12943.753   -1052.7484    8346.9933     310.1908    15402 
120000000   -3869.4767    3206.7017    12874.313     -1190.51    8266.6884     308.5267    15421 
121000000   -3792.7774    3550.4925    12950.438   -857.09624    8200.3661    310.35099    15381 
122000000    -3749.605    3564.1691    13018.018   -974.30713    8288.0813    311.97053    15386 
123000000   -3845.6858    3674.1732    13015.692   -818.18618    8338.0451    311.91478    15390 
124000000   -3880.4809    3335.6229    12973.586   -1035.6412     8251.745    310.90572    15419 
125000000   -3809.0428     3381.736    12914.128   -1018.8206    8209.5994    309.48085    15417 
126000000    -3814.244    3434.9362    12948.125   -972.45449    8221.6347    310.29556    15380 
127000000   -3801.8548    3783.9938    12901.077    -848.1523    8434.0008    309.16808    15384 
128000000   -3780.4043    3510.5766    12872.873   -917.87102    8208.8519    308.49219    15399 
129000000    -3782.659    3390.1303    12834.447   -1035.5506      8208.34    307.57134    15420 
130000000   -3795.6779    3372.8219    12823.615   -969.53431    8138.0341    307.31175    15399 
131000000   -3807.0565    3452.4252    12960.263    -918.0332    8177.5148    310.58644    15386 
132000000   -3835.2517     3474.409    12926.586   -1010.2849    8319.9456    309.77939    15399 
133000000   -3884.7442    3287.6973    13029.963   -1027.5493    8199.9908    312.25678    15408 
134000000    -3777.158    3424.7895    13069.507   -1045.4631    8247.4106    313.20443    15386 
135000000   -3807.2882    3239.8316    12945.968   -1191.5745    8238.6944    310.24388    15427 
136000000   -3876.8107     3279.581    12876.121   -1057.5417    8213.9334    308.57002    15418 
137000000   -3890.7796    3468.8591    13059.386   -864.02052    8223.6592    312.96189    15394 
138000000   -3879.6797     3413.949     12875.56   -920.06866    8213.6974    308.55658    15415 
139000000   -3781.4117    3478.1278    13093.805   -1040.5303    8300.0698    313.78673    15408 
140000000   -3775.9549    3567.4081    12845.992    -883.0723    8226.4352    307.84799    15387 
141000000   -3795.9953    3555.6068    12988.173   -911.41524    8263.0174    311.25529    15401 
142000000   -3812.3987    3512.7475    12710.853   -962.69766    8287.8439    304.60946    15393 
143000000   -3827.9146    3336.1823    12812.431   -984.73913     8148.836    307.04373    15403 
144000000   -3787.0388    3592.0556     12949.91   -974.96148    8354.0558    310.33833    15404 
145000000   -3736.8064    3395.5522    13045.348   -1013.3951    8145.7536    312.62546    15401 
146000000   -3833.3263    3595.6617     12926.28   -905.19362    8334.1816    309.77207    15388 
147000000   -3789.5877    3529.8026    13099.762   -994.30327    8313.6935    313.92946    15420 
148000000   -3744.2018    3541.8996    12871.656   -974.98423    8261.0856    308.46302    15395 
149000000   -3744.8808    3368.8203    12795.989    -1019.854    8133.5551    306.64969    15408 
150000000   -3852.6964    3540.6286    13035.874   -971.43194    8364.7569    312.39842    15399 
151000000   -3771.3811    3356.0785    12962.675   -1031.2189    8158.6784    310.64425    15405 
152000000   -3844.5587    3428.0878    12901.699   -899.98622    8172.6327    309.18299    15403 
153000000   -3817.4162    3359.4526    13017.422   -997.60083    8174.4696    311.95622    15409 
154000000   -3789.2949    3560.4029    12937.032    -965.2433    8314.9411    310.02972    15395 
155000000   -3822.5487     3399.579    12852.778   -1100.4545    8322.5822    308.01061    15422 
156000000   -3783.5622    3465.5123    12969.803   -995.95177    8245.0263    310.81506    15397 
157000000   -3775.7572    3372.8412    12831.269   -1058.4883    8207.0867    307.49518    15395 
158000000   -3750.7952    3536.0892    12978.786   -1040.5678    8327.4522    311.03034    15425 
159000000   -3760.3491    3565.7729    12784.956   -930.40462    8256.5267    306.38531    15406 
160000000   -3854.1461    3547.2862    13141.543   -918.39547    8319.8278    314.93073    15401 
161000000    -3759.776    3630.9197    13030.319   -912.81686    8303.5125    312.26531    15382 
162000000   -3875.1106    3375.3072    12898.581   -963.08682    8213.5046    309.10827    15401 
163000000   -3813.4148    3365.4751     12863.97   -1139.3181     8318.208    308.27883    15418 
164000000   -3873.8763     3521.077    12946.367   -943.94113    8338.8944    310.25344    15405 
165000000   -3742.2563    3603.3898     12940.45   -990.69259    8336.3387    310.11164    15420 
166000000   -3775.0374     3355.208    12901.602   -1063.0244    8193.2698    309.18066    15402 
167000000   -3771.7422    3590.3184    12726.532   -1006.5041    8368.5646     304.9852    15420 
168000000   -3897.3502    3223.2515    13034.069   -1127.2073     8247.809    312.35516    15422 
169000000   -3818.7711    3485.7133    12958.078   -990.28169    8294.7661    310.53409    15382 
170000000   -3782.6737    3310.1259    12905.747   -1107.4155    8200.2152       309.28    15419 
171000000   -3767.3434    3541.3003    12785.889   -898.00985    8206.6536    306.40766    15392 
172000000   -3831.9153    3530.3071    12895.176   -889.24757      8251.47    309.02666    15404 
173000000   -3710.3267    3589.9875    12704.998   -1005.3885    8305.7028    304.46915    15395 
174000000   -3832.2378    3433.9681    13000.715    -1025.847     8292.053    311.55586    15410 
175000000   -3846.7255    3387.6867    12999.482   -1001.6379    8236.0501    311.52632    15411 
176000000   -3684.8325    3631.2265    12930.167   -921.90057    8237.9595     309.8652    15381 
177000000   -3795.8718    3638.1326    12942.137   -883.61764    8317.6221    310.15207    15401 
178000000   -3856.6229    3320.7785    12999.173   -1069.5711    8246.9725    311.51891    15407 
179000000   -3823.7362     3205.376    13010.921   -1251.5489    8280.6611    311.80045    15432 
180000000   -3871.2716    3394.9994    12993.825   -1088.3427    8354.6137    311.39075    15420 
181000000   -3854.8106    3439.5427    13000.144   -974.13041    8268.4837    311.54217    15408 
182000000   -3813.4604    3457.2458    13042.904   -907.43612    8178.1423     312.5669    15406 
183000000   -3796.0363    3669.7652    13030.278   -901.51625    8367.3178    312.26432    15395 
184000000   -3791.1663    3508.2154    13014.153   -979.60076    8278.9824    311.87789    15408 
185000000    -3821.116    3412.2424    12701.207   -1015.6534    8249.0119     304.3783    15416 
186000000   -3874.3421    3376.8976    13028.328   -1055.2985    8306.5383    312.21759    15405 
187000000   -3789.1618    3366.8282    12904.424   -1088.4513    8244.4413     309.2483    15416 
188000000   -3827.6964    3541.5436    12903.359   -924.82767    8294.0676    309.22276    15396 
189000000   -3914.8595    3338.1071    13073.797    -978.2916    8231.2581    313.30723    15408 
190000000   -3766.8867    3366.7288    13042.814   -1049.7711    8183.3866    312.56475    15420 
191000000   -3848.2405    3507.5609    13002.079   -984.61677    8340.4182    311.58854    15405 
192000000   -3862.3551    3410.6448    13078.188   -999.64524    8272.6452    313.41245    15407 
193000000   -3804.9103    3498.1395    13044.081   -994.50863    8297.5584    312.59511    15432 
194000000   -3816.2962    3363.3341    13001.384   -991.77285    8171.4031     311.5719    15414 
195000000   -3881.4565     3386.236    12829.817   -984.95081    8252.6433    307.46038    15409 
196000000   -3832.9448    3300.7572    12861.497   -1077.7018    8211.4038    308.21956    15407 
197000000   -3864.3488     3561.998    12934.628   -911.52321      8337.87    309.97212    15386 
198000000   -3772.2487    3456.5736    12893.884   -1010.6437     8239.466     308.9957    15417 
199000000   -3825.2453    3451.8716    13020.108   -921.73052    8198.8474    312.02061    15382 
200000000   -3923.3327    3290.2196    12924.897   -1056.3483    8269.9006    309.73891    15415 
201000000   -3894.7609    3267.9669    12859.905    -1139.912    8302.6397    308.18141    15426 
202000000   -3815.5838    3413.8457    12861.274   -1051.0247    8280.4542    308.21423    15404 
203000000   -3727.5328    3790.2569    12970.153   -792.44942    8310.2391    310.82345    15358 
204000000   -3867.5125    3369.5438    12913.166   -1007.0472    8244.1036    309.45779    15396 
205000000   -3830.2654    3328.1248    12813.986   -1040.0982    8198.4883    307.08098    15392 
206000000   -3788.5873    3602.8875    12892.804   -993.98112    8385.4559    308.96983    15425 
207000000   -3897.7301    2986.5018    12844.666   -1267.3744    8151.6062    307.81621    15447 
208000000   -3869.6439    3366.1651    12860.654   -1071.5243    8307.3333    308.19935    15424 
209000000   -3889.2067    3320.3674    12914.493   -1005.3149    8214.8891    309.48959    15406 
210000000   -3784.8521     3555.113    12948.864   -902.07838    8242.0435    310.31327    15379 
211000000   -3863.2331    3466.0593    12956.763   -914.21758      8243.51    310.50257    15389 
212000000   -3864.3666    3240.3734    13023.683   -1125.0059    8229.7459    312.10628    15424 
213000000    -3748.431     3421.009    12858.547   -971.30341    8140.7434    308.14888    15393 
214000000   -3838.1061    3477.5864    13056.234   -900.94976    8216.6423    312.88635    15396 
215000000   -3776.7827    3662.4213    13000.501   -857.55278    8296.7568    311.55073    15379 
216000000    -3769.511    3515.4195    12751.084   -1035.8805     8320.811    305.57356    15426 
217000000   -3781.5669     3417.341    12953.298   -1009.7461     8208.654    310.41954    15417 
218000000   -3831.4504    3336.7021    13000.543   -1013.2696    8181.4221    311.55173    15422 
219000000   -3815.2444    3502.0212    12899.425   -957.97883    8275.2445    309.12849    15398 
220000000    -3809.988    3444.3857    12922.482   -941.85728     8196.231    309.68105    15425 
221000000   -3845.8054    3338.9611    12903.834   -1127.1337    8311.9002    309.23416    15423 
222000000   -3828.7653    3429.5028    12751.497   -1036.8999     8295.168    305.58348    15401 
223000000   -3887.4662    3452.2002    12738.854   -928.37489    8268.0413     305.2805    15382 
224000000   -3871.0448    3470.7558    12911.102   -918.02332     8259.824    309.40832    15383 
225000000   -3818.9673    3315.1989    12803.745   -1021.5041    8155.6703    306.83558    15412 
226000000    -3945.021     3241.961    12955.952   -1081.7822    8268.7642    310.48313    15419 
227000000   -3744.2721    3542.8033    12898.386   -988.61183    8275.6872    309.10359    15412 
228000000   -3793.8291    3413.9807     13074.32   -995.02891    8202.8387    313.31977    15421 
229000000   -3903.3069    3310.8984    12926.124   -1027.2898    8241.4951    309.76833    15411 
230000000   -3847.7024    3396.4308    12752.381   -1060.2131    8304.3463    305.60464    15409 
231000000   -3820.0779    3344.0784    13008.383   -1015.6713    8179.8276    311.73963    15414 
232000000   -3786.1073    3303.6781    12895.651   -1023.2377    8113.0231    309.03805    15412 
233000000   -3918.7025    3273.8118    12927.242   -996.11018    8188.6245    309.79511    15408 
234000000    -3979.027    3143.4157    12974.092   -1080.2211    8202.6638    310.91786    15421 
235000000   -3855.0465    3342.2365    12810.346   -993.53941    8190.8224    306.99376    15388 
236000000   -3806.2319    3401.7832    12971.967   -965.12528    8173.1403    310.86693    15397 
237000000   -3812.2082    3467.2196    12825.916   -994.68871    8274.1165    307.36688    15402 
238000000   -3763.2569    3498.5182    12989.697   -999.80489      8261.58    311.29181    15398 
239000000    -3914.232    3214.9996     12934.94    -993.2226    8122.4542    309.97959    15401 
240000000   -3808.0675    3472.1844    12927.581    -1017.804    8298.0559    309.80324    15417 
241000000   -3925.5206    3318.4109    12865.512   -1007.8109    8251.7424    308.31578    15422 
242000000   -3873.6355    3502.0442    12957.969    -1010.405    8386.0848    310.53147    15411 
243000000   -3849.0901    3234.0392    12979.684   -959.94037    8043.0697    311.05187    15386 
244000000   -3875.0419    3333.5562    12859.138   -977.50476    8186.1028    308.16304    15420 
245000000   -3874.9239    3247.2805    13018.078     -1030.03    8152.2344    311.97195    15409 
246000000   -3829.0096    3263.5734    12940.321   -1131.1512    8223.7341    310.10855    15406 
247000000   -3882.4243    3572.3058    13060.017   -883.82654    8338.5566    312.97701    15400 
248000000   -3847.8334    3418.2587    13003.253   -940.34562    8206.4378    311.61667    15408 
249000000   -3795.3531      3359.27    12880.134   -1007.6739    8162.2969     308.6662    15406 
250000000   -3875.8392    3310.6041    12849.184    -988.0824    8174.5257    307.92448    15411 
251000000    -3866.393    3427.6227    12954.311   -878.66038    8172.6761     310.4438    15372 
252000000   -3828.4191    3573.9596    12898.069   -859.79049    8262.1692    309.09599    15389 
253000000   -3748.3889    3516.5169     12902.18   -1046.3397    8311.2455     309.1945    15421 
254000000   -3847.0518    3451.6573    12884.525   -976.87187     8275.581    308.77142    15390 
255000000   -3819.3847    3377.8367    12967.635   -1019.3088    8216.5301     310.7631    15397 
256000000   -3858.7978    3447.0569    12909.217   -1053.5691    8359.4239    309.36316    15409 
257000000   -3840.0712    3462.6392     12990.73   -986.92581    8289.6362    311.31658    15411 
258000000   -3857.9979    3295.9673    12917.862   -1112.8494    8266.8146    309.57033    15420 
259000000   -3813.3467    3533.1904    12903.515   -942.01442    8288.5515    309.22652    15410 
260000000   -3746.1981    3685.4009    12886.139   -889.46614    8321.0651    308.81009    15382 
261000000   -3803.3207    3566.5611    12937.329   -915.32734    8285.2091    310.03684    15386 
262000000   -3788.7388    3310.0363    12805.843   -1066.7578    8165.5328    306.88583    15412 
263000000    -3769.459    3548.4291    12884.507    -934.1802    8252.0683      308.771    15394 
264000000   -3902.1208    3313.9655    12907.048   -1076.9085    8292.9948    309.31117    15415 
265000000   -3788.7317    3418.4075      12937.9   -1030.4528     8237.592    310.05053    15413 
266000000   -3770.8215     3557.785    12968.704   -1048.8995     8377.506    310.78874    15411 
267000000   -3812.3868     3558.718    12964.244   -854.99848    8226.1033    310.68185    15379 
268000000   -3832.3886    3357.2771    12850.434   -1048.7303    8238.3959    307.95444    15411 
269000000   -3807.0694    3293.5081    13069.298   -1076.4075    8176.9851    313.19942    15421 
270000000   -3882.9533    3338.1293    12920.035   -1070.6279    8291.7104    309.62241    15417 
271000000   -3716.0094    3572.1922    12954.673   -1015.8564     8304.058    310.45249    15404 
272000000    -3774.895    3411.7281    12871.025   -1118.2204    8304.8435    308.44791    15403 
273000000   -3838.4293     3320.354    13054.341    -1074.269    8233.0523    312.84099    15434 
274000000   -3838.7145    3405.6732    12909.443   -977.69017    8222.0778    309.36857    15396 
275000000   -3833.9484    3379.4776    13050.738   -1068.5361    8281.9621    312.75465    15415 
276000000   -3783.5006    3278.9105    12864.827   -1167.7198     8230.131    308.29937    15424 
277000000   -3787.3296      3489.58    12752.715   -961.81081    8238.7204    305.61265    15414 
278000000   -3785.9026    3576.2157    13005.448   -892.84513    8254.9634    311.66928    15371 
279000000    -3699.662    3543.5607    13046.213   -968.70673    8211.9295     312.6462    15395 
280000000   -3870.8779    3469.8416    12872.601    -922.3516    8263.0711    308.48567    15378 
281000000   -3888.2679    3410.8638    12955.455   -967.64416    8266.7759    310.47123    15417 
282000000   -3881.5504    3264.0392    13049.618   -1176.7077    8322.2973    312.72779    15431 
283000000   -3786.4236    3440.7329    12816.794   -1062.4713    8289.6279    307.14829    15406 
284000000   -3756.2907    3447.4328    12899.612   -1010.8588    8214.5824    309.13298    15409 
285000000   -3920.4276    3381.1576    13036.011   -937.80899    8239.3942    312.40172    15388 
286000000   -3757.6067    3423.3308    13068.784   -1067.9267    8248.8642    313.18711    15420 
287000000   -3785.8226    3505.6497    13055.267   -1062.5445    8354.0168    312.86316    15408 
288000000     -3761.62    3593.0695    13083.284   -980.65138    8335.3408    313.53458    15443 
289000000   -3885.0146    3314.5218    13023.103    -1140.031    8339.5674    312.09237    15428 
290000000   -3781.1379    3494.0932    12982.362   -988.28037    8263.5114    311.11603    15414 
291000000   -3768.5801    3457.4358    12837.849   -1059.1442    8285.1601    307.65285    15420 
292000000   -3847.4265    3517.8034    12763.418   -934.02294    8299.2528    305.86914    15392 
293000000   -3791.9685    3463.0282    13006.724   -998.78055    8253.7772    311.69985    15413 
294000000   -3814.2523    3411.5313    13000.019   -960.45519    8186.2387    311.53918    15400 
295000000   -3738.5667    3435.3038    13010.438   -909.53122    8083.4017    311.78888    15384 
296000000   -3892.5427    3470.8162    12768.381   -924.37987    8287.7388    305.98809    15396 
297000000   -3728.8449    3685.5356    12969.307   -896.38302    8310.7635    310.80317    15384 
298000000   -3813.2474    3424.8681     12935.67   -970.02241    8208.1379    309.99709    15401 
299000000   -3824.6754    3462.6975    13071.183   -946.24452    8233.6174     313.2446    15410 
300000000   -3761.3906    3354.8871      13072.7   -1059.0997    8175.3774    313.28095    15421 
301000000   -3927.5238    3439.9638     12818.76   -931.39128    8298.8788     307.1954    15399 
302000000   -3787.5204    3392.4653    13004.966   -937.97217    8117.9579    311.65773    15392 
303000000   -3771.3571     3557.066    12944.469   -925.09906    8253.5222    310.20795    15390 
304000000   -3799.8076     3355.465    12725.417   -1019.1365     8174.409    304.95847    15395 
305000000   -3848.2688    3323.1063    12993.807   -1092.5075    8263.8826    311.39031    15418 
306000000      -3850.6    3407.4576    12881.186   -1103.9711    8362.0286     308.6914    15396 
307000000   -3843.4765    3311.8919    12848.719   -1035.9362    8191.3045    307.91334    15421 
308000000   -3862.1856    3293.3336    12909.811   -987.15719    8142.6765    309.37739    15420 
309000000   -3811.8962    3519.8515    13022.092   -915.18549    8246.9332    312.06815    15386 
310000000   -3853.9193    3253.1002    12952.601   -1048.6698    8155.6893    310.40283    15420 
311000000   -3886.6936    3431.8818    13024.263   -1027.1602    8345.7357    312.12018    15405 
312000000   -3830.7229    3406.2035    12852.484   -1016.3991    8253.3255    308.00356    15411 
313000000   -3786.1835    3507.1508    12972.398   -968.40906    8261.7434    310.87727    15402 
314000000   -3835.3779    3510.4953    13019.238   -932.49829    8278.3715    311.99975    15391 
315000000   -3841.0065    3537.8245    12860.049   -939.81098    8318.6419    308.18487    15389 
316000000   -3875.6771    3371.1565    12949.849   -1023.9613     8270.795    310.33688    15425 
317000000   -3772.5678    3406.9089    13011.687   -970.38285    8149.8595    311.81879    15406 
318000000   -3765.7261    3546.0771    12827.493   -955.78267    8267.5859    307.40469    15382 
319000000    -3821.816    3421.8705    12883.093   -1026.9866     8270.673    308.73711    15402 
320000000     -3832.54    3492.9955    12873.843   -1103.6549    8429.1904    308.51544    15429 
321000000   -3773.5387    3540.2624    13103.143   -1012.1447    8325.9458    314.01049    15406 
322000000   -3836.6047    3302.7706    12989.826   -1093.0437     8232.419    311.29491    15423 
323000000   -3777.4506    3455.4031    12930.029   -1082.3757    8315.2294    309.86191    15408 
324000000   -3807.5877     3388.777    12926.343    -1025.729    8222.0936    309.77358    15422 
325000000   -3761.1367    3638.2662    12898.482   -958.64565    8358.0486     309.1059    15403 
326000000   -3765.8174    3480.9649    12984.236   -1095.0885    8341.8708    311.16095    15409 
327000000   -3780.3868     3425.123    13021.751   -1097.2708    8302.7806    312.05998    15404 
328000000   -3915.5385    3243.9655    12700.741   -1102.8566    8262.3607    304.36713    15433 
329000000   -3844.8455         3395    12932.171   -948.87422    8188.7197    309.91324    15396 
330000000    -3764.273     3612.825    12991.537   -943.90364    8321.0016    311.33591    15388 
331000000   -3763.9052    3393.6737    12853.671   -1106.7109    8264.2899    308.03202    15410 
332000000   -3771.2195    3520.9086    12816.301   -955.52985    8247.6579    307.13647    15401 
333000000   -3822.4015    3554.4409    13013.534    -893.9094    8270.7518    311.86307    15388 
334000000   -3808.6497    3451.2505    12941.089   -1067.6249    8327.5251    310.12695    15420 
335000000   -3855.1448    3345.7821    12883.184   -1018.7233    8219.6502    308.73929    15396 
336000000   -3814.8548    3475.7016    12871.167   -1021.4504    8312.0068    308.45131    15396 
337000000   -3717.7528    3468.2744    12977.414   -1011.9935    8198.0208    310.99747    15397 
338000000    -3792.054    3401.7775    12862.862   -1019.7436     8213.575    308.25228    15396 
339000000   -3845.8473    3315.2107    12885.914   -1048.3305    8209.3885    308.80471    15395 
340000000   -3736.6514     3435.175    12791.955   -976.90671    8148.7331    306.55302    15395 
341000000   -3857.7597    3503.5925    13112.651   -916.47952    8277.8317    314.23835    15405 
342000000   -3904.3388    3350.8301    12818.518   -980.30867    8235.4775    307.18959    15395 
343000000   -3813.9039    3347.6307    12759.148   -1119.2557    8280.7904    305.76683    15421 
344000000   -3827.5603    3413.1627    12886.147   -976.23812    8216.9611     308.8103    15384 
345000000   -3849.9553    3410.2917    12890.026   -1070.7827    8331.0297    308.90324    15416 
346000000   -3835.7897    3341.6019    12829.805   -1073.6307    8251.0223    307.46009    15424 
347000000   -3872.9363    3436.9617    13011.625   -944.99283    8254.8909    311.81731    15405 
348000000   -3802.4075    3561.1371    12830.445    -980.7961    8344.3407    307.47541    15392 
349000000   -3933.2241    3318.4294    13005.464   -1014.3564    8266.0099    311.66966    15414 
350000000    -3896.718    3256.5118    13049.107   -1109.8156    8263.0453    312.71554    15414 
351000000   -3854.5395    3345.0042    12906.603   -951.74512    8151.2888    309.30051    15419 
352000000   -3873.4323    3312.5618    12932.536   -971.41124    8157.4054    309.92197    15385 
353000000   -3816.9674    3443.6918    12904.539      -1050.6    8311.2593    309.25104    15397 
354000000   -3855.1166    3339.3825    12778.704   -1045.7436    8240.2427    306.23548    15426 
355000000   -3817.7747     3395.512    12838.237   -971.12636    8184.4131    307.66216    15411 
356000000   -3762.5106    3447.7171    12851.308   -1012.0536    8222.2812    307.97539    15412 
357000000   -3802.8273    3400.3235    13000.319   -1032.5973    8235.7481    311.54637    15401 
358000000   -3813.5807    3515.1112    12882.618   -905.67871    8234.3706    308.72572    15393 
359000000   -3839.0245     3557.949    12902.822   -869.53324    8266.5067    309.20989    15390 
360000000   -3888.3986    3178.4008    12952.026   -1145.4981    8212.2976    310.38904    15433 
361000000    -3866.593    3473.6308    12976.768   -952.86393    8293.0878    310.98199    15403 
362000000   -3895.0379     3448.884    12934.896   -964.69379    8308.6157    309.97855    15418 
363000000   -3840.6169    3385.3147    12919.019   -1071.2893    8297.2209    309.59806    15412 
364000000   -3855.9373    3240.7308    12879.971    -1041.989    8138.6572    308.66229    15415 
365000000   -3886.7157    3351.5424    12857.417   -1033.7712    8272.0292    308.12178    15433 
366000000   -3841.6194    3328.3938    12976.707   -986.83115    8156.8444    310.98053    15390 
367000000   -3888.6438    3367.6398    12849.511   -936.67993    8192.9635    307.93233    15402 
368000000   -3807.3509    3348.8862     12934.15   -1047.3823    8203.6194    309.96065    15414 
369000000   -3851.4692    3428.0187    13016.383    -941.4241    8220.9119    311.93134    15411 
370000000   -3820.3411    3489.0658    12923.688   -951.92566    8261.3325    309.70995    15398 
371000000   -3831.5923    3421.2823    12955.612   -984.08923    8236.9638    310.47498    15403 
372000000   -3822.1982    3608.4324    12934.476   -874.60353    8305.2341    309.96847    15373 
373000000   -3752.4328     3595.478    12976.313   -913.31142    8261.2222    310.97108    15392 
374000000   -3793.2699    3496.5414    12937.708   -975.26259    8265.0739    310.04593    15386 
375000000   -3778.5338    3571.9248     12973.04   -1012.5582    8363.0168    310.89265    15413 
376000000   -3849.7428     3457.348    12934.138   -973.57801    8280.6688    309.96037    15405 
377000000   -3813.2717    3378.5544    13004.865   -982.96115    8174.7873    311.65531    15402 
378000000    -3813.129    3365.2944    13103.046   -1053.9238    8232.3472    314.00817    15423 
379000000   -3869.6316    3359.6972    12877.514   -1096.6725    8326.0013    308.60342    15412 
380000000   -3785.4056    3531.3774    12926.695   -937.30932    8254.0923      309.782    15401 
381000000   -3722.2247    3568.4542    12998.183   -995.03721    8285.7161    311.49517    15406 
382000000   -3798.9984    3478.8877    12945.634   -953.64546    8231.5315    310.23586    15386 
383000000    -3812.502    3421.5599    13051.179   -925.73842    8159.8003    312.76519    15394 
384000000   -3773.8694      3368.81    12840.428   -1072.1706    8214.8499    307.71466    15400 
385000000   -3858.7256    3435.0876    12874.636   -935.43888    8229.2521    308.53443    15403 
386000000   -3728.6984    3479.2954    13132.162   -1014.6151    8222.6089    314.70592    15400 
387000000   -3829.6542    3387.3466    12983.996   -1077.7915    8294.7924     311.1552    15408 
388000000    -3851.409    3433.3445    13063.198   -948.90818    8233.6616    313.05324    15390 
389000000   -3755.6771    3338.4288    12942.408   -1063.5953    8157.7011    310.15857    15402 
390000000   -3830.8681    3478.4867     12890.45   -928.76526    8238.1201    308.91341    15412 
391000000   -3880.5617    3253.3377    13001.324   -1029.0722    8162.9716    311.57046    15414 
392000000   -3814.2876     3382.762    12922.271   -1050.4454     8247.495    309.67599    15404 
393000000   -3905.8894    3475.3252    12983.188   -982.37433    8363.5889    311.13584    15430 
394000000   -3812.8862    3274.7977    13023.402   -1215.2626    8302.9464    312.09954    15414 
395000000   -3847.0814     3517.333    12894.644   -1007.6229    8372.0372    309.01393    15430 
396000000   -3844.7783    3479.5333      13021.3   -990.56514    8314.8767    312.04917    15409 
397000000    -3752.453    3539.4784    12984.541   -1050.8677    8342.7991    311.16825    15403 
398000000   -3709.7447    3449.5511     12760.63   -1069.5308    8228.8266    305.80233    15413 
399000000   -3765.2439    3383.6333    12878.882   -1167.4935    8316.3707    308.63619    15433 
400000000   -3742.1289    3581.4565    12845.235   -934.05168    8257.6371    307.82986    15418 
Loop time of 163676 on 28 procs for 400000000 steps with 14000 atoms

Performance: 5278.715 ns/day, 0.005 hours/ns, 2443.849 timesteps/s
99.5% CPU use with 28 MPI tasks x no OpenMP threads

MPI task timing breakdown:
Section |  min time  |  avg time  |  max time  |%varavg| %total
---------------------------------------------------------------
Pair    | 19552      | 23826      | 28113      |1393.2 | 14.56
Bond    | 4658.9     | 6715.1     | 9343.1     |2565.4 |  4.10
Neigh   | 52115      | 53039      | 54068      | 265.8 | 32.40
Comm    | 36766      | 46203      | 55160      |1950.7 | 28.23
Output  | 0.7064     | 0.87968    | 0.88774    |   3.6 |  0.00
Modify  | 21221      | 21442      | 21754      | 101.7 | 13.10
Other   |            | 1.245e+04  |            |       |  7.61

Nlocal:    500 ave 535 max 474 min
Histogram: 1 2 6 6 4 3 2 3 0 1
Nghost:    843.286 ave 1175 max 545 min
Histogram: 3 2 2 5 5 1 2 5 2 1
Neighs:    6773.04 ave 8101 max 5417 min
Histogram: 4 2 0 5 1 7 1 1 3 4

Total # of neighbors = 189645
Ave neighs/atom = 13.5461
Ave special neighs/atom = 8.81129
Neighbor list builds = 79940303
Dangerous builds = 0
System init for write_restart ...
Total wall time: 45:29:04
