LAMMPS (5 Jun 2019)
Reading restart file ...
  restart file = 5 Jun 2019, LAMMPS = 5 Jun 2019
  restoring atom style full from restart
  orthogonal box = (-420 -420 -420) to (420 420 420)
  2 by 2 by 7 MPI processor grid
  restoring pair style lj/cut from restart
  restoring bond style hybrid from restart
  restoring angle style cosine from restart
  14000 atoms
  15428 bonds
  13600 angles
Finding 1-2 1-3 1-4 neighbors ...
  special bond factors lj:   0          1          1         
  special bond factors coul: 0          0          0         
  3 = max # of 1-2 neighbors
  4 = max # of 1-3 neighbors
  8 = max # of 1-4 neighbors
  56 = max # of special neighbors
  special bonds CPU = 0.765235 secs
  read_restart CPU = 0.85672 secs
Finding 1-2 1-3 1-4 neighbors ...
  special bond factors lj:   0          1          1         
  special bond factors coul: 0          0          0         
  3 = max # of 1-2 neighbors
  4 = max # of 1-3 neighbors
  8 = max # of 1-4 neighbors
  40224 = # of 1-3 neighbors before angle trim
  27200 = # of 1-3 neighbors after angle trim
  56 = max # of special neighbors
  special bonds CPU = 0.00266512 secs
Neighbor list info ...
  update every 1 steps, delay 1 steps, check yes
  max neighbors/atom: 2000, page size: 100000
  master list distance cutoff = 26.9
  ghost atom cutoff = 26.9
  binsize = 13.45, bins = 63 63 63
  1 neighbor lists, perpetual/occasional/extra = 1 0 0
  (1) pair lj/cut, perpetual
      attributes: half, newton on
      pair build: half/bin/newton
      stencil: half/bin/3d/newton
      bin: standard
Setting up Verlet run ...
  Unit style    : real
  Current step  : 400000000
  Time step     : 0.1
Per MPI rank memory allocation (min/avg/max) = 1.103 | 7.659 | 16.74 Mbytes
Step Temp E_pair E_mol TotEng Press 
400000000    307.27474   -3863.8919    7230.4039    16188.583   0.11579035 
400010000    310.84988   -3842.4525    7215.4784    16344.282 -0.029879649 
Loop time of 5.86957 on 28 procs for 10000 steps with 14000 atoms

Performance: 14.720 ns/day, 1.630 hours/ns, 1703.701 timesteps/s
99.6% CPU use with 28 MPI tasks x no OpenMP threads

MPI task timing breakdown:
Section |  min time  |  avg time  |  max time  |%varavg| %total
---------------------------------------------------------------
Pair    | 0.00033858 | 0.50804    | 3.2593     | 132.8 |  8.66
Bond    | 0.00053451 | 0.10898    | 0.60893    |  53.6 |  1.86
Neigh   | 0.02441    | 0.027247   | 0.029601   |   0.9 |  0.46
Comm    | 0.0019094  | 1.8822     | 4.2832     | 131.4 | 32.07
Output  | 9.2546e-05 | 0.00040934 | 0.00074776 |   0.0 |  0.01
Modify  | 0.0010222  | 0.23709    | 1.3138     |  78.6 |  4.04
Other   |            | 3.106      |            |       | 52.91

Nlocal:    500 ave 2868 max 0 min
Histogram: 17 3 4 0 0 0 0 2 0 2
Nghost:    493.143 ave 1992 max 0 min
Histogram: 13 3 2 3 3 0 0 0 2 2
Neighs:    6877.79 ave 42164 max 0 min
Histogram: 19 3 2 0 0 0 0 2 1 1

Total # of neighbors = 192578
Ave neighs/atom = 13.7556
Ave special neighs/atom = 7.89971
Neighbor list builds = 8
Dangerous builds = 0
4000 atoms in group rxnSites
Neighbor list info ...
  update every 1 steps, delay 1 steps, check yes
  max neighbors/atom: 2000, page size: 100000
  master list distance cutoff = 26.9
  ghost atom cutoff = 26.9
  binsize = 13.45, bins = 63 63 63
  2 neighbor lists, perpetual/occasional/extra = 1 1 0
  (1) pair lj/cut, perpetual
      attributes: half, newton on
      pair build: half/bin/newton
      stencil: half/bin/3d/newton
      bin: standard
  (2) fix bond/create/random, occasional, copy from (1)
      attributes: half, newton on
      pair build: copy
      stencil: none
      bin: none
Setting up Verlet run ...
  Unit style    : real
  Current step  : 0
  Time step     : 25
Per MPI rank memory allocation (min/avg/max) = 17.81 | 18.21 | 19.17 Mbytes
Step E_pair PotEng KinEng E_bond E_angle Temp Bonds 
       0   -3842.4525    3373.0258    12971.256   -1083.8487     8299.327    310.84988    15428 
 1000000    -3905.984    3224.8032    13026.871   -1081.5389    8212.3262    312.18268    15431 
