LAMMPS (5 Jun 2019)
Reading restart file ...
  restart file = 5 Jun 2019, LAMMPS = 5 Jun 2019
  restoring atom style full from restart
  orthogonal box = (-420 -420 -420) to (420 420 420)
  2 by 2 by 7 MPI processor grid
  restoring pair style lj/cut from restart
  restoring bond style hybrid from restart
  restoring angle style cosine from restart
  14000 atoms
  15404 bonds
  13600 angles
Finding 1-2 1-3 1-4 neighbors ...
  special bond factors lj:   0          1          1         
  special bond factors coul: 0          0          0         
  3 = max # of 1-2 neighbors
  4 = max # of 1-3 neighbors
  8 = max # of 1-4 neighbors
  56 = max # of special neighbors
  special bonds CPU = 0.384806 secs
  read_restart CPU = 0.439708 secs
Finding 1-2 1-3 1-4 neighbors ...
  special bond factors lj:   0          1          1         
  special bond factors coul: 0          0          0         
  3 = max # of 1-2 neighbors
  4 = max # of 1-3 neighbors
  8 = max # of 1-4 neighbors
  40032 = # of 1-3 neighbors before angle trim
  27200 = # of 1-3 neighbors after angle trim
  56 = max # of special neighbors
  special bonds CPU = 0.00196688 secs
Neighbor list info ...
  update every 1 steps, delay 1 steps, check yes
  max neighbors/atom: 2000, page size: 100000
  master list distance cutoff = 26.9
  ghost atom cutoff = 26.9
  binsize = 13.45, bins = 63 63 63
  1 neighbor lists, perpetual/occasional/extra = 1 0 0
  (1) pair lj/cut, perpetual
      attributes: half, newton on
      pair build: half/bin/newton
      stencil: half/bin/3d/newton
      bin: standard
Setting up Verlet run ...
  Unit style    : real
  Current step  : 400000000
  Time step     : 0.1
Per MPI rank memory allocation (min/avg/max) = 1.103 | 7.671 | 16.69 Mbytes
Step Temp E_pair E_mol TotEng Press 
400000000    312.60145   -3807.6782    7380.0675    16616.735 -0.061272322 
400010000    309.76014    -3799.973    7374.0795    16499.889 -0.034029389 
Loop time of 6.09749 on 28 procs for 10000 steps with 14000 atoms

Performance: 14.170 ns/day, 1.694 hours/ns, 1640.019 timesteps/s
99.4% CPU use with 28 MPI tasks x no OpenMP threads

MPI task timing breakdown:
Section |  min time  |  avg time  |  max time  |%varavg| %total
---------------------------------------------------------------
Pair    | 0.00034533 | 0.54517    | 3.123      | 121.0 |  8.94
Bond    | 0.00051984 | 0.1174     | 0.58624    |  50.4 |  1.93
Neigh   | 0.023472   | 0.024643   | 0.026842   |   0.8 |  0.40
Comm    | 0.0021017  | 1.8081     | 4.3615     | 125.3 | 29.65
Output  | 0.00010552 | 0.00053665 | 0.00092704 |   0.0 |  0.01
Modify  | 0.00095291 | 0.25723    | 1.2664     |  73.8 |  4.22
Other   |            | 3.344      |            |       | 54.85

Nlocal:    500 ave 2343 max 0 min
Histogram: 16 1 4 2 1 0 0 1 0 3
Nghost:    493.929 ave 1876 max 0 min
Histogram: 13 3 0 4 3 1 0 0 3 1
Neighs:    6861.32 ave 34101 max 0 min
Histogram: 16 1 5 1 1 0 0 1 1 2

Total # of neighbors = 192117
Ave neighs/atom = 13.7226
Ave special neighs/atom = 7.86886
Neighbor list builds = 8
Dangerous builds = 0
4000 atoms in group rxnSites
Neighbor list info ...
  update every 1 steps, delay 1 steps, check yes
  max neighbors/atom: 2000, page size: 100000
  master list distance cutoff = 26.9
  ghost atom cutoff = 26.9
  binsize = 13.45, bins = 63 63 63
  2 neighbor lists, perpetual/occasional/extra = 1 1 0
  (1) pair lj/cut, perpetual
      attributes: half, newton on
      pair build: half/bin/newton
      stencil: half/bin/3d/newton
      bin: standard
  (2) fix bond/create/random, occasional, copy from (1)
      attributes: half, newton on
      pair build: copy
      stencil: none
      bin: none
Setting up Verlet run ...
  Unit style    : real
  Current step  : 0
  Time step     : 25
Per MPI rank memory allocation (min/avg/max) = 17.8 | 18.26 | 19.34 Mbytes
Step E_pair PotEng KinEng E_bond E_angle Temp Bonds 
       0    -3799.973    3574.1065    12925.783   -934.76786    8308.8473    309.76014    15404 
 1000000   -3839.1793    3546.5774     13029.27   -930.78829     8316.545    312.24017    15387 
 2000000   -3898.8395    3495.5222    12737.411   -894.46427    8288.8259     305.2459    15369 
 3000000     -3764.94    3422.1046     12975.26   -995.15123    8182.1959    310.94584    15408 
 4000000    -3802.623    3450.2005    12947.008    -990.4406    8243.2641    310.26881    15382 
 5000000   -3793.1498    3323.7255    13053.581   -1068.7692    8185.6445    312.82277    15419 
 6000000   -3846.0733    3536.2508    12727.105   -864.81123    8247.1353    304.99892    15374 
 7000000   -3787.8564    3464.3752    12934.579    -965.0829    8217.3145    309.97094    15400 
 8000000   -3808.1046    3467.2507    13089.578   -1043.5543    8318.9096    313.68541    15419 
 9000000   -3850.9203    3400.3234    12914.493   -1092.8726    8344.1162    309.48959    15437 
10000000   -3848.2368    3444.5009    12825.176   -970.02107    8262.7587    307.34915    15404 
11000000    -3821.002    3311.9974     12969.11   -1039.4189    8172.4184    310.79846    15415 
12000000     -3803.13    3566.2153     12951.97   -948.43087    8317.7762     310.3877    15410 
13000000   -3800.5132    3386.4537    12943.624   -1078.4981     8265.465     310.1877    15417 
14000000   -3861.3985    3605.0961    12858.988   -864.84026    8331.3348    308.15943    15381 
15000000    -3782.489    3471.3801    12815.092    -1020.444    8274.3131    307.10748    15409 
16000000   -3711.1112    3601.7167    12878.902   -970.50787    8283.3358    308.63667    15401 
17000000   -3743.8108    3492.8332    12952.392    -1098.702    8335.3461    310.39782    15445 
18000000   -3803.6198    3482.3414    12885.747   -1011.6964    8297.6575     308.8007    15388 
19000000   -3787.3303    3416.9793    12845.481   -1038.4818    8242.7914    307.83574    15415 
20000000   -3686.9673    3730.1493    12950.913   -868.42176    8285.5384    310.36237    15389 
21000000   -3852.3926    3348.5137    12932.093   -960.07991    8160.9862    309.91137    15387 
22000000   -3844.3759    3236.1414    12783.346   -1075.7843    8156.3015    306.34671    15416 
23000000    -3841.679    3355.1984    12986.008   -1006.0998    8202.9772    311.20341    15427 
24000000   -3899.7097    3460.2107    12974.438   -936.89709    8296.8175    310.92614    15405 
25000000   -3783.0238    3405.7526    12929.479   -1030.3487    8219.1251    309.84873    15401 
26000000   -3889.7739    3417.7115    12923.143   -963.55756     8271.043    309.69687    15401 
27000000   -3882.3009    3373.8056    13008.894   -1064.0466    8320.1532    311.75185    15427 
28000000   -3903.1832    3263.5187    12932.187   -1056.1374    8222.8393    309.91363    15419 
29000000   -3835.9393    3505.6192    12946.653   -997.19444    8338.7529    310.26028    15410 
30000000   -3852.4811    3286.3479    12941.743   -1115.2799    8254.1089    310.14263    15413 
31000000   -3826.3242    3352.8324    12916.189     -970.117    8149.2736    309.53024    15404 
32000000   -3878.6351    3301.5208    12892.673   -1120.6722    8300.8282    308.96667    15421 
33000000    -3820.435    3431.1121    12994.536   -1043.8565    8295.4036    311.40778    15399 
34000000   -3815.5707    3607.2503    12838.023   -870.64418    8293.4651    307.65703    15400 
35000000    -3825.978    3546.5533    12884.607    -941.4901    8314.0214    308.77338    15390 
36000000   -3872.6893    3268.0487    12919.335   -1060.3151    8201.0531    309.60562    15422 
37000000   -3807.4085    3430.3711    12934.214   -918.11445    8155.8941     309.9622    15382 
38000000   -3817.5357    3383.7444    13099.115   -1023.2007    8224.4809    313.91397    15421 
39000000   -3837.6742    3389.8189    12921.213   -988.10937    8215.6025    309.65063    15411 
40000000   -3828.5125    3361.0793    13066.766   -1062.5582      8252.15    313.13874    15432 
41000000   -3845.7821    3495.8578     12820.72   -986.87839    8328.5182    307.24237    15419 
42000000   -3870.2226    3368.7756    12910.314   -1001.1952    8240.1933    309.38943    15442 
43000000   -3740.2357    3640.5306    12911.597    -894.9278    8275.6941    309.42018    15393 
44000000   -3842.6516    3639.6571    12889.008     -927.915    8410.2236    308.87885    15402 
45000000   -3772.7631    3478.7933    13004.621   -991.73688    8243.2932    311.64947    15410 
46000000   -3825.5826    3417.8814    12820.456   -977.09597    8220.5599    307.23605    15402 
47000000   -3756.9811    3571.0966    12837.329   -1013.7494    8341.8271     307.6404    15395 
48000000   -3756.0098    3355.8567    13025.927   -1069.2538    8181.1202    312.16006    15417 
49000000   -3818.0818     3442.455    13042.173   -1035.4775    8296.0143    312.54937    15403 
50000000   -3857.3423    3267.7499    12874.828   -1130.5978      8255.69    308.53905    15409 
51000000   -3780.5707    3400.9012    12970.786   -1025.3731     8206.845    310.83861    15410 
52000000   -3726.7723     3397.099    12774.475   -1035.3641    8159.2354    306.13413    15401 
53000000   -3824.0135    3412.8742    12844.504   -1028.3275    8265.2153    307.81234    15405 
54000000   -3750.4234    3566.4842    12967.199   -1023.4882    8340.3957    310.75266    15418 
55000000   -3770.8749    3472.2621    12909.771    -937.1252    8180.2622    309.37642    15400 
56000000   -3825.3088    3568.3901     12823.79   -992.78804    8386.4869    307.31593    15389 
57000000    -3876.986     3203.239    13033.428   -1079.8648    8160.0898    312.33981    15408 
58000000   -3810.3522    3400.1693    12915.455   -974.81198    8185.3335    309.51265    15407 
59000000   -3729.8158     3433.311    12838.324   -1067.7638    8230.8906    307.66424    15413 
60000000   -3658.9876    3628.1449    13007.716   -860.74742    8147.8799    311.72364    15392 
61000000   -3735.6201    3340.3786    12924.235   -1037.3686    8113.3673    309.72306    15426 
62000000   -3869.2631    3450.5081    12878.446   -1011.7643    8331.5355    308.62575    15405 
63000000   -3844.4346    3440.3062    12854.339   -938.90093    8223.6417    308.04804    15408 
64000000   -3802.4163    3293.0399     12886.24    -1134.879    8230.3353    308.81252    15406 
65000000    -3755.794    3464.4664    13003.121   -1033.3493    8253.6096    311.61352    15418 
66000000   -3912.9149    3303.1107    12920.546   -1047.6554     8263.681    309.63465    15396 
67000000   -3871.4545    3525.6361    13080.469   -883.23558    8280.3262    313.46712    15393 
68000000   -3850.1111    3611.7516    12824.324   -893.84775    8355.7105    307.32875    15401 
69000000   -3860.6657    3486.8322    13049.612   -1009.2053    8356.7032    312.72765    15398 
70000000   -3729.2142    3382.1793    12898.263   -1066.1379    8177.5314    309.10064    15415 
71000000   -3783.8344    3445.3052    12892.142   -1026.1261    8255.2656    308.95396    15403 
72000000   -3771.3341     3475.728    12993.493   -973.50046    8220.5626    311.38279    15384 
73000000   -3869.1154    3390.7928    12959.575   -922.04115    8181.9493    310.56996    15412 
74000000   -3851.2031    3438.2383     12967.81   -1008.7242    8298.1657     310.7673    15424 
75000000    -3714.165    3417.2069    12816.487   -1050.1032    8181.4751    307.14092    15389 
76000000   -3816.6218    3506.3378    12785.881   -973.49848    8296.4581    306.40746    15422 
77000000   -3768.9383    3432.9724    12912.125   -998.60896    8200.5197    309.43285    15417 
78000000   -3752.4852    3365.8002    12730.884   -970.27475    8088.5602    305.08948    15399 
79000000    -3831.002    3332.9122     12927.06    -1091.667    8255.5813    309.79075    15413 
80000000   -3817.1047    3370.9013    12845.994   -1023.2796    8211.2856    307.84804    15401 
81000000      -3760.6    3446.2166    12940.994   -982.15578    8188.9724    310.12468    15417 
82000000   -3892.1554    3371.2805    13018.441   -900.55614    8163.9921    311.98065    15405 
83000000   -3841.8383    3543.3678    13059.212   -958.73474    8343.9409    312.95772    15410 
84000000   -3845.6141    3431.2511    13061.975   -1009.1732    8286.0383    313.02393    15403 
85000000   -3720.9355    3636.9969    12914.873   -983.86623    8341.7986    309.49869    15392 
86000000    -3742.594    3559.7302    12875.404   -974.23235    8276.5565    308.55285    15386 
87000000    -3838.932     3523.085    12937.085   -898.18118    8260.1982    310.03099    15388 
88000000   -3879.8349    3383.0059    12962.883   -1049.9184    8312.7593    310.64924    15418 
89000000   -3773.7056    3430.9964    12965.201   -1092.4469    8297.1488    310.70477    15428 
90000000   -3764.2592    3441.8412    12869.252   -1029.4875    8235.5879    308.40542    15413 
91000000    -3848.749    3497.1889    12994.971   -984.05853    8329.9964    311.41822    15423 
92000000   -3816.5035    3455.3567    13020.796   -1037.6584    8309.5186    312.03709    15416 
93000000   -3826.0426    3346.9233    12927.602    -1029.344    8202.3099    309.80373    15411 
94000000   -3793.8825    3518.9776    13141.941   -981.65279    8294.5129    314.94028    15409 
95000000   -3820.3283    3509.3068    12841.487   -995.00388     8324.639    307.74004    15403 
96000000   -3776.1192    3565.6622    12956.668    -1001.368    8343.1494    310.50028    15416 
97000000   -3860.6636    3327.7641    13078.201   -971.32676    8159.7545    313.41278    15410 
98000000   -3715.0339    3522.8672    13186.669   -937.90818    8175.8093    316.01216    15396 
99000000   -3815.3988    3416.3523    12957.393   -911.52826    8143.2794    310.51767    15399 
100000000   -3896.1904    3436.1109    13071.348   -903.72265     8236.024    313.24854    15390 
101000000   -3867.7029    3592.4128    12810.208   -883.40485    8343.5205    306.99044    15397 
102000000   -3772.4738    3302.6996    13044.578   -1158.4747    8233.6481    312.60701    15411 
103000000   -3733.0603    3469.2489    12952.543   -1022.3408      8224.65    310.40144    15395 
104000000    -3870.151     3393.115    12791.575    -960.0057    8223.2717    306.54393    15401 
105000000   -3766.7072     3581.879    12936.759   -908.83666    8257.4229    310.02319    15394 
106000000   -3884.1409    3396.7809    12796.023   -985.75242    8266.6743    306.65052    15406 
107000000   -3889.3653    3424.0387    12959.443   -939.40301     8252.807    310.56681    15426 
108000000    -3912.182    3507.5969    12890.129   -904.62202    8324.4009    308.90572    15397 
109000000   -3782.9853     3463.428    12928.542   -964.79767    8211.2109    309.82626    15420 
110000000   -3809.9712    3413.4515    12888.383   -982.04223     8205.465    308.86387    15406 
111000000   -3896.6275    3471.9544    12887.654   -960.00548    8328.5874     308.8464    15410 
112000000   -3779.2827    3466.4273     12677.69   -991.81523    8237.5253    303.81472    15404 
113000000   -3803.9678    3391.9348     12872.85    -1028.182    8224.0846    308.49164    15402 
114000000   -3845.4911    3315.8025    12900.084   -1034.5289    8195.8224    309.14427    15421 
115000000   -3879.4823    3422.5788    12927.874    -1065.576     8367.637    309.81025    15413 
116000000   -3792.0569    3446.0613    13003.979   -1034.1005    8272.2186    311.63408    15409 
117000000    -3615.486    3797.2833     13020.59   -904.49876    8317.2681    312.03216    15392 
118000000   -3808.7081    3423.0299    12864.832   -969.19003    8200.9281    308.29948    15416 
119000000   -3844.3208    3568.3698    12972.366   -945.56179    8358.2524    310.87648    15410 
120000000   -3854.3104    3211.5195    12963.982   -1131.4704    8197.3003    310.67558    15401 
121000000   -3814.2691    3623.6405    12849.772   -875.94604    8313.8556    307.93858    15389 
122000000   -3760.2214    3470.4254    12933.705   -1141.1188    8371.7656       309.95    15413 
123000000   -3833.6181    3531.1531    12970.453   -970.73028    8335.5015    310.83065    15399 
124000000   -3815.7828    3412.5613    12937.183   -1060.7651    8289.1093    310.03335    15417 
125000000    -3832.983    3441.3392    12929.558   -1042.0683    8316.3905    309.85061    15392 
126000000   -3758.9968    3462.1707    12988.385   -1001.7489    8222.9164    311.26038    15388 
127000000   -3835.9362    3548.1393    12900.255   -906.82555     8290.901     309.1484    15404 
128000000   -3836.3237    3427.1049    12788.708   -955.21187    8218.6404    306.47522    15392 
129000000   -3841.5333    3467.1741    12911.705   -958.91674    8267.6242    309.42278    15390 
130000000   -3818.7842    3334.8681    12967.352   -959.34943    8113.0018    310.75634    15418 
131000000    -3768.823    3412.0392    12989.297    -905.1448    8086.0069    311.28224    15391 
132000000   -3764.6648    3514.5452    12912.452   -954.62258    8233.8326    309.44068    15406 
133000000   -3809.2954    3374.1232    13025.174   -1055.7081    8239.1267    312.14201    15421 
134000000   -3837.7778    3371.9395     12792.93   -1059.4205    8269.1379    306.57639    15408 
135000000   -3893.9116    3371.2416    12969.605   -981.36758    8246.5208    310.81031    15409 
136000000   -3913.7039    3200.0995    12851.765   -1063.6158    8177.4193    307.98634    15430 
137000000   -3754.9748    3394.7776    12905.222   -1062.7372    8212.4896    309.26742    15426 
138000000   -3896.1988    3485.5785    12835.985   -916.57904    8298.3563    307.60819    15396 
139000000    -3781.817    3561.7534    12794.591   -883.56766     8227.138    306.61619    15387 
140000000    -3824.426    3541.4358    12970.732   -920.79066    8286.6524    310.83732    15393 
141000000   -3873.5811    3388.4479    12979.548   -1024.1191    8286.1482    311.04861    15412 
142000000   -3808.2158    3503.2417    12957.408    -901.4092    8212.8667    310.51803    15392 
143000000   -3798.6295    3573.4515    13008.206   -980.69565    8352.7766    311.73538    15399 
144000000   -3747.2515    3599.2964    12842.903   -925.26704    8271.8149    307.77397    15375 
145000000   -3832.1707    3435.7644    12942.913    -961.0476    8228.9826    310.17066    15415 
146000000    -3775.535     3331.502    12949.844   -1024.3599    8131.3968    310.33676    15391 
147000000   -3845.9644    3297.1764    12786.394   -1093.3337    8236.4744    306.41975    15422 
148000000   -3820.4264    3561.7233    12925.821   -923.72459    8305.8742    309.76106    15395 
149000000   -3827.9474    3281.3649     12928.68   -1119.9016    8229.2139    309.82956    15419 
150000000   -3835.5845    3189.4627    12973.015   -1106.4009    8131.4481    310.89204    15410 
151000000   -3814.7206    3490.6895    12944.524   -943.36484    8248.7749    310.20927    15407 
152000000   -3771.3282    3451.5961    12912.739   -1050.2047     8273.129    309.44756    15409 
153000000   -3772.9673    3652.2368    12827.537   -881.74993     8306.954    307.40573    15389 
154000000   -3847.4795    3471.1361    12847.241   -1055.6747    8374.2902    307.87793    15421 
155000000    -3791.689    3383.9619     12836.88   -1032.6663    8208.3172    307.62963    15408 
156000000   -3818.3662      3485.72    12953.219   -993.21913    8297.3053    310.41764    15401 
157000000   -3818.8261    3634.1181    12894.444   -870.93108    8323.8752    309.00913    15384 
158000000   -3773.7056    3494.0625    12848.249   -1024.3615    8292.1295    307.90208    15411 
159000000     -3758.82    3471.9707    12987.613   -981.73758    8212.5283    311.24187    15417 
160000000   -3877.6222    3467.6196    12898.868    -923.9243    8269.1661    309.11515    15398 
161000000   -3749.3807    3525.5893    12930.433   -921.69731    8196.6673    309.87159    15371 
162000000   -3782.0974    3390.2792    12907.187   -995.92379    8168.3003    309.31451    15401 
163000000   -3719.2779    3588.7913    12922.051   -963.02272     8271.092    309.67071    15416 
164000000   -3779.5259    3477.7202    13136.374   -980.95812    8238.2042    314.80685    15391 
165000000   -3882.7905    3340.1634    12877.441   -1029.5996    8252.5535    308.60164    15410 
166000000   -3858.5278    3435.6208    12910.171   -974.15685    8268.3055    309.38601    15391 
167000000   -3786.6426    3510.0902    12931.499   -952.37106    8249.1039    309.89714    15375 
168000000   -3787.7042    3356.0591    13093.412   -1054.8966    8198.6599     313.7773    15438 
169000000   -3813.9855    3357.5454    13056.376   -965.64837    8137.1793    312.88974    15429 
170000000   -3930.3587    3348.8284    12851.548   -1031.2101    8310.3972    307.98113    15400 
171000000   -3778.2644    3522.2845    13002.412   -946.11403    8246.6629    311.59654    15385 
172000000   -3748.9361    3408.8498    12994.126   -1044.9904    8202.7763    311.39796    15410 
173000000   -3795.7138    3582.8461    12832.779    -841.3504    8219.9104    307.53136    15386 
174000000   -3802.3244    3548.1439    12798.862   -817.81281    8168.2811    306.71854    15390 
175000000   -3815.0335    3715.1607    13025.704   -840.53882     8370.733    312.15471    15378 
176000000   -3820.1888    3493.7172    12820.559   -994.47562    8308.3817    307.23851    15403 
177000000   -3834.3615    3254.8195    12848.303   -1062.5977    8151.7786    307.90337    15412 
178000000   -3778.4876    3476.3045    12940.501   -996.69595    8251.4881    310.11287    15408 
179000000   -3821.1172    3503.6712    13107.001   -933.55833    8258.3467    314.10295    15393 
180000000   -3753.2367    3444.8145    12923.877   -974.52352    8172.5747    309.71447    15399 
181000000   -3890.1456     3302.284    12782.686   -989.09704    8181.5267    306.33089    15405 
182000000   -3834.4021    3391.7112    12964.082   -1056.3345    8282.4477    310.67796    15419 
183000000   -3790.1243    3360.9694    12877.123    -1014.732    8165.8256    308.59403    15401 
184000000   -3831.8784    3428.1828    12907.642   -971.05513    8231.1164    309.32541    15393 
185000000    -3760.937    3464.5834    13049.085   -1040.1505    8265.6709    312.71501    15405 
186000000   -3743.5569    3553.0808    12971.567   -1053.3406    8349.9783    310.85735    15394 
187000000   -3819.2054    3458.3036    12952.961   -986.99744    8264.5064    310.41147    15409 
188000000    -3770.994    3532.3805    13026.377   -1025.1151    8328.4896    312.17083    15415 
189000000   -3805.7556    3432.9838    13024.278   -1021.6578    8260.3972    312.12053    15411 
190000000   -3834.7337    3396.4363    12927.723   -1100.5983    8331.7682    309.80663    15433 
191000000   -3828.7429     3405.304    12904.541   -1061.6466    8295.6935    309.25109    15432 
192000000   -3909.5512    3347.0828    12939.258   -955.90517    8212.5392    310.08308    15411 
193000000   -3797.6863    3477.7869     12982.87   -1010.9383    8286.4116    311.12822    15402 
194000000   -3752.8075    3518.8858    13030.255   -972.45701    8244.1503    312.26378    15397 
195000000   -3911.3701    3405.7416    12999.222   -948.40403    8265.5158    311.52009    15418 
196000000   -3842.3413    3468.5244    12965.704   -958.41186    8269.2776    310.71685    15403 
197000000   -3902.0041      3214.74    12940.791   -1114.8349     8231.579    310.11981    15447 
198000000    -3761.904    3668.2503    12929.354   -798.69077    8228.8451    309.84572    15389 
199000000   -3851.8736    3420.5418    13013.513   -996.15933    8268.5747    311.86257    15423 
200000000   -3860.3796    3382.3075    12884.248   -1047.7882    8290.4752    308.76479    15418 
201000000   -3784.1054    3458.9171    12887.214   -1006.2286    8249.2511    308.83586    15406 
202000000   -3697.0049    3511.8635    12882.696   -980.23866    8189.1071    308.72759    15401 
203000000   -3800.0868    3563.2284    12924.797   -969.17718    8332.4923    309.73651    15389 
204000000    -3794.712    3528.0974    13011.512   -988.10142    8310.9109    311.81461    15408 
205000000   -3756.1471    3522.0197    13091.225   -966.97332    8245.1401    313.72488    15393 
206000000   -3860.9479    3393.5586    13115.136   -1040.7711    8295.2776     314.2979    15407 
207000000   -3841.1063    3361.4643    12978.551    -1020.335    8222.9056     311.0247    15414 
208000000   -3993.2251    3206.1993    13040.283   -1032.2671    8231.6914    312.50408    15409 
209000000   -3893.6713    3522.3182     13004.53   -912.93178    8328.9213    311.64727    15403 
210000000   -3806.2215    3433.4597    12898.578   -1025.4306    8265.1118     309.1082    15415 
211000000   -3826.7114    3432.3697    12975.788   -1029.8666    8288.9477     310.9585    15410 
212000000   -3819.8812    3214.1639    13064.809   -1096.9328    8130.9778    313.09184    15420 
213000000   -3881.0625    3177.8843    12983.758   -1046.4655    8105.4123     311.1495    15429 
214000000   -3823.5386    3490.3125    12712.101   -972.50694     8286.358    304.63936    15402 
215000000   -3819.1757    3278.2419    12752.743   -1157.9943    8255.4119    305.61334    15437 
216000000    -3824.599    3371.7135    12867.296   -966.79704    8163.1095    308.35855    15388 
217000000   -3858.6139    3158.6974    12913.342   -1119.2792    8136.5904    309.46201    15429 
218000000   -3746.3227    3663.6375    12801.105   -914.45336    8324.4136     306.7723    15384 
219000000   -3820.4514    3391.4055     12972.61   -1105.2057    8317.0626    310.88234    15434 
220000000    -3781.233     3285.007    12797.379   -1028.9732    8095.2132    306.68301    15409 
221000000   -3832.3238    3332.1551    12991.021   -1108.4292    8272.9082    311.32355    15419 
222000000   -3765.1623    3697.1076    12798.565   -854.44892    8316.7188    306.71143    15398 
223000000   -3772.1762    3550.6926    13061.436   -925.89164    8248.7605      313.011    15392 
224000000   -3711.4341    3707.7775    12855.064   -894.06789    8313.2794     308.0654    15390 
225000000   -3792.0944    3624.7623    12911.644   -958.65668    8375.5134    309.42131    15400 
226000000   -3797.5055    3488.2991    13064.083   -1050.7806    8336.5851    313.07445    15406 
227000000   -3759.2433    3696.3851    12823.162   -798.83647    8254.4649    307.30088    15388 
228000000   -3809.1178    3475.1664    12972.434    -993.0428     8277.327    310.87811    15408 
229000000   -3748.6512    3489.8161     13025.08   -921.56162    8160.0289    312.13976    15397 
230000000    -3829.725    3346.3719    12928.967   -1077.5003    8253.5971    309.83646    15421 
231000000   -3828.5173    3610.5878    12885.121   -935.77221    8374.8773    308.78571    15392 
232000000   -3803.2484    3455.3022    12864.583    -1048.245    8306.7956    308.29352    15414 
233000000   -3767.0789    3492.8973    12812.652   -1021.5225    8281.4986    307.04903    15419 
234000000   -3930.6098     3368.475    12924.543    -966.9195    8266.0044    309.73044    15410 
235000000   -3783.4898    3500.9576     13011.98   -987.93755     8272.385    311.82583    15401 
236000000   -3808.8276    3411.6079    13231.057   -1007.7291    8228.1646     317.0759    15408 
237000000   -3836.8198    3655.5492    13034.086   -857.12076    8349.4898    312.35558    15398 
238000000   -3798.8682    3575.3859    12947.604   -947.84283    8322.0969    310.28309    15402 
239000000   -3772.4948    3367.2465    12933.868    -1133.762    8273.5033    309.95391    15410 
240000000   -3833.2449    3470.8212    12783.213   -1008.4949     8312.561    306.34353    15398 
241000000   -3873.2829    3477.1145    12816.823   -1059.1927    8409.5901    307.14897    15423 
242000000   -3835.1231    3293.4936    12878.294   -1091.4133    8220.0301    308.62209    15426 
243000000   -3798.5888    3582.1748    12833.978   -887.62251    8268.3861     307.5601    15402 
244000000     -3871.86    3335.2288    12843.734   -1059.3882     8266.477    307.79389    15417 
245000000   -3875.8682    3248.7511    12974.886   -1072.3841    8197.0033    310.93688    15420 
246000000   -3993.4022    3253.0225    12843.986   -964.68084    8211.1055    307.79993    15393 
247000000   -3840.2715    3604.4497    13047.071   -811.30372    8256.0249    312.66675    15381 
248000000   -3924.5401    3499.3298    12961.428   -949.24215     8373.112    310.61436    15416 
249000000   -3816.2483    3476.0924    12983.495   -925.61821    8217.9589    311.14318    15403 
250000000   -3849.4336    3413.5205    13001.601    -1013.349    8276.3031     311.5771    15426 
251000000   -3882.3624    3295.6648    12996.105   -1014.9336    8192.9607    311.44539    15405 
252000000   -3865.6325    3399.2962    12893.733   -991.70312    8256.6318    308.99208    15412 
253000000   -3933.0279     3270.804    12768.311   -1041.9639    8245.7959    305.98641    15404 
254000000   -3794.7605    3575.0025    12915.044   -925.93936    8295.7024    309.50281    15413 
255000000   -3779.6943      3473.96    12965.198   -1037.0408     8290.695    310.70472    15411 
256000000   -3768.4082     3477.793    12950.106   -968.72685    8214.9281    310.34303    15391 
257000000   -3942.1685    3512.3041    13030.701     -893.227    8347.6995    312.27446    15400 
258000000   -3902.5474    3281.4405    12933.707   -980.16784    8164.1557    309.95005    15417 
259000000   -3820.1409    3503.2161    12984.586   -962.76214    8286.1192    311.16933    15392 
260000000   -3786.9053    3525.1262    12961.958   -996.72996    8308.7615    310.62706    15401 
261000000   -3690.3705    3416.2122    13061.944   -961.62862    8068.2112    313.02319    15401 
262000000   -3817.8481    3565.9485    13030.866   -827.80622    8211.6028    312.27841    15389 
263000000   -3847.0151     3435.941    12913.731   -1040.8946    8323.8506    309.47132    15408 
264000000   -3758.7603    3591.7482    13059.861   -935.29878    8285.8072    312.97325    15389 
265000000   -3835.5607    3469.9897    12911.686    -996.0551    8301.6055    309.42233    15405 
266000000   -3807.3596    3419.6166     12925.16   -1009.2645    8236.2406    309.74523    15414 
267000000   -3865.4637    3310.0872    12839.273   -1036.4678    8212.0186    307.68698    15417 
268000000   -3835.1671    3332.0581    12917.376   -1001.5623    8168.7875    309.55868    15408 
269000000   -3783.2017    3433.8521    12859.243   -972.23332    8189.2871    308.16554    15409 
270000000   -3819.2509     3435.409    13013.881   -962.72559    8217.3854    311.87138    15374 
271000000   -3891.0879    3295.2239      12813.2   -1045.7836    8232.0954    307.06216    15420 
272000000   -3788.3517    3325.2178    13014.195    -1046.668    8160.2375     311.8789    15391 
273000000   -3678.4899    3533.0736    12979.401   -1028.1028    8239.6663    311.04508    15406 
274000000   -3868.0857    3487.1864    12808.606   -979.43109    8334.7032    306.95207    15396 
275000000   -3834.1172    3377.4794    12893.146   -1115.8049    8327.4014    308.97802    15414 
276000000   -3764.2746    3495.5889     12941.36   -854.90342    8114.7669    310.13344    15378 
277000000   -3817.4444    3365.7852    12883.561   -1034.8147    8218.0443    308.74832    15412 
278000000   -3834.4243    3428.9119    12998.187   -919.33855    8182.6747    311.49528    15380 
279000000   -3816.6915    3588.1384    12776.022   -869.74643    8274.5763    306.17121    15384 
280000000   -3878.6414    3355.8813     12934.29   -976.03519    8210.5579    309.96402    15397 
281000000   -3763.2439    3535.5175    12933.831   -920.90988    8219.6713    309.95301    15397 
282000000   -3765.2558    3466.3694    12720.095   -1015.9249    8247.5501    304.83093    15413 
283000000   -3768.6688    3713.6902    12972.221   -806.66072    8289.0198      310.873    15383 
284000000   -3741.2112     3455.504    12987.029   -1021.1764    8217.8916    311.22788    15405 
285000000   -3854.4943    3530.7708    13049.298   -919.00091     8304.266    312.72012    15403 
286000000   -3863.8173    3370.8059    13021.122   -987.98096    8222.6042    312.04491    15414 
287000000   -3806.3998    3367.2725    13089.304   -1016.8572    8190.5295    313.67885    15394 
288000000   -3770.7289    3555.5274    12805.979   -882.53469     8208.791    306.88911    15393 
289000000   -3780.9468    3442.3302    12887.531   -927.13508     8150.412    308.84347    15411 
290000000   -3764.5565    3247.1341    12910.404   -1092.6795    8104.3701    309.39161    15407 
291000000   -3790.0516    3522.3118    13065.728   -944.58916    8256.9526    313.11386    15401 
292000000   -3778.9097    3487.6945    12974.468   -1001.2723    8267.8765    310.92686    15404 
293000000   -3761.0947    3440.6889    12777.167   -992.34756    8194.1311    306.19864    15393 
294000000   -3760.9817    3462.0675    13061.607   -1031.2361    8254.2852    313.01511    15411 
295000000   -3872.3923    3368.6535    12976.124   -1039.3558    8280.4015    310.96655    15416 
296000000   -3820.5042    3453.8768    12734.802   -884.92592     8159.307    305.18338    15410 
297000000   -3895.0359    3127.2466     12961.95   -1136.7677    8159.0502    310.62686    15450 
298000000   -3777.6321    3572.1045    12910.863   -1036.3092    8386.0458     309.4026    15392 
299000000   -3835.7826    3439.4054    13054.866   -1109.5534    8384.7415    312.85355    15424 
300000000   -3801.9476    3436.0899    13003.256   -983.54134    8221.5788    311.61674    15402 
301000000   -3706.2505    3552.1326    12940.149   -942.34641    8200.7295    310.10443    15395 
302000000   -3844.1611    3363.3762    12889.997   -1111.4109    8318.9482    308.90256    15420 
303000000   -3750.2811    3538.2096    13032.976   -976.73735     8265.228    312.32899    15398 
304000000   -3795.9826    3351.5379    12883.913   -1111.6824    8259.2029    308.75675    15415 
305000000   -3755.0389     3460.209    12982.057   -1038.5407    8253.7886    311.10874    15408 
306000000   -3760.1802    3450.5656    12940.527   -1013.9411    8224.6869    310.11347    15407 
307000000   -3824.5821    3486.1468    13136.214   -957.52381    8268.2526    314.80302    15400 
308000000   -3762.5938    3546.5066    12986.452   -1027.1422    8336.2426    311.21404    15410 
309000000   -3829.6411    3384.9653    12934.396   -1066.7127    8281.3192    309.96656    15413 
310000000   -3789.4834    3439.3936    12905.285   -996.95358    8225.8306    309.26892    15404 
311000000   -3917.9545    3356.0653    12821.266     -1010.77    8284.7899    307.25545    15402 
312000000   -3775.3215    3434.2751     12996.67    -1072.328    8281.9247    311.45893    15412 
313000000   -3802.2566    3490.9369    12845.364   -968.00066    8261.1942    307.83294    15381 
314000000   -3842.2443     3449.313    12965.389    -923.1926    8214.7499     310.7093    15394 
315000000   -3787.5378    3417.4922    12987.208   -1003.3566    8208.3866    311.23216    15399 
316000000   -3770.1309    3594.6914    12957.925   -984.07308    8348.8953    310.53042    15401 
317000000   -3860.3717    3326.9407    12895.223   -1141.1292    8328.4416    309.02779    15434 
318000000   -3850.4133    3344.1541    13048.855   -1065.7201    8260.2874    312.70951    15414 
319000000   -3817.6003    3486.9626    12920.867   -1020.5515    8325.1144    309.64234    15408 
320000000    -3765.865    3585.9232    13112.692   -880.77568    8232.5638    314.23934    15389 
321000000   -3829.5977    3486.5401    12872.431   -1021.9628    8338.1006     308.4816    15416 
322000000   -3828.8153    3385.4153    12883.797    -973.2745    8187.5051    308.75398    15395 
323000000   -3868.9628    3327.4365    12952.856   -1064.1229    8260.5223    310.40893    15416 
324000000   -3784.0348    3382.2466     12810.63   -1010.6603    8176.9416    307.00055    15408 
325000000   -3767.0735    3524.3895    13071.392   -936.58203     8228.045    313.24959    15384 
326000000   -3786.3718    3472.5149    12795.408    -1015.943    8274.8298    306.63577    15412 
327000000   -3751.7054    3503.4383    12928.877   -1030.6677    8285.8115     309.8343    15403 
328000000   -3792.3775    3642.2948    12941.859   -977.26948    8411.9418    310.14539    15402 
329000000   -3756.4871    3499.4425    12991.482   -1054.3855    8310.3151    311.33459    15410 
330000000   -3817.7212    3483.8027    12834.086   -1025.6229    8327.1468    307.56267    15409 
331000000   -3676.4444      3743.94    12929.249   -861.16642    8281.5508    309.84322    15382 
332000000   -3827.8308    3430.4235    12985.013   -1009.9049    8268.1592    311.17956    15412 
333000000   -3770.1309    3587.2688    13032.373   -986.72466    8344.1244    312.31454    15381 
334000000   -3839.2246     3626.281    12899.206   -915.72596    8381.2316    309.12324    15396 
335000000   -3750.3774    3561.4147    12853.201   -961.47593    8273.2681    308.02075    15398 
336000000   -3701.7616    3668.3713    13071.959   -893.33684    8263.4698    313.26319    15394 
337000000   -3753.6968    3422.9291    12967.539    -1092.832    8269.4579    310.76082    15417 
338000000   -3752.2256    3592.6393    12865.173   -964.20336    8309.0683    308.30767    15393 
339000000   -3812.9323    3338.0255    12991.599   -1072.5338    8223.4916    311.33739    15406 
340000000   -3802.6755    3416.2903    12887.947   -959.35133    8178.3171    308.85343    15394 
341000000   -3793.9046    3536.9267     12877.53   -1014.2274    8345.0586     308.6038    15410 
342000000   -3722.4291    3465.4494    12994.321   -991.59121    8179.4697    311.40262    15398 
343000000   -3746.1241    3568.2642     12873.61   -1065.0438    8379.4321    308.50984    15426 
344000000   -3833.2522    3535.8432    12692.291   -950.78636    8319.8818    304.16463    15406 
345000000    -3800.813    3481.6211    12951.677   -1037.9788    8320.4128    310.38068    15411 
346000000    -3849.242    3440.7512    13047.649   -1095.8162    8385.8094    312.68062    15429 
347000000   -3770.1828    3508.0258    13014.713   -1085.1192    8363.3278    311.89133    15412 
348000000   -3749.9688    3562.9482    12991.615   -1018.5527    8331.4697    311.33777    15411 
349000000   -3683.5122    3466.8071    13082.753   -1099.7888    8250.1082    313.52186    15415 
350000000   -3807.4313    3390.3013    12830.404   -1089.9429    8287.6755    307.47443    15410 
351000000   -3771.0673    3653.0721     12760.74   -899.96203    8324.1015    305.80498    15395 
352000000   -3890.5076    3233.0969    13073.254   -1145.8725    8269.4771    313.29422    15435 
353000000   -3855.6671    3365.2291    13091.396    -1093.424    8314.3202    313.72898    15418 
354000000   -3880.9317    3568.5824    12889.956   -814.80698    8264.3211    308.90157    15402 
355000000   -3747.8021    3540.7557    12802.441   -911.90031    8200.4582    306.80432    15378 
356000000    -3892.951    3370.9222    12969.269   -1022.4448     8286.318    310.80226    15416 
357000000   -3762.9166     3554.758     12876.55   -951.81978    8269.4943    308.58031    15406 
358000000   -3789.7114    3280.1325    12949.652   -1101.9261    8171.7701    310.33217    15428 
359000000   -3849.2293     3453.615    12933.585   -979.98756    8282.8318    309.94713    15410 
360000000   -3842.3375     3304.581    12896.927   -1073.3551    8220.2736    309.06863    15425 
361000000   -3785.5918    3302.7624    12840.417   -1057.8525    8146.2067     307.7144    15419 
362000000   -3805.7638    3475.8914    12881.606   -1060.7321    8342.3872    308.70148    15403 
363000000   -3864.0093    3465.3328    13048.925   -995.46227    8324.8043     312.7112    15404 
364000000   -3882.2711    3430.4488    12875.945   -983.57763    8296.2975    308.56581    15405 
365000000   -3865.0836    3426.7784    12973.211   -1024.1134    8315.9753    310.89673    15426 
366000000   -3865.3362    3333.8245    12921.642   -1023.1135    8222.2742    309.66092    15411 
367000000   -3716.9441    3543.2862    12862.311   -1008.5156    8268.7459    308.23908    15407 
368000000    -3788.992    3252.1162    12915.424   -1046.9713    8088.0796    309.51191    15409 
369000000    -3726.384    3691.2594    12964.858   -863.45491    8281.0982    310.69655    15391 
370000000   -3814.6202    3210.3638    12918.515   -1114.5894    8139.5734    309.58598    15411 
371000000   -3870.2519    3264.9057    12881.625    -1077.551    8212.7086    308.70194    15420 
372000000    -3826.498    3530.9454     13016.04   -1001.9321    8359.3755    311.92311    15413 
373000000   -3837.4542    3348.1367    12964.863   -1010.0204    8195.6112    310.69669    15422 
374000000    -3763.014    3343.7168    13023.767   -1126.4808    8233.2116    312.10829    15436 
375000000   -3848.7926    3546.9022    12775.365   -923.35404    8319.0488    306.15546    15398 
376000000   -3900.5413    3327.5577    12875.157   -1017.3671    8245.4661    308.54691    15416 
377000000   -3824.7224    3369.3002    12842.526   -1078.3085    8272.3311    307.76495    15407 
378000000   -3877.7975    3305.4104    13034.584   -1038.9023    8222.1102    312.36752    15431 
379000000   -3785.4003    3549.5151    12818.063   -1012.4377    8347.3532    307.17869    15401 
380000000   -3822.6812    3554.2999    12751.247   -845.70128    8222.6824    305.57747    15378 
381000000   -3867.6094    3422.2551    12801.534   -934.76413    8224.6286    306.78258    15399 
382000000   -3752.1379    3450.3083    12942.363   -1094.4622    8296.9083    310.15747    15434 
383000000   -3838.0914    3289.6464    12914.938   -1085.2971    8213.0348    309.50026    15427 
384000000   -3839.0341     3379.272     12865.59   -1014.6038    8232.9099    308.31765    15408 
385000000   -3834.7276    3525.0838    12998.484   -997.23576    8357.0472     311.5024    15399 
386000000   -3739.8902    3596.5679    12933.043   -1017.3283    8353.7865    309.93414    15410 
387000000   -3890.9219    3173.8583     12939.31   -1111.8342    8176.6143    310.08432    15427 
388000000   -3825.4871    3251.1536    12842.787   -1069.1892    8145.8299    307.77118    15412 
389000000    -3895.142    3446.0103    12933.115   -995.42655    8336.5788    309.93586    15418 
390000000   -3813.5593    3427.2088    12957.104   -965.97682     8206.745    310.51075    15397 
391000000   -3913.5934     3383.909      13036.3    -974.4174    8271.9199    312.40863    15417 
392000000   -3747.4029    3523.4978    12837.438   -950.18859    8221.0892      307.643    15399 
393000000   -3903.4545    3356.0681    12893.615   -959.17629    8218.6989    308.98925    15404 
394000000   -3799.5536    3402.8361    12771.303   -1074.5479    8276.9375    306.05811    15414 
395000000   -3875.6851    3438.4105    12969.882   -997.14677    8311.2424    310.81695    15385 
396000000    -3741.747    3529.7001    13066.263   -1064.8366    8336.2837    313.12668    15417 
397000000   -3804.5751    3551.4274    12796.615   -1028.0404    8384.0428    306.66469    15418 
398000000   -3894.8773    3357.2462    12965.348   -1016.9973    8269.1207    310.70831    15416 
399000000   -3866.2743    3241.5445    12981.039   -1072.4247    8180.2436    311.08434    15416 
400000000   -3904.6984    3392.6547    13173.744   -955.12633    8252.4794    315.70241    15411 
Loop time of 156157 on 28 procs for 400000000 steps with 14000 atoms

Performance: 5532.880 ns/day, 0.004 hours/ns, 2561.519 timesteps/s
99.5% CPU use with 28 MPI tasks x no OpenMP threads

MPI task timing breakdown:
Section |  min time  |  avg time  |  max time  |%varavg| %total
---------------------------------------------------------------
Pair    | 18124      | 23442      | 27093      |1456.7 | 15.01
Bond    | 4700       | 6201.9     | 8869.4     |2311.0 |  3.97
Neigh   | 52277      | 52951      | 53780      | 181.2 | 33.91
Comm    | 36543      | 42475      | 51698      |1998.4 | 27.20
Output  | 0.63554    | 0.75126    | 0.75702    |   2.6 |  0.00
Modify  | 19594      | 19842      | 20133      |  87.9 | 12.71
Other   |            | 1.124e+04  |            |       |  7.20

Nlocal:    500 ave 535 max 464 min
Histogram: 1 2 2 5 6 2 4 2 3 1
Nghost:    849 ave 1151 max 609 min
Histogram: 2 6 3 5 3 0 1 3 2 3
Neighs:    6982.57 ave 8452 max 5138 min
Histogram: 1 3 1 1 7 3 3 5 0 4

Total # of neighbors = 195512
Ave neighs/atom = 13.9651
Ave special neighs/atom = 8.79957
Neighbor list builds = 79940405
Dangerous builds = 0
System init for write_restart ...
Total wall time: 43:22:45
