LAMMPS (5 Jun 2019)
Reading restart file ...
  restart file = 5 Jun 2019, LAMMPS = 5 Jun 2019
  restoring atom style full from restart
  orthogonal box = (-420 -420 -420) to (420 420 420)
  2 by 2 by 7 MPI processor grid
  restoring pair style lj/cut from restart
  restoring bond style hybrid from restart
  restoring angle style cosine from restart
  14000 atoms
  15400 bonds
  13600 angles
Finding 1-2 1-3 1-4 neighbors ...
  special bond factors lj:   0          1          1         
  special bond factors coul: 0          0          0         
  3 = max # of 1-2 neighbors
  4 = max # of 1-3 neighbors
  8 = max # of 1-4 neighbors
  56 = max # of special neighbors
  special bonds CPU = 0.00256344 secs
  read_restart CPU = 0.0994394 secs
Finding 1-2 1-3 1-4 neighbors ...
  special bond factors lj:   0          1          1         
  special bond factors coul: 0          0          0         
  3 = max # of 1-2 neighbors
  4 = max # of 1-3 neighbors
  8 = max # of 1-4 neighbors
  40000 = # of 1-3 neighbors before angle trim
  27200 = # of 1-3 neighbors after angle trim
  56 = max # of special neighbors
  special bonds CPU = 0.00168038 secs
Neighbor list info ...
  update every 1 steps, delay 1 steps, check yes
  max neighbors/atom: 2000, page size: 100000
  master list distance cutoff = 26.9
  ghost atom cutoff = 26.9
  binsize = 13.45, bins = 63 63 63
  1 neighbor lists, perpetual/occasional/extra = 1 0 0
  (1) pair lj/cut, perpetual
      attributes: half, newton on
      pair build: half/bin/newton
      stencil: half/bin/3d/newton
      bin: standard
Setting up Verlet run ...
  Unit style    : real
  Current step  : 400000000
  Time step     : 0.1
Per MPI rank memory allocation (min/avg/max) = 1.103 | 8.734 | 16.68 Mbytes
Step Temp E_pair E_mol TotEng Press 
400000000    309.15385   -3883.9585    7313.6917    16330.216 -0.051116408 
400010000    309.61066   -3842.6211    7207.6777    16284.601  0.079917846 
Loop time of 5.40939 on 28 procs for 10000 steps with 14000 atoms

Performance: 15.972 ns/day, 1.503 hours/ns, 1848.638 timesteps/s
99.5% CPU use with 28 MPI tasks x no OpenMP threads

MPI task timing breakdown:
Section |  min time  |  avg time  |  max time  |%varavg| %total
---------------------------------------------------------------
Pair    | 0.00033976 | 0.53523    | 3.1657     | 114.5 |  9.89
Bond    | 0.0005145  | 0.1119     | 0.51534    |  43.8 |  2.07
Neigh   | 0.018576   | 0.01939    | 0.020992   |   0.7 |  0.36
Comm    | 0.0019369  | 1.9033     | 3.919      | 109.7 | 35.18
Output  | 5.6605e-05 | 0.00034941 | 0.00072232 |   0.0 |  0.01
Modify  | 0.00092717 | 0.24581    | 1.1262     |  64.5 |  4.54
Other   |            | 2.593      |            |       | 47.94

Nlocal:    500 ave 2263 max 0 min
Histogram: 15 2 3 0 3 2 1 0 0 2
Nghost:    543.643 ave 1938 max 0 min
Histogram: 10 4 2 3 3 1 3 0 1 1
Neighs:    6930.86 ave 34846 max 0 min
Histogram: 15 4 1 2 3 1 0 0 0 2

Total # of neighbors = 194064
Ave neighs/atom = 13.8617
Ave special neighs/atom = 7.86414
Neighbor list builds = 7
Dangerous builds = 0
4000 atoms in group rxnSites
Neighbor list info ...
  update every 1 steps, delay 1 steps, check yes
  max neighbors/atom: 2000, page size: 100000
  master list distance cutoff = 26.9
  ghost atom cutoff = 26.9
  binsize = 13.45, bins = 63 63 63
  2 neighbor lists, perpetual/occasional/extra = 1 1 0
  (1) pair lj/cut, perpetual
      attributes: half, newton on
      pair build: half/bin/newton
      stencil: half/bin/3d/newton
      bin: standard
  (2) fix bond/create/random, occasional, copy from (1)
      attributes: half, newton on
      pair build: copy
      stencil: none
      bin: none
Setting up Verlet run ...
  Unit style    : real
  Current step  : 0
  Time step     : 25
Per MPI rank memory allocation (min/avg/max) = 17.81 | 18.29 | 19.24 Mbytes
Step E_pair PotEng KinEng E_bond E_angle Temp Bonds 
       0   -3842.6211    3365.0566    12919.545   -1090.8712    8298.5489    309.61066    15400 
 1000000   -3750.8782    3547.9838    12956.433    -957.3869    8256.2489    310.49467    15404 
