LAMMPS (5 Jun 2019)
Reading restart file ...
  restart file = 5 Jun 2019, LAMMPS = 5 Jun 2019
  restoring atom style full from restart
  orthogonal box = (-420 -420 -420) to (420 420 420)
  2 by 2 by 7 MPI processor grid
  restoring pair style lj/cut from restart
  restoring bond style hybrid from restart
  restoring angle style cosine from restart
  14000 atoms
  15416 bonds
  13600 angles
Finding 1-2 1-3 1-4 neighbors ...
  special bond factors lj:   0          1          1         
  special bond factors coul: 0          0          0         
  3 = max # of 1-2 neighbors
  4 = max # of 1-3 neighbors
  8 = max # of 1-4 neighbors
  56 = max # of special neighbors
  special bonds CPU = 0.523411 secs
  read_restart CPU = 0.613984 secs
Finding 1-2 1-3 1-4 neighbors ...
  special bond factors lj:   0          1          1         
  special bond factors coul: 0          0          0         
  3 = max # of 1-2 neighbors
  4 = max # of 1-3 neighbors
  8 = max # of 1-4 neighbors
  40128 = # of 1-3 neighbors before angle trim
  27200 = # of 1-3 neighbors after angle trim
  56 = max # of special neighbors
  special bonds CPU = 0.00219442 secs
Neighbor list info ...
  update every 1 steps, delay 1 steps, check yes
  max neighbors/atom: 2000, page size: 100000
  master list distance cutoff = 26.9
  ghost atom cutoff = 26.9
  binsize = 13.45, bins = 63 63 63
  1 neighbor lists, perpetual/occasional/extra = 1 0 0
  (1) pair lj/cut, perpetual
      attributes: half, newton on
      pair build: half/bin/newton
      stencil: half/bin/3d/newton
      bin: standard
Setting up Verlet run ...
  Unit style    : real
  Current step  : 400000000
  Time step     : 0.1
Per MPI rank memory allocation (min/avg/max) = 1.103 | 7.731 | 16.64 Mbytes
Step Temp E_pair E_mol TotEng Press 
400000000    307.89002   -3818.1784    7243.1253    16272.692  -0.10315906 
400010000    308.65336   -3787.0255    7091.3308    16183.904  0.089725087 
Loop time of 4.41523 on 28 procs for 10000 steps with 14000 atoms

Performance: 19.569 ns/day, 1.226 hours/ns, 2264.885 timesteps/s
99.6% CPU use with 28 MPI tasks x no OpenMP threads

MPI task timing breakdown:
Section |  min time  |  avg time  |  max time  |%varavg| %total
---------------------------------------------------------------
Pair    | 0.00034591 | 0.51995    | 2.153      |  93.5 | 11.78
Bond    | 0.00052456 | 0.11437    | 0.42617    |  40.1 |  2.59
Neigh   | 0.01441    | 0.015171   | 0.016538   |   0.7 |  0.34
Comm    | 0.0017779  | 1.3705     | 2.7669     |  80.6 | 31.04
Output  | 7.9484e-05 | 0.00032999 | 0.00064546 |   0.0 |  0.01
Modify  | 0.00095576 | 0.24997    | 0.92164    |  59.0 |  5.66
Other   |            | 2.145      |            |       | 48.58

Nlocal:    500 ave 1846 max 0 min
Histogram: 16 0 1 1 1 4 2 0 2 1
Nghost:    554.321 ave 1694 max 0 min
Histogram: 10 5 1 0 1 3 4 1 2 1
Neighs:    6807.18 ave 25901 max 0 min
Histogram: 16 0 1 1 3 3 1 0 1 2

Total # of neighbors = 190601
Ave neighs/atom = 13.6144
Ave special neighs/atom = 7.88271
Neighbor list builds = 7
Dangerous builds = 0
4000 atoms in group rxnSites
Neighbor list info ...
  update every 1 steps, delay 1 steps, check yes
  max neighbors/atom: 2000, page size: 100000
  master list distance cutoff = 26.9
  ghost atom cutoff = 26.9
  binsize = 13.45, bins = 63 63 63
  2 neighbor lists, perpetual/occasional/extra = 1 1 0
  (1) pair lj/cut, perpetual
      attributes: half, newton on
      pair build: half/bin/newton
      stencil: half/bin/3d/newton
      bin: standard
  (2) fix bond/create/random, occasional, copy from (1)
      attributes: half, newton on
      pair build: copy
      stencil: none
      bin: none
Setting up Verlet run ...
  Unit style    : real
  Current step  : 0
  Time step     : 25
Per MPI rank memory allocation (min/avg/max) = 17.8 | 18.29 | 19.25 Mbytes
Step E_pair PotEng KinEng E_bond E_angle Temp Bonds 
       0   -3787.0255    3304.3053    12879.598   -1098.6769    8190.0078    308.65336    15416 
 1000000   -3781.9678    3430.2355    13008.813   -1025.9365    8238.1397    311.74993    15416 
 2000000   -3798.4996    3463.0042    12832.698   -1037.9392     8299.443    307.52941    15387 
 3000000   -3906.9151    3366.8813     13022.91   -1072.3299    8346.1263    312.08774    15432 
 4000000   -3811.9275    3593.0469    12960.208   -843.44951    8248.4239    310.58513    15394 
 5000000   -3752.1576    3568.1233    12852.969    -943.1449    8263.4258    308.01521    15402 
 6000000   -3908.1893    3114.6372    12875.118   -1130.2239    8153.0504    308.54599    15424 
 7000000   -3887.6228    3404.1713    12971.814   -960.12573    8251.9198    310.86327    15400 
 8000000   -3837.1174    3514.6099    13060.139   -953.75868     8305.486    312.97993    15397 
 9000000   -3802.7347    3516.1943    12806.248   -858.20187    8177.1309    306.89556    15383 
10000000    -3768.471    3372.8899    13027.145    -984.3934    8125.7543    312.18923    15413 
11000000   -3837.5337    3415.4287    12858.174   -983.44607    8236.4085    308.13992    15413 
12000000   -3869.6746    3359.3184    12865.397    -974.5039    8203.4969    308.31302    15391 
13000000    -3953.573    3444.5578    12917.846   -918.29226    8316.4231    309.56994    15397 
14000000   -3803.1001    3453.5416    12885.948   -994.27902    8250.9207    308.80553    15410 
15000000   -3805.7022    3434.8933     13027.37   -967.85635    8208.4519    312.19463    15391 
16000000   -3864.1039    3395.9481    12961.722   -1056.9602    8317.0122    310.62141    15396 
17000000   -3713.8946    3679.2248    12835.255   -970.70559     8363.825     307.5907    15400 
18000000   -3815.9732     3496.484    12942.158   -1057.4351    8369.8923    310.15256    15417 
19000000   -3762.5233    3635.1629      13034.9   -977.56827    8375.2545    312.37509    15378 
20000000   -3767.9112    3463.0864    12975.818   -958.87229    8189.8699    310.95923    15404 
21000000   -3811.2107    3480.8872    12977.749    -999.8834    8291.9813    311.00548    15400 
22000000   -3793.4472     3619.934    13044.727   -894.91581     8308.297    312.61058    15408 
23000000   -3765.9345     3545.471     12856.02   -1035.5703    8346.9758    308.08832    15398 
24000000   -3787.9635    3573.3602    12971.561   -934.22691    8295.5507    310.85719    15405 
25000000   -3829.3386    3548.5884    13031.864   -981.84328    8359.7703    312.30234    15433 
26000000   -3854.6434    3429.0601    12996.135   -1027.1188    8310.8223    311.44611    15408 
27000000   -3725.9696    3592.6421    12890.061    -932.0776    8250.6893    308.90408    15396 
28000000   -3892.5891    3332.9849    12895.118   -949.41527    8174.9892    309.02528    15409 
29000000   -3899.5456    3304.1965     12950.23   -1089.6993    8293.4414    310.34602    15417 
30000000   -3690.3877    3429.2558    12940.229   -1046.6707    8166.3141    310.10633    15415 
31000000   -3899.7739    3373.8929    12797.542   -1021.7994    8295.4663    306.68691    15401 
32000000   -3870.2621    3519.5907    12996.737   -889.60962    8279.4624    311.46053    15411 
33000000   -3766.3301    3572.2465    12907.904   -987.18811    8325.7648    309.33169    15421 
34000000   -3805.3646    3480.7879    12779.649   -939.19656     8225.349    306.25812    15407 
35000000   -3784.2102     3527.448    12896.581   -995.01512    8306.6733    309.06034    15403 
36000000   -3845.9941    3547.6526    13002.787   -963.90351    8357.5502    311.60551    15404 
37000000   -3835.8056    3300.1834    12904.209   -1051.2318    8187.2208    309.24315    15417 
38000000   -3694.0863    3386.5139     12908.09   -1073.3763    8153.9765    309.33614    15399 
39000000   -3819.9088    3542.5141    13055.714   -1004.2739    8366.6968    312.87388    15390 
40000000   -3893.0264    3482.0702    12976.669   -959.46144     8334.558     310.9796    15405 
41000000   -3794.6911    3450.7107    12927.354   -1031.0234    8276.4252    309.79779    15399 
42000000   -3810.3403    3165.7996    12964.825   -1177.4174    8153.5574    310.69578    15431 
43000000   -3743.0104    3547.2119    12982.599   -921.60267     8211.825    311.12171    15391 
44000000   -3861.9901    3396.5818    12986.202   -966.04454    8224.6164    311.20805    15387 
45000000   -3840.9304    3497.7903    12884.984   -914.92967    8253.6504    308.78242    15388 
46000000   -3716.2764    3386.8997    12780.765   -1066.2375    8169.4136    306.28486    15413 
47000000    -3811.133    3400.2631    13025.595   -976.76312    8188.1592    312.15208    15406 
48000000   -3818.5642     3461.185    12880.072   -923.64288     8203.392    308.66471    15395 
49000000   -3875.7584    3375.3599    13112.945   -1067.5778    8318.6961    314.24539    15412 
50000000   -3852.5236    3368.5445    12960.664    -1041.059    8262.1271    310.59606    15404 
51000000   -3908.7689    3332.2257    12948.657   -972.73965    8213.7343    310.30832    15417 
52000000   -3912.9351    3307.1375    12742.396   -941.06621    8161.1389    305.36536    15414 
53000000    -3902.468    3490.6592    12939.938   -960.86814    8353.9953    310.09936    15407 
54000000   -3861.3342     3409.684     12810.65    -966.8364    8237.8545    307.00104    15407 
55000000   -3813.1867    3352.2139    12770.926    -1019.897    8185.2976    306.04908    15416 
56000000   -3768.4673    3688.6805    12911.387   -845.86766    8303.0155    309.41515    15411 
57000000   -3807.6634    3543.1511    13118.483   -1016.4225     8367.237    314.37812    15408 
58000000    -3778.872    3621.8401    12945.253   -924.70059    8325.4127    310.22673    15380 
59000000   -3830.8822    3291.6747    12889.852   -1171.6959    8294.2528    308.89908    15431 
60000000   -3739.1384    3573.7686    12872.733   -927.47543    8240.3824    308.48882    15411 
61000000   -3877.4392    3408.3522    13018.096   -984.28617    8270.0776    311.97238    15412 
62000000   -3925.1697    3268.0201    12892.619   -1056.9634    8250.1532    308.96539    15423 
63000000   -3806.8745     3616.178    12980.883   -899.38803    8322.4405     311.0806    15407 
64000000   -3807.4984    3435.2968    12724.376   -917.69158    8160.4868    304.93354    15366 
65000000   -3775.5702    3562.9885    12783.877   -985.42398    8323.9826    306.35944    15399 
66000000   -3840.3032    3386.5552    12850.532   -1036.8152    8263.6735     307.9568    15410 
67000000   -3876.1122    3413.4983    12907.857   -961.76853     8251.379    309.33055    15403 
68000000   -3807.6242    3387.8683    13056.416   -1094.5414    8290.0339     312.8907    15405 
69000000   -3862.6176    3291.4191    12933.338   -1113.3059    8267.3426    309.94121    15427 
70000000   -3694.9285    3492.3144    13072.733   -943.89037    8131.1333    313.28175    15389 
71000000   -3798.4783    3477.3688    12906.317   -948.86681    8224.7139    309.29366    15413 
72000000   -3812.2215    3629.2124     12841.07   -889.36124    8330.7952    307.73005    15394 
73000000   -3912.3882     3511.733    12915.227   -882.31956    8306.4407    309.50719    15390 
74000000    -3768.456     3390.124     12939.99   -1040.3267    8198.9067    310.10062    15408 
75000000    -3808.707    3453.9602    13043.506   -1031.8553    8294.5225    312.58132    15404 
76000000   -3821.1787    3398.7608    12895.124   -971.81035    8191.7499    309.02542    15397 
77000000   -3832.2527    3312.0728    12963.529   -1117.7658    8262.0914    310.66471    15428 
78000000   -3849.2126    3590.7412    12974.257   -927.67597    8367.6298     310.9218    15406 
79000000   -3801.4415    3365.8643    12926.094   -1032.1576    8199.4633     309.7676    15404 
80000000   -3814.7698    3471.1255     12958.81   -954.94648    8240.8417    310.55163    15402 
81000000   -3843.0617    3301.2142     13073.74   -1062.5373    8206.8132    313.30587    15410 
82000000   -3847.2499    3371.5715    12941.087   -999.42876    8218.2501    310.12689    15433 
83000000    -3775.791    3549.3331    12980.987   -999.03972    8324.1638    311.08309    15411 
84000000   -3768.5992    3440.1279    12905.058   -1133.6182    8342.3454    309.26348    15420 
85000000   -3796.1908    3487.7759    12972.406   -1028.6477    8312.6144    310.87745    15424 
86000000   -3771.0805     3349.051    12873.301   -1120.5125     8240.644    308.50245    15427 
87000000   -3759.2571     3663.235    12832.092   -873.99801    8296.4901    307.51488    15393 
88000000   -3938.8657    3385.1361    12986.009   -982.52969    8306.5315    311.20343    15410 
89000000   -3876.1899    3288.2052    13045.687   -1027.9645    8192.3596    312.63358    15424 
90000000    -3899.023    3286.8504    12893.588   -955.22788    8141.1012    308.98861    15410 
91000000   -3867.3122    3387.9928    12951.319   -987.41655    8242.7216     310.3721    15401 
92000000   -3722.7223    3632.5134    12915.999   -883.47048    8238.7062    309.52568    15377 
93000000   -3931.8847    3302.7818    12937.729   -971.05681    8205.7233    310.04644    15421 
94000000   -3879.9748    3380.1193    12909.178   -1007.2267    8267.3208    309.36222    15407 
95000000   -3787.6024    3452.7779    13034.154   -997.70859     8238.089     312.3572    15399 
96000000   -3956.0473    3283.5668    12890.849   -964.00671    8203.6208    308.92298    15396 
97000000    -3868.257    3514.1368    12908.242   -907.63833    8290.0321    309.33979    15395 
98000000   -3868.6059    3219.4686    12937.031   -1050.2126    8138.2871     310.0297    15416 
99000000   -3831.4189    3501.3997    12981.579   -881.96421    8214.7829    311.09727    15391 
100000000   -3808.4565    3492.5696    12974.658   -971.72233    8272.7485    310.93141    15431 
101000000   -3814.5981    3344.5766    13018.966   -1022.7069    8181.8816    311.99323    15409 
102000000   -3863.9802    3387.6402    12957.298   -995.19233    8246.8127     310.5154    15401 
103000000   -3981.9343    3188.1556    12844.941   -1062.7584    8232.8484    307.82281    15401 
104000000   -3774.8775    3460.1517    12966.323   -1030.0266    8265.0559    310.73166    15407 
105000000    -3744.646    3589.7139    13053.945   -840.22825    8174.5881     312.8315    15376 
106000000   -3770.0449    3515.0386    12951.647   -931.12725    8216.2107    310.37998    15389 
107000000   -3851.5428    3399.5578    12862.369    -973.3015    8224.4021    308.24047    15380 
108000000   -3777.2406    3568.4554    12831.858   -928.99615    8274.6921    307.50928    15386 
109000000   -3803.8809     3239.149    13052.454   -1128.9626    8171.9926    312.79577    15427 
110000000   -3810.9709    3402.5196    12945.478   -978.39673    8191.8872    310.23213    15413 
111000000   -3927.4558    3376.2046    12961.887   -991.56972    8295.2302    310.62536    15425 
112000000    -3734.488    3570.3942    12794.347    -877.4548    8182.3369    306.61034    15398 
113000000   -3827.3743    3456.2018    12712.708   -944.46525    8228.0414    304.65392    15377 
114000000   -3815.4014    3527.9066    12935.797   -961.80315    8305.1112    310.00013    15401 
115000000    -3687.847    3643.5754    13074.623   -984.38965     8315.812    313.32702    15401 
116000000   -3879.4563    3408.8817    12953.558   -945.89236    8234.2304    310.42576    15398 
117000000   -3899.5946    3322.4532    12828.265   -982.92377    8204.9715    307.42318    15398 
118000000   -3870.5488    3322.4178    12881.844   -1039.4786    8232.4453    308.70718    15425 
119000000    -3888.662    3518.8044    13091.772   -926.93011    8334.3965      313.738    15396 
120000000   -3897.2515    3455.8471    12996.209   -854.81174    8207.9103    311.44787    15391 
121000000   -3869.4549     3326.788    12969.421   -984.73157    8180.9745    310.80591    15410 
122000000   -3912.1356    3388.4503      13005.4   -1012.2191     8312.805    311.66814    15411 
123000000   -3833.2567    3523.5708    12792.107   -956.91031    8313.7378    306.55667    15419 
124000000   -3782.3607    3449.6907    12907.611   -981.97728    8214.0288    309.32466    15385 
125000000   -3845.3342    3614.8757    12917.343   -938.10667    8398.3165    309.55788    15396 
126000000   -3890.0205    3435.8755    13038.632   -1003.6889    8329.5849    312.46451    15411 
127000000   -3760.1863    3555.5185    12898.769   -969.45111    8285.1559    309.11278    15410 
128000000   -3926.6126    3317.5068    12821.986   -1026.8139    8270.9332    307.27271    15426 
129000000   -3875.1505    3424.4406    12789.001   -1001.7779     8301.369    306.48223    15421 
130000000   -3822.9022    3566.1563    12889.802   -942.59417    8331.6527    308.89789    15388 
131000000   -3809.3656    3507.7593    12969.652   -1034.4766    8351.6015    310.81145    15411 
132000000   -3743.2054    3412.5236     13004.39   -1036.8011    8192.5301    311.64394    15411 
133000000    -3838.706    3587.0989    13019.244   -923.40268    8349.2076     311.9999    15391 
134000000   -3850.2026    3386.5395    12848.139   -1082.0458     8318.788    307.89945    15416 
135000000   -3693.5298    3431.1479    13016.231   -1100.8501    8225.5279    311.92769    15419 
136000000   -3702.5038    3729.1123    12842.939    -865.3977    8297.0138    307.77484    15387 
137000000   -3784.9348     3461.687    12913.324   -1035.6072     8282.229    309.46158    15399 
138000000   -3747.1213    3515.5529     12837.16   -1010.7233    8273.3976    307.63634    15426 
139000000   -3916.6625    3402.2023    12950.569   -956.15688    8275.0216    310.35415    15413 
140000000    -3843.145    3396.9229    12981.792   -1052.2995    8292.3674    311.10237    15416 
141000000   -3834.6547    3273.8538    12911.013   -1190.7983    8299.3067     309.4062    15421 
142000000   -3862.3198    3303.6721     12912.05   -984.04028    8150.0322    309.43106    15420 
143000000   -3730.6439    3477.8449    12866.163   -1026.1574    8234.6462    308.33138    15423 
144000000    -3792.855    3570.3377    12933.453   -890.11846    8253.3111    309.94395    15380 
145000000   -3814.5308    3587.7982      12978.5   -994.98939    8397.3184    311.02348    15402 
146000000   -3757.2402    3621.9764    12945.308   -1034.2659    8413.4824    310.22807    15415 
147000000   -3786.9624    3677.6981    13050.909   -876.66527    8341.3257    312.75873    15395 
148000000   -3802.0374    3383.1504    13029.986   -1006.0738    8191.2616    312.25733    15411 
149000000   -3849.3269    3352.8589    12863.645   -1037.8298    8240.0157    308.27104    15406 
150000000   -3908.7367    3300.9188    13034.928   -1079.9255    8289.5811    312.37576    15428 
151000000   -3740.1489     3465.993     12939.56    -935.7658    8141.9078    310.09032    15402 
152000000   -3818.6668     3454.218    13046.373   -1025.0644    8297.9492    312.65004    15408 
153000000   -3821.4851    3458.1653    12800.376   -1050.1092    8329.7596    306.75484    15422 
154000000   -3881.8291    3193.3796    12784.373   -1075.8016    8151.0103    306.37133    15396 
155000000   -3831.6897    3500.3021    12810.901   -962.99052    8294.9824    307.00706    15411 
156000000   -3779.3529    3602.1925    13111.009   -875.57305    8257.1184    314.19901    15396 
157000000   -3765.3811    3443.5114    12858.926   -1007.7986     8216.691    308.15796    15394 
158000000   -3845.5596    3381.7461    12824.209   -980.93234     8208.238    307.32597    15410 
159000000    -3688.582    3407.0876    12922.474   -1088.4039    8184.0736    309.68086    15397 
160000000   -3870.8125    3167.7769    12913.564    -1123.739    8162.3284    309.46732    15423 
161000000   -3800.5304    3650.1937    12788.168   -920.41766    8371.1417    306.46227    15388 
162000000   -3804.0628    3504.2303    12974.619   -967.46405    8275.7572    310.93047    15408 
163000000   -3838.9666    3388.5158    12986.211    -1042.088    8269.5704    311.20829    15408 
164000000   -3864.3237    3443.5549    13007.394   -943.03268    8250.9112    311.71593    15407 
165000000    -3829.725    3597.4151    12917.841   -889.12298    8316.2631    309.56982    15399 
166000000   -3891.1898    3305.5217    13087.173   -981.37578    8178.0873    313.62779    15404 
167000000    -3766.072     3534.205    12899.695   -973.04714    8273.3242    309.13498    15389 
168000000   -3776.8816    3511.2806    12901.931   -941.06028    8229.2225    309.18854    15396 
169000000   -3830.1265    3410.7884     12923.72   -1019.2235    8260.1383     309.7107    15415 
170000000   -3784.8887    3451.3316    12872.312   -944.35166    8180.5719    308.47875    15409 
171000000   -3809.1699    3469.4838    12874.392   -1015.8756    8294.5293     308.5286    15406 
172000000   -3831.1283    3477.7265    13140.107   -1039.6275    8348.4823    314.89632    15426 
173000000   -3827.8361    3521.6292    12869.713     -889.326    8238.7913    308.41646    15385 
174000000   -3755.4824    3631.5083    13091.159   -907.90804    8294.8988    313.72331    15396 
175000000   -3757.3322    3398.7634    12938.024   -1099.8632    8255.9588    310.05349    15413 
176000000   -3836.8955     3419.689    12863.309   -1024.7734     8281.358    308.26298    15406 
177000000   -3871.7899    3245.5298    12849.657   -1076.0223    8193.3421    307.93583    15426 
178000000   -3829.0792    3617.7861     12836.52   -929.12703    8375.9924    307.62101    15397 
179000000   -3814.9702    3352.1691    12859.935   -1002.5934    8169.7328    308.18213    15413 
180000000   -3855.8475     3306.918    12853.317   -1026.9971    8189.7626    308.02355    15413 
181000000    -3708.696     3517.874    12965.008   -968.35292    8194.9229    310.70015    15394 
182000000   -3829.0882    3564.6599    12856.238   -938.23657    8331.9846    308.09355    15390 
183000000   -3708.6764    3669.7355    12921.543   -964.35793    8342.7698    309.65855    15389 
184000000   -3798.3762    3578.9249     12965.97   -943.98806    8321.2891     310.7232    15411 
185000000   -3837.6406    3489.8389    12751.069   -936.70352     8264.183    305.57322    15397 
186000000   -3819.1641    3509.9272     12868.61   -945.59198    8274.6832    308.39002    15400 
187000000   -3824.2541      3682.48    13019.532   -855.19921    8361.9333     312.0068    15404 
188000000   -3683.4602    3664.1187    12957.746   -944.85852    8292.4374    310.52614    15397 
189000000   -3792.0746    3354.2151    12890.719   -1112.4193     8258.709    308.91985    15407 
190000000   -3749.1881    3542.9927    12999.977   -1058.4929    8350.6737    311.53816    15404 
191000000   -3825.7163    3539.4662    13048.216   -926.33417    8291.5167    312.69419    15411 
192000000   -3858.4448    3359.8254    12949.399   -997.94327    8216.2135    310.32609    15397 
193000000   -3797.2065    3409.2249    13000.377   -962.75598    8169.1874    311.54775    15400 
194000000   -3764.4466    3480.4396    12899.529    -992.0608     8236.947      309.131    15393 
195000000   -3710.7003    3567.7607    12766.692   -923.03165    8201.4927    305.94761    15402 
196000000   -3840.0177    3295.4257    12916.304   -975.83184    8111.2753    309.53298    15412 
197000000   -3789.4487    3467.7657    12888.505   -973.27051    8230.4849     308.8668    15403 
198000000   -3853.2168    3412.3453    12719.276   -984.04121    8249.6033    304.81131    15402 
199000000   -3880.0447    3356.4461    13144.019   -1035.8004    8272.2912    314.99008    15408 
200000000   -3853.3973    3336.2261    12989.208   -905.25218    8094.8757    311.28009    15404 
201000000   -3838.9611    3486.0457    12950.238   -1058.1664    8383.1731     310.3462    15416 
202000000   -3770.7071    3353.5295    12919.283   -1122.2705    8246.5071    309.60438    15407 
203000000   -3788.0869    3356.5731    12813.983   -1070.1296    8214.7897    307.08092    15398 
204000000    -3867.479    3263.5067    12965.822   -1007.2164    8138.2021    310.71967    15416 
205000000   -3814.8787     3415.682    12863.035   -1065.9052    8296.4658    308.25642    15421 
206000000   -3800.8582    3480.4303    12942.259    -1011.697    8292.9854    310.15498    15406 
207000000    -3820.291    3501.1636     12913.35   -1031.0842    8352.5388    309.46219    15416 
208000000    -3854.699      3317.61    12859.268   -1007.5662    8179.8752    308.16615    15400 
209000000   -3821.4056    3469.6263    12989.915   -945.80165    8236.8335    311.29705    15411 
210000000   -3800.2614    3359.7105    13047.028   -1119.8574    8279.8293    312.66572    15412 
211000000   -3750.0315     3594.795    12888.096   -919.92533    8264.7518      308.857    15403 
212000000    -3719.692    3502.4801    12962.398   -976.22402    8198.3961    310.63762    15397 
213000000   -3846.7473     3451.682    12976.575   -959.43534    8257.8646    310.97736    15382 
214000000   -3837.7526    3337.2563    13088.407   -1029.3327    8204.3416    313.65736    15398 
215000000   -3841.1742    3492.2735    12842.526   -988.27971    8321.7274    307.76493    15395 
216000000   -3807.6064    3544.0568     12933.13   -925.94013    8277.6034    309.93622    15405 
217000000   -3852.7646    3210.7213    12828.633   -1110.3312     8173.817      307.432    15410 
218000000   -3753.7758    3606.6915    12986.685   -860.73422    8221.2015    311.21963    15396 
219000000   -3759.2135    3531.8048    12965.221   -1005.3699    8296.3882    310.70526    15427 
220000000   -3800.3597     3525.954    12908.591    -947.0377    8273.3515    309.34815    15409 
221000000   -3721.1679    3834.6695    13109.417   -745.33126    8301.1686    314.16085    15374 
222000000   -3806.8268     3600.884    13028.185   -933.56602    8341.2768    312.21417    15392 
223000000   -3726.7328    3611.4082    12884.422   -921.12842    8259.2694    308.76895    15407 
224000000   -3687.0104    3505.0522     12889.16   -985.04333    8177.1059     308.8825    15419 
225000000   -3791.5579    3622.7747     12896.14   -933.23107    8347.5636    309.04976    15387 
226000000   -3846.1043    3416.5573    12856.247   -1017.4248    8280.0864    308.09376    15394 
227000000   -3836.1637    3413.5654    13052.579   -975.76032    8225.4895    312.79876    15410 
228000000   -3848.7042     3492.971    12807.555   -1004.1494    8345.8246    306.92687    15386 
229000000   -3733.9561    3538.5393    12856.816   -1049.3494    8321.8448    308.10739    15416 
230000000   -3799.7814    3590.4387     12884.05   -963.81318    8354.0333    308.76005    15398 
231000000   -3738.4934    3676.8493      13065.5   -922.89208    8338.2348    313.10841    15394 
232000000    -3840.073     3368.199    12982.529   -985.41499     8193.687    311.12003    15400 
233000000    -3818.929    3515.1609     12979.13   -936.28586    8270.3758     311.0386    15411 
234000000   -3919.5685    3397.3083    12902.261    -1014.546    8331.4229    309.19646    15411 
235000000   -3808.0915    3527.9694    12764.469   -976.66007    8312.7209    305.89433    15404 
236000000   -3846.4724    3438.6037    12958.883   -1003.6196    8288.6958    310.55338    15403 
237000000   -3771.2503    3618.9706    12992.584   -1020.1825    8410.4034    311.36099    15414 
238000000   -3845.9982    3410.4277    12919.893   -1006.9451     8263.371    309.61899    15392 
239000000   -3856.6183    3454.8186    12993.928   -1012.9502    8324.3871    311.39321    15409 
240000000   -3866.4804    3364.1683    12992.979   -1025.2812    8255.9299    311.37046    15402 
241000000    -3846.383    3114.7415    13033.875    -1117.814    8078.9386    312.35052    15429 
242000000   -3829.1646    3463.9437    12985.047   -1028.3462    8321.4545    311.18037    15409 
243000000   -3744.1182    3533.8205    13052.462   -1076.9571    8354.8958    312.79596    15412 
244000000   -3843.3716    3517.6095    13006.641   -1004.2507    8365.2319    311.69786    15401 
245000000   -3876.8101    3497.9366    12915.246   -949.15767    8323.9043    309.50764    15405 
246000000   -3792.7654     3374.531    13054.192   -1047.3091    8214.6055     312.8374    15407 
247000000   -3872.0334     3262.817    12963.183   -1058.1471    8192.9975    310.65643    15424 
248000000   -3774.8557    3455.0333    13037.863   -981.97886    8211.8679     312.4461    15404 
249000000   -3799.8426    3283.2771    12814.568   -1124.9407    8208.0604    307.09494    15425 
250000000   -3708.6476    3455.3633    12858.954   -965.86408     8129.875    308.15863    15404 
251000000    -3754.454    3487.8048    12946.928   -950.97887    8193.2377    310.26689    15386 
252000000   -3820.0104    3383.2262    12841.041   -1115.1287    8318.3652    307.72935    15437 
253000000   -3815.1026    3386.2655     13001.65   -1050.4987    8251.8667    311.57827    15410 
254000000   -3838.7228    3424.8039    12915.423   -999.36307    8262.8898    309.51188    15410 
255000000   -3769.4797    3500.3954    12825.338    -1037.178     8307.053    307.35304    15411 
256000000    -3800.603    3388.7729    13012.194     -1029.61    8218.9859    311.83094    15394 
257000000    -3911.665    3369.9726    12805.742   -1016.8329    8298.4704    306.88343    15414 
258000000   -3936.2141    3417.3195    12843.034   -950.02744     8303.561    307.77712    15402 
259000000   -3984.1938    3223.5987    12888.411   -1012.2153    8220.0077    308.86455    15431 
260000000     -3809.75       3404.6    12829.398   -957.88049    8172.2305    307.45034    15403 
261000000   -3703.9336    3657.2772     13042.56   -861.17946    8222.3903    312.55864    15392 
262000000    -3813.214    3358.8131    13047.381   -1019.0138    8191.0409    312.67419    15403 
263000000   -3750.7674    3427.2044    12917.589   -1004.6315    8182.6032    309.56378    15394 
264000000   -3792.2711    3459.3034    12930.117   -1034.9995     8286.574    309.86401    15414 
265000000   -3910.7815    3360.3345    13074.637   -980.79626    8251.9123    313.32736    15409 
266000000   -3839.1936    3375.7235    13144.713   -1053.4637    8268.3808    315.00671    15391 
267000000   -3762.2376    3557.6074    12932.628   -988.89251    8308.7375    309.92418    15405 
268000000   -3780.2622    3639.0724    12776.837   -1024.3789    8443.7135    306.19073    15397 
269000000   -3794.4142    3521.3881    12918.172    -894.1311    8209.9334    309.57774    15394 
270000000   -3804.4623    3573.7541    12900.303   -832.64723    8210.8636    309.14952    15402 
271000000   -3835.1947    3376.3694    13014.998   -1003.8268    8215.3909    311.89814    15394 
272000000    -3805.263    3489.1286    12917.656   -872.99037     8167.382    309.56538    15402 
273000000   -3837.2493    3345.3071     12973.01   -1083.5748    8266.1312    310.89192    15426 
274000000   -3797.3341    3334.9036    12949.745   -980.55629    8112.7939    310.33439    15403 
275000000   -3919.8161    3248.3628    13003.272   -1093.2606    8261.4395    311.61713    15426 
276000000   -3737.0886    3538.4351    12864.356   -1000.1444    8275.6681    308.28809    15410 
277000000   -3892.8137    3418.6721    12822.266   -984.93576    8296.4216    307.27942    15404 
278000000   -3750.6276    3526.9302    12962.902   -1020.9144    8298.4723    310.64969    15398 
279000000   -3870.6808    3386.7423    12904.576   -987.41183     8244.835    309.25194    15418 
280000000   -3888.3485    3267.5064    12899.088   -1102.6724    8258.5274    309.12041    15409 
281000000   -3814.8415    3267.8964     13027.01   -1030.8722    8113.6101      312.186    15421 
282000000   -3855.1956    3382.5407    12821.229   -1060.0655    8297.8019    307.25457    15404 
283000000   -3806.3512    3265.2238    12892.462   -1099.6286    8171.2036    308.96163    15429 
284000000   -3820.8218    3451.1764    13009.175   -921.43731    8193.4355     311.7586    15391 
285000000   -3849.0642    3501.7294    13064.474   -1025.3725    8376.1661    313.08381    15422 
286000000     -3814.72    3401.6795     12846.27   -1043.7788    8260.1783    307.85467    15402 
287000000   -3864.3607    3379.8085     13036.72   -881.93123    8126.1005    312.41871    15396 
288000000   -3949.2621    3229.1432    12882.584   -1011.7438    8190.1491     308.7249    15417 
289000000   -3815.8314    3492.8329    12819.241   -1016.6978    8325.3621    307.20692    15422 
290000000   -3830.4301     3477.828    12853.702   -954.89288    8263.1509    308.03275    15406 
291000000   -3909.2056    3429.7574    12914.533   -982.62616    8321.5891    309.49055    15418 
292000000    -3878.977    3313.7929    12887.054     -1068.15    8260.9199    308.83202    15413 
293000000   -3813.1113    3429.7185    13032.762   -949.15654    8191.9863    312.32384    15395 
294000000   -3852.3766    3310.9463      12816.9   -1098.3433    8261.6662    307.15082    15398 
295000000   -3758.7476    3363.7652    12888.901   -1000.2988    8122.8116     308.8763    15421 
296000000   -3864.9415    3475.2391    12892.085   -942.62277    8282.8034    308.95259    15418 
297000000   -3790.9198    3437.5117    12962.289   -1082.2227    8310.6541    310.63499    15421 
298000000   -3799.7868    3472.0248    13001.653   -1003.6909    8275.5026    311.57833    15397 
299000000   -3850.0358    3409.3096    12758.696   -1015.7854    8275.1308    305.75599    15418 
300000000   -3809.2277    3539.5999    13043.312   -892.65747    8241.4851    312.57667    15389 
301000000   -3820.9996    3278.2489    13029.885   -1144.4845     8243.733     312.2549    15420 
302000000   -3744.9513    3562.3456    12805.442   -894.30812    8201.6051    306.87624    15403 
303000000   -3818.8039    3424.4784    12961.921   -1080.0602    8323.3425    310.62619    15419 
304000000   -3843.5228    3357.8374    12955.114   -1056.0793    8257.4395    310.46306    15418 
305000000   -3848.9044    3231.0352    12869.245   -1124.9786    8204.9183    308.40523    15411 
306000000   -3800.2507    3524.7481    13043.388   -1032.4666    8357.4654    312.57849    15409 
307000000    -3749.123    3431.4258    12953.512   -1052.8691    8233.4179    310.42465    15412 
308000000   -3765.6445    3431.2009    13037.805    -1011.128    8207.9734    312.44471    15384 
309000000   -3850.2142    3599.1884    12995.545   -877.70088    8327.1034    311.43197    15378 
310000000   -3880.8002    3303.5001    12872.753   -1088.9805    8273.2807    308.48931    15419 
311000000   -3814.2214    3399.6126    13035.049   -1015.0117    8228.8456    312.37865    15424 
312000000   -3822.0297    3504.4813    12923.864   -888.24568    8214.7567    309.71417    15404 
313000000   -3838.9169    3379.5444    12847.607   -999.79818    8218.2596    307.88669    15409 
314000000   -3737.5723    3629.9681    13004.136    -1017.142    8384.6823    311.63784    15394 
315000000   -3806.2026    3386.6681    13066.127   -1032.6155    8225.4862    313.12343    15435 
316000000   -3799.0237     3501.891     12842.91   -1008.0793     8308.994    307.77413    15404 
317000000   -3686.2551    3666.5982    13036.719   -938.67428    8291.5276    312.41867    15391 
318000000   -3774.2367    3537.0786    12982.801   -950.09515    8261.4105    311.12656    15414 
319000000   -3805.0454     3464.294    12815.758   -1041.7134    8311.0527    307.12344    15410 
320000000   -3796.7318     3487.542    13033.931   -991.92902    8276.2028    312.35186    15393 
321000000   -3745.4279    3420.7701    12824.394   -1006.0776    8172.2756     307.3304    15405 
322000000   -3786.3534    3346.7008     12998.59   -1025.6251    8158.6792    311.50494    15413 
323000000   -3810.9856    3404.4198    12954.799   -1077.2394    8292.6449     310.4555    15432 
324000000   -3825.6783    3469.3071    12951.638    -997.7467    8292.7321    310.37974    15412 
325000000   -3869.5895    3488.9458    12957.184   -947.94068    8306.4759    310.51265    15406 
326000000   -3799.2164    3620.2113    12851.939   -886.49747    8305.9252    307.99052    15386 
327000000   -3786.6131    3467.0818    13007.668   -1043.9698    8297.6646    311.72249    15397 
328000000   -3830.8334    3264.8002    12904.064   -1017.5361    8113.1697    309.23967    15412 
329000000   -3805.9812    3527.5702    12880.372   -907.97631    8241.5277    308.67191    15402 
330000000   -3957.9503    3400.6721    13000.045   -1006.8251    8365.4475    311.53979    15413 
331000000   -3819.7629    3354.2002    12884.724   -1138.5689     8312.532    308.77619    15431 
332000000   -3810.8229    3333.8702    12857.266   -1062.1242    8206.8174    308.11818    15418 
333000000   -3788.5162    3351.1832    13103.055   -1039.7726     8179.472    314.00839    15415 
334000000   -3734.7979    3476.2141    12993.294   -1071.4679    8282.4799    311.37801    15406 
335000000   -3827.2496    3323.5879     12910.62   -1129.3182    8280.1558    309.39677    15409 
336000000    -3766.019    3422.4163    13006.937    -1060.286    8248.7213    311.70498    15406 
379000000   -3807.6834     3398.189    12864.511   -1080.3767    8286.2491     308.2918    15417 
