LAMMPS (5 Jun 2019)
Reading restart file ...
  restart file = 5 Jun 2019, LAMMPS = 5 Jun 2019
  restoring atom style full from restart
  orthogonal box = (-420 -420 -420) to (420 420 420)
  2 by 2 by 7 MPI processor grid
  restoring pair style lj/cut from restart
  restoring bond style hybrid from restart
  restoring angle style cosine from restart
  14000 atoms
  15412 bonds
  13600 angles
Finding 1-2 1-3 1-4 neighbors ...
  special bond factors lj:   0          1          1         
  special bond factors coul: 0          0          0         
  3 = max # of 1-2 neighbors
  4 = max # of 1-3 neighbors
  8 = max # of 1-4 neighbors
  56 = max # of special neighbors
  special bonds CPU = 1.02132 secs
  read_restart CPU = 1.09137 secs
Finding 1-2 1-3 1-4 neighbors ...
  special bond factors lj:   0          1          1         
  special bond factors coul: 0          0          0         
  3 = max # of 1-2 neighbors
  4 = max # of 1-3 neighbors
  8 = max # of 1-4 neighbors
  40096 = # of 1-3 neighbors before angle trim
  27200 = # of 1-3 neighbors after angle trim
  56 = max # of special neighbors
  special bonds CPU = 0.00314553 secs
Neighbor list info ...
  update every 1 steps, delay 1 steps, check yes
  max neighbors/atom: 2000, page size: 100000
  master list distance cutoff = 26.9
  ghost atom cutoff = 26.9
  binsize = 13.45, bins = 63 63 63
  1 neighbor lists, perpetual/occasional/extra = 1 0 0
  (1) pair lj/cut, perpetual
      attributes: half, newton on
      pair build: half/bin/newton
      stencil: half/bin/3d/newton
      bin: standard
Setting up Verlet run ...
  Unit style    : real
  Current step  : 400000000
  Time step     : 0.1
Per MPI rank memory allocation (min/avg/max) = 1.103 | 9.789 | 16.66 Mbytes
Step Temp E_pair E_mol TotEng Press 
400000000    309.52491   -3797.1921    7242.6103    16361.385  -0.07004886 
400010000    308.17918   -3792.6182    7233.5255    16300.719  -0.14504975 
Loop time of 4.33976 on 28 procs for 10000 steps with 14000 atoms

Performance: 19.909 ns/day, 1.205 hours/ns, 2304.275 timesteps/s
99.6% CPU use with 28 MPI tasks x no OpenMP threads

MPI task timing breakdown:
Section |  min time  |  avg time  |  max time  |%varavg| %total
---------------------------------------------------------------
Pair    | 0.00032854 | 0.51284    | 1.9723     |  99.8 | 11.82
Bond    | 0.00050603 | 0.11237    | 0.39768    |  41.4 |  2.59
Neigh   | 0.013379   | 0.014019   | 0.015477   |   0.7 |  0.32
Comm    | 0.0016296  | 1.2323     | 3.0482     | 102.5 | 28.40
Output  | 0.00013054 | 0.00040088 | 0.00070039 |   0.0 |  0.01
Modify  | 0.00094846 | 0.24719    | 0.8618     |  61.0 |  5.70
Other   |            | 2.221      |            |       | 51.17

Nlocal:    500 ave 1810 max 0 min
Histogram: 12 6 1 1 1 1 0 2 2 2
Nghost:    517.357 ave 1464 max 0 min
Histogram: 12 0 2 3 3 0 0 2 3 3
Neighs:    6763.04 ave 25294 max 0 min
Histogram: 15 3 1 1 1 0 1 2 2 2

Total # of neighbors = 189365
Ave neighs/atom = 13.5261
Ave special neighs/atom = 7.87843
Neighbor list builds = 7
Dangerous builds = 0
4000 atoms in group rxnSites
Neighbor list info ...
  update every 1 steps, delay 1 steps, check yes
  max neighbors/atom: 2000, page size: 100000
  master list distance cutoff = 26.9
  ghost atom cutoff = 26.9
  binsize = 13.45, bins = 63 63 63
  2 neighbor lists, perpetual/occasional/extra = 1 1 0
  (1) pair lj/cut, perpetual
      attributes: half, newton on
      pair build: half/bin/newton
      stencil: half/bin/3d/newton
      bin: standard
  (2) fix bond/create/random, occasional, copy from (1)
      attributes: half, newton on
      pair build: copy
      stencil: none
      bin: none
Setting up Verlet run ...
  Unit style    : real
  Current step  : 0
  Time step     : 25
Per MPI rank memory allocation (min/avg/max) = 17.84 | 18.28 | 19.08 Mbytes
Step E_pair PotEng KinEng E_bond E_angle Temp Bonds 
       0   -3792.6182    3440.9072    12859.812   -967.28493    8200.8104    308.17918    15412 
 1000000   -3792.2195    3453.6643    12948.005   -968.84488    8214.7287     310.2927    15405 
 2000000   -3810.8967    3448.6921    12833.636     -970.994    8230.5829    307.55188    15410 
 3000000   -3822.7576    3346.6058    12875.825   -987.62954     8156.993    308.56292    15402 
 4000000    -3877.293    3474.8403    13032.816   -993.75325    8345.8866    312.32515    15402 
 5000000   -3824.6443    3497.0651    13009.651   -944.82009    8266.5295       311.77    15390 
 6000000   -3734.7919     3560.741    13013.441   -963.77745    8259.3103    311.86082    15408 
 7000000   -3900.2694     3440.906    12831.666   -1080.5794    8421.7548    307.50468    15427 
 8000000   -3851.5682    3416.9226    12921.684   -1009.3562    8277.8469    309.66192    15403 
 9000000   -3786.7372    3484.4787    12901.081   -1004.0158    8275.2317    309.16819    15405 
10000000   -3796.4382    3307.1769    12889.579   -1121.0996    8224.7147    308.89253    15423 
11000000   -3761.4421     3626.385    12859.875    -904.8727    8292.6998    308.18069    15402 
12000000   -3768.6688    3506.0693    12922.803   -887.43302    8162.1711    309.68874    15395 
13000000   -3833.2661    3509.7405    12900.813   -984.69595    8327.7025    309.16176    15390 
14000000   -3782.8142    3471.2961    12894.633    -1082.871    8336.9814    309.01365    15422 
15000000   -3798.4208    3659.0071    12983.206   -837.14147    8294.5694    311.13626    15370 
16000000   -3831.8736    3456.6723    13036.851   -1008.0064    8296.5523    312.42184    15420 
17000000   -3868.4489    3489.0911    12967.612   -1000.0173    8357.5573    310.76256    15411 
18000000   -3826.8747    3373.7798    12901.733   -956.47041    8157.1249    309.18381    15420 
19000000   -3779.8342    3449.8137     12983.74   -981.23547    8210.8834    311.14906    15394 
20000000   -3808.1828    3451.9856     13003.77    -1022.944    8283.1124    311.62907    15424 
21000000   -3872.9953    3265.3448     13008.27   -1021.8309    8160.1711    311.73692    15410 
22000000   -3764.8659    3564.8638    12969.564    -951.7775    8281.5073    310.80934    15398 
23000000   -3735.8005    3615.1014    12950.071   -890.88338    8241.7853     310.3422    15397 
24000000   -3775.3789    3516.9552    13053.432   -996.34959    8288.6837     312.8192    15398 
25000000   -3793.5516    3536.0311    12973.603   -981.92443    8311.5071    310.90614    15422 
26000000   -3800.2781    3650.6929    12966.246   -876.17479    8327.1458    310.72982    15401 
27000000   -3761.2383    3500.1148    12931.914   -919.73036    8181.0834    309.90707    15396 
28000000   -3863.2246    3493.3812    12980.788   -920.65912    8277.2649    311.07832    15397 
29000000   -3680.7361    3589.8223    12927.992   -972.22791    8242.7863     309.8131    15406 
30000000   -3854.5566    3547.4457    12971.888   -992.93896    8394.9413    310.86504    15403 
31000000   -3885.0716    3338.7032     12899.02   -1078.7538    8302.5286     309.1188    15436 
32000000   -3849.1132    3321.2751    12917.387   -968.77305    8139.1613    309.55895    15396 
33000000   -3791.8742    3376.7151    12988.368   -1036.6867    8205.2759    311.25996    15419 
34000000   -3811.1193    3583.2034    13020.568   -899.48773    8293.8104    312.03162    15396 
35000000   -3753.3163    3610.2194    12962.713   -897.12883    8260.6645    310.64517    15400 
36000000   -3763.3718    3734.5432    13053.634   -885.01304     8382.928    312.82403    15380 
37000000   -3761.7802    3629.1019    12957.843   -919.52882    8310.4109    310.52846    15377 
38000000   -3869.7867    3395.4661    13069.582   -1034.1614    8299.4142    313.20623    15416 
39000000   -3739.2503    3484.8197    12903.671   -1016.2049     8240.275    309.23024    15397 
40000000   -3702.1653    3588.0294    13030.334   -981.76311    8271.9578    312.26567    15424 
41000000   -3768.2688    3498.0645    13053.213   -1024.7181    8291.0514    312.81396    15415 
42000000    -3733.279    3593.9434    12844.907   -943.45145    8270.6739    307.82198    15406 
43000000   -3847.2897    3419.1986    12753.356   -949.59153    8216.0799    305.62801    15403 
44000000   -3710.8537    3476.5385    12950.468    -1027.137    8214.5291     310.3517    15435 
45000000   -3780.4358    3405.7585        12964   -1018.7725    8204.9668    310.67599    15412 
46000000    -3843.403    3254.1181    12693.635   -1025.6201    8123.1412    304.19682    15415 
47000000    -3813.743    3391.4751    12978.998   -974.56245    8179.7806    311.03542    15409 
48000000   -3930.1231    3434.2931    13029.596   -935.02127    8299.4375    312.24797    15397 
49000000   -3729.6847    3425.3143    12884.004   -999.89312    8154.8921    308.75893    15399 
50000000   -3872.2511    3329.7936    13043.966   -1000.8255    8202.8703    312.59234    15418 
51000000   -3796.7366    3663.6363    12874.304   -854.35761    8314.7305    308.52648    15391 
52000000   -3846.4282    3413.8045    12917.226   -1018.6786    8278.9113    309.55508    15408 
53000000   -3862.5585    3255.6463    12936.059   -1156.4933    8274.6982    310.00641    15421 
54000000   -3827.0382    3371.0954    12922.085   -1070.1042    8268.2377    309.67153    15400 
55000000   -3825.9939    3466.4676    12906.673   -975.23308    8267.6946    309.30219    15394 
56000000   -3771.9014    3525.5851    12749.279   -873.79014    8171.2766    305.53032    15397 
57000000   -3833.8352    3441.6624    12986.604   -992.16064    8267.6582    311.21771    15396 
58000000   -3814.6863     3489.359    12927.127   -991.23986    8295.2851    309.79236    15399 
59000000   -3787.4834    3444.2456    13171.998   -1043.2544    8274.9834    315.66058    15438 
60000000   -3850.5566    3423.7388    12914.356   -1016.5553    8290.8507     309.4863    15411 
61000000   -3809.7553     3459.805    12954.034   -966.76492    8236.3252    310.43717    15407 
62000000   -3760.7475    3513.0374    12805.278    -998.7403    8272.5251     306.8723    15405 
63000000   -3790.0013    3359.6852    12991.721   -1086.8506    8236.5371    311.34032    15410 
64000000     -3900.34    3331.0839    12980.755   -1017.9255    8249.3494    311.07752    15404 
65000000   -3696.0242    3532.6098    12793.533   -985.76982    8214.4039    306.59085    15413 
66000000   -3780.5612    3505.0062    12777.313    -1005.916    8291.4834    306.20213    15410 
67000000   -3815.2789    3479.6858    12908.308   -953.01623     8247.981    309.34137    15404 
68000000   -3757.7794    3427.4635    12954.013   -1033.0852    8218.3282    310.43666    15409 
69000000   -3815.7256    3475.2978    12983.522   -1003.5717    8294.5951    311.14384    15414 
70000000   -3880.9163    3202.2454    12912.134   -1070.8447    8154.0064    309.43306    15417 
71000000   -3863.6051    3380.2788    13001.265   -1027.7591     8271.643    311.56904    15419 
72000000   -3887.7667    3353.7304    12886.047   -1031.9451    8273.4421    308.80789    15410 
73000000   -3744.9016    3440.4233    12839.376   -978.76228    8164.0872    307.68945    15414 
74000000   -3872.0144    3372.9698    12832.241   -1036.9346    8281.9188    307.51845    15388 
75000000   -3810.7493    3434.4988    12865.868   -1089.0033    8334.2514    308.32432    15400 
76000000   -3798.5699    3459.5481    12856.445   -987.21359    8245.3316     308.0985    15396 
77000000   -3868.4193    3429.4416    13013.457   -969.42311     8267.284    311.86122    15403 
78000000   -3877.2979    3200.5799     13046.32   -1172.0263    8249.9042    312.64876    15450 
79000000   -3802.8942    3493.1607     12939.85   -937.31927    8233.3742    310.09727    15401 
80000000   -3872.9418    3273.0487     12922.52   -942.70023    8088.6907    309.68196    15390 
81000000    -3923.215    3365.2689    12816.402   -1019.3979    8307.8819    307.13888    15412 
82000000   -3815.3403    3350.3458    12922.125   -1037.9749     8203.661    309.67248    15407 
83000000   -3875.8788    3493.6898    12798.281   -1030.4553    8400.0239    306.70462    15416 
84000000   -3718.3455    3689.1625    12936.874   -873.52019    8281.0282    310.02593    15381 
85000000   -3847.4913    3487.6481    12910.598   -955.36063    8290.5001    309.39624    15405 
86000000   -3844.9314     3431.632    12898.277   -936.55695    8213.1203    309.10097    15394 
87000000    -3805.048    3513.3391    12857.474   -1009.6971    8328.0842    308.12317    15408 
88000000   -3776.5831    3536.7367    12802.297   -1052.7105    8366.0303    306.80088    15425 
89000000   -3865.0582    3428.3573    12713.017   -962.42914    8255.8446    304.66132    15396 
90000000   -3769.0584    3537.8057    12906.379   -938.99567    8245.8597    309.29515    15396 
91000000   -3860.2529    3302.3756    12929.755   -1107.2903    8269.9189    309.85535    15405 
92000000   -3838.7304    3323.0821     12868.58   -1054.0692    8215.8817     308.3893    15417 
93000000   -3783.4076     3516.452    13048.843   -845.96051    8145.8202    312.70923    15386 
94000000   -3744.2333    3608.7355    12931.746   -933.88381    8286.8525    309.90304    15407 
95000000   -3684.4705     3723.699    13107.857   -906.26971    8314.4393    314.12346    15365 
96000000   -3769.0963     3611.732    13084.994   -911.77677    8292.6051    313.57556    15390 
97000000   -3825.6342    3582.6645    13088.103   -987.69939    8395.9981    313.65008    15398 
98000000   -3795.9586    3579.4006    12952.798   -1000.2327    8375.5919    310.40756    15388 
99000000   -3781.4344    3427.1733    12780.419   -983.51125     8192.119    306.27656    15416 
100000000   -3728.3779    3562.5647    12892.344   -961.13777    8252.0804     308.9588    15406 
101000000   -3691.6123    3453.4957    13041.487   -1009.0934    8154.2014    312.53294    15413 
102000000   -3822.2916    3467.5371     12936.15   -1041.1514      8330.98    310.00859    15411 
103000000   -3850.6193    3565.5331    12947.221   -880.87573    8297.0281     310.2739    15394 
104000000   -3678.2062    3503.3095    12919.572   -1112.8243      8294.34    309.61129    15405 
105000000   -3777.2805    3444.5572    12818.499   -1005.2471    8227.0849    307.18915    15396 
106000000   -3829.3684    3349.9987    13036.683   -1031.2975    8210.6646    312.41781    15416 
107000000   -3863.4783    3610.0976    12867.611   -837.48438    8311.0603     308.3661    15383 
108000000   -3775.1748    3592.6468    13098.421   -971.42664    8339.2483    313.89734    15411 
109000000   -3838.2009    3497.8233    12920.984   -996.01236    8332.0366    309.64516    15406 
110000000   -3934.7896    3396.1824    13036.409   -1000.1522    8331.1242    312.41125    15414 
111000000   -3858.6515    3287.2412    12990.138   -1008.3684    8154.2611    311.30239    15400 
112000000   -3868.8754    3307.6454    12876.953   -1102.6408    8279.1617    308.58996    15408 
113000000   -3767.9176    3396.8763    12871.835    -982.1294    8146.9234    308.46731    15407 
114000000   -3807.2395    3340.1307     13048.35   -1043.6575    8191.0277    312.69741    15396 
115000000   -3891.6145    3363.2604    12930.798   -1038.1597    8293.0346    309.88033    15403 
116000000   -3777.6929       3449.7    12945.092   -1043.7377    8271.1306    310.22287    15402 
117000000   -3767.2081    3606.3899     12925.21   -951.61855    8325.2165    309.74641    15397 
118000000   -3786.4093    3452.6196    12872.778   -943.16207     8182.191     308.4899    15384 
119000000   -3861.3958    3348.5465    12845.237   -985.49527    8195.4375    307.82991    15414 
120000000   -3688.7525    3376.5652    12902.682   -1102.8237    8168.1414    309.20656    15406 
121000000   -3737.1192    3571.7096    12980.043   -908.32748    8217.1563    311.06046    15390 
122000000   -3749.1607    3617.2344    12767.544   -878.71346    8245.1086    305.96803    15391 
123000000    -3802.594    3450.4675    12784.309   -971.65412    8224.7156    306.36979    15388 
124000000   -3837.9512    3452.3085    12885.717   -972.42969    8262.6893        308.8    15392 
125000000   -3688.8052    3737.7177    12903.234   -889.11555    8315.6385    309.21979    15367 
126000000   -3695.0331    3773.9078    12948.198   -837.95637    8306.8973    310.29732    15381 
127000000   -3825.0479    3422.0533    12902.966   -976.91744    8224.0187    309.21335    15415 
128000000   -3772.0092     3593.453    13040.867   -967.94241    8333.4046    312.51809    15413 
129000000   -3711.9098    3576.7549    12919.738   -944.55874    8233.2235    309.61529    15401 
130000000   -3797.9786    3590.3031    12994.225   -1016.5036    8404.7853    311.40032    15391 
131000000   -3733.0112    3703.3301    12875.771   -862.10503    8298.4463    308.56163    15387 
132000000   -3747.7489    3527.0063    12893.005   -1003.3061    8278.0613    308.97465    15404 
133000000   -3767.2072    3633.1303    12851.873   -960.21092    8360.5485    307.98893    15396 
134000000   -3860.0265     3213.627    13049.574   -1104.2499    8177.9034    312.72674    15416 
135000000   -3844.2377    3529.8463    12992.346   -997.22611    8371.3102     311.3553    15389 
136000000   -3826.2565    3451.4135    13109.855   -1027.4182    8305.0881    314.17134    15418 
137000000   -3665.2046    3534.0759    12888.885   -975.83023    8175.1108     308.8759    15413 
138000000   -3763.1243    3527.7722     12916.04   -1047.6355     8338.532    309.52667    15419 
139000000   -3797.4462    3573.9887    12773.595   -989.80144    8361.2364    306.11304    15393 
140000000   -3814.2847    3319.8532    12954.885   -1148.3127    8282.4507    310.45756    15417 
141000000   -3843.3398    3542.0326    12808.761   -886.63416    8272.0066    306.95578    15393 
142000000   -3801.3608    3382.6966    12961.089   -1000.3424    8184.3998    310.60624    15404 
143000000   -3790.8299    3598.2318    13036.975   -977.42506    8366.4867    312.42481    15397 
144000000   -3792.2305    3416.4941    12789.074   -1044.5697    8253.2943    306.48399    15414 
145000000   -3818.8079    3463.6105    12917.067   -991.55808    8273.9765    309.55127    15392 
146000000    -3901.654    3532.5316    12922.603   -875.67864    8309.8643    309.68395    15400 
147000000   -3734.8981    3676.5197    12871.656   -953.28762    8364.7054    308.46303    15380 
148000000   -3867.0603     3388.153    12892.693   -1107.5048    8362.7181    308.96715    15397 
149000000   -3763.4799    3576.5014    12946.219   -974.54802    8314.5292    310.24989    15411 
150000000   -3818.5808    3489.5288    12866.432   -1065.2849    8373.3944    308.33783    15423 
151000000    -3798.207    3637.1501    12841.624   -919.61555    8354.9726    307.74331    15409 
152000000   -3725.8522    3599.3148     12921.36   -1010.1426    8335.3097    309.65417    15404 
153000000   -3726.5125    3666.8579    12967.505   -861.96017    8255.3306    310.75999    15391 
154000000   -3706.9412    3545.3097    12990.003   -952.14242    8204.3933    311.29914    15385 
155000000   -3846.9372    3488.7386    12956.753   -978.56909    8314.2449    310.50234    15407 
156000000   -3736.2845    3523.0442    12819.176    -1028.119    8287.4476    307.20537    15416 
157000000   -3784.7234    3570.6734    12851.334   -1038.0722    8393.4689      307.976    15412 
158000000   -3804.6442    3522.9884    12986.824   -991.57992    8319.2125    311.22297    15404 
159000000    -3724.864    3486.1814    12927.206   -958.34642    8169.3919    309.79425    15396 
160000000   -3872.3718    3364.2499    12912.241   -1082.9575    8319.5792    309.43562    15427 
161000000    -3817.057    3448.6585    12912.113   -1081.1698    8346.8853    309.43256    15410 
162000000   -3808.7636    3450.6495    13003.339   -1062.2323    8321.6454    311.61874    15413 
163000000   -3802.7495    3446.0287     12928.09   -965.90612    8214.6843    309.81543    15403 
164000000   -3786.3736    3561.4923    12906.118   -924.34192    8272.2079    309.28889    15379 
165000000   -3746.2166    3557.1651    12848.664   -974.49519    8277.8769    307.91203    15396 
166000000   -3866.6543    3417.0583    12900.664   -998.45501    8282.1676    309.15818    15408 
167000000   -3829.5092    3351.2358    12844.108   -1111.4748    8292.2198    307.80286    15426 
168000000   -3880.7059    3284.1308    12924.169   -1050.3039    8215.1406    309.72148    15411 
169000000   -3831.7523    3467.7761    12940.639   -925.49443    8225.0228    310.11617    15395 
170000000   -3871.4366    3657.1304    13053.861   -863.55486    8392.1218    312.82949    15397 
171000000   -3826.2142    3371.1786    12847.535   -989.36923     8186.762    307.88499    15404 
172000000    -3811.294    3168.2738    12808.211   -1184.2009    8163.7688     306.9426    15411 
173000000   -3858.0866    3492.0565    12726.137   -899.78383    8249.9269    304.97573    15412 
174000000   -3821.0911    3553.9594    12886.955   -957.58262    8332.6331    308.82965    15405 
175000000   -3917.6905    3570.9492    13005.784   -830.88936    8319.5291    311.67734    15390 
176000000   -3929.4512    3316.1399    12853.276   -1007.0958    8252.6869    308.02255    15395 
177000000   -3721.1012    3497.1594    13000.504   -975.67715    8193.9378    311.55079    15407 
178000000   -3841.0552    3386.7273    13056.953   -1046.4006    8274.1831    312.90357    15409 
179000000   -3917.9577    3485.9936    12960.734   -934.79367    8338.7449    310.59772    15397 
180000000   -3778.5869    3561.1942    12932.101   -968.50119    8308.2823    309.91157    15398 
181000000   -3809.4672    3349.6031    12997.079   -1006.8655    8165.9358    311.46872    15412 
182000000   -3821.9719    3525.8452    12921.917   -993.42237    8341.2395     309.6675    15412 
183000000   -3828.0548    3565.3451    12894.091   -943.29281    8336.6927    309.00067    15397 
184000000    -3836.663    3512.5473    12957.511   -962.86226    8312.0726    310.52049    15397 
185000000   -3801.2401     3381.918    12822.764   -1043.1275    8226.2856    307.29134    15407 
186000000   -3892.9884    3495.3515    12862.779    -929.6968    8318.0367    308.25028    15411 
187000000   -3739.1958    3580.6481    12846.194   -997.58083    8317.4248    307.85284    15398 
188000000   -3849.5679    3535.1185    12922.057   -915.44129    8300.1277    309.67087    15400 
189000000   -3844.4012    3426.4248    12938.604   -1028.5318    8299.3577    310.06739    15402 
190000000   -3704.3733    3435.8231    12818.086   -1051.6049    8191.8013    307.17925    15387 
191000000   -3782.7125    3507.5342    12924.535   -954.60111    8244.8477    309.73023    15420 
192000000   -3822.3683    3475.1453    12825.956   -934.78141     8232.295    307.36784    15385 
193000000   -3803.8136     3435.947    12875.548    -1092.936    8332.6966    308.55629    15428 
194000000   -3782.0153    3585.6852    13033.142   -923.92001    8291.6205    312.33295    15396 
195000000   -3818.0949    3483.8175    13124.936   -928.55342    8230.4658    314.53276    15409 
196000000   -3861.9769    3104.1476    12998.405   -1106.3754    8072.4999    311.50049    15422 
197000000   -3825.3965     3534.234    13037.599   -972.16938    8331.7999    312.43977    15409 
198000000   -3825.6907    3439.3141    12915.137   -947.59522       8212.6    309.50503    15389 
199000000   -3824.0294    3490.6741    12892.379   -938.24494    8252.9484    308.95965    15380 
200000000   -3684.0234    3495.5475    13034.241   -1070.8754    8250.4463    312.35929    15403 
201000000   -3859.0748    3304.4044    12950.092   -964.00351    8127.4827    310.34269    15386 
202000000   -3781.6985    3534.8437    13015.157   -1031.6864    8348.2285    311.90195    15423 
203000000   -3938.7835    3209.2466    12876.129   -1063.6237    8211.6538     308.5702    15411 
204000000   -3830.6376    3330.7028    12836.388   -1050.7759    8212.1164    307.61785    15435 
205000000    -3849.458    3392.2083      12861.2   -1067.8554    8309.5216    308.21245    15426 
206000000   -3832.5588    3399.7829    12912.658   -1030.9911    8263.3329    309.44562    15416 
207000000   -3803.4809    3481.9376    12712.216   -1044.7906    8330.2091    304.64211    15409 
208000000   -3822.8774    3369.9188    12976.358   -1054.3287     8247.125    310.97215    15420 
209000000   -3768.3471    3545.0375    13031.148   -924.55516    8237.9398    312.28518    15405 
210000000   -3850.8816    3449.7635    12885.539   -1007.5166    8308.1618    308.79572    15425 
211000000   -3812.0195    3312.9976    13073.919   -1022.5833    8147.6004    313.31015    15401 
212000000   -3879.2575    3334.8316    12953.375   -1003.7821    8217.8711    310.42137    15398 
213000000   -3800.2836     3383.897    12909.337   -956.88967    8141.0703    309.36602    15415 
214000000    -3868.978    3270.4334    12995.153   -1096.0358    8235.4471    311.42257    15425 
215000000   -3864.9326    3436.8736    12805.925   -941.79599    8243.6021    306.88781    15395 
216000000   -3891.1233    3415.9654    12968.997   -946.50979    8253.5985    310.79576    15405 
217000000   -3827.6733    3344.2247    13082.939   -948.12363    8120.0216    313.52631    15401 
218000000   -3791.3696    3435.6722    12930.066   -910.78371    8137.8256    309.86279    15382 
219000000   -3771.8916    3421.0758    12984.425   -986.93768     8179.905    311.16548    15406 
220000000   -3874.5615    3372.5548    12940.958   -1003.7984    8250.9147     310.1238    15412 
221000000   -3833.8367    3466.8612    12982.727   -919.86551    8220.5634    311.12479    15403 
222000000   -3787.8616    3411.5125     12930.93   -930.73075    8130.1049    309.88349    15398 
223000000   -3836.5735    3333.6815    12917.496   -1042.9169    8213.1719    309.56155    15417 
224000000   -3829.8999    3669.8237    12833.144   -943.44591    8443.1695     307.5401    15384 
225000000   -3756.7368    3464.3317    12866.752   -1027.9059    8248.9745     308.3455    15407 
226000000   -3697.8161    3690.8577    12977.373   -947.08727     8335.761    310.99648    15400 
227000000   -3787.7526    3507.4659    13157.484   -965.26007    8260.4786    315.31275    15410 
228000000   -3786.0399    3398.9751    12817.892    -1063.432     8248.447     307.1746    15408 
229000000   -3767.7505    3219.3751    12966.044   -1152.4876    8139.6132    310.72497    15414 
230000000   -3826.3513    3509.0287    12723.784   -1013.9612    8349.3412    304.91934    15420 
231000000   -3802.2297    3464.0032     12909.06   -954.94967    8221.1826    309.35939    15402 
232000000   -3883.9141    3227.6857    12803.328   -1084.9473    8196.5471    306.82556    15415 
233000000   -3729.9131    3537.7929    12927.155   -949.20832    8216.9143    309.79303    15378 
234000000   -3785.4179    3434.8996    12854.308   -1133.1023    8353.4198    308.04728    15427 
235000000   -3899.7981    3502.2818    13032.648   -976.97433    8379.0542    312.32113    15416 
236000000   -3872.0704    3295.8963     12932.67   -1084.6373    8252.6041    309.92518    15426 
237000000   -3808.2474    3305.3684    12923.243   -1056.4425    8170.0584    309.69929    15415 
238000000   -3802.5288    3321.8507    13096.426    -1157.383    8281.7625    313.84954    15425 
239000000    -3739.716    3473.7502    12927.593   -1011.8263    8225.2926    309.80351    15402 
240000000   -3725.6992    3600.0221    13023.431    -908.8009    8234.5222    312.10023    15389 
241000000   -3860.1615     3406.043    12934.224   -954.79137    8220.9959    309.96244    15407 
242000000   -3842.0005      3422.78    12904.437   -964.89701    8229.6775    309.24861    15399 
243000000   -3852.9944    3456.1498    12912.273   -928.90323    8238.0474    309.43638    15396 
244000000    -3857.282    3342.0054    12974.835   -1046.8875    8246.1749    310.93566    15387 
245000000   -3790.3241    3525.3154    13095.026   -934.71081    8250.3503    313.81597    15402 
246000000   -3807.1132    3260.0649    12891.188   -1114.9385    8182.1167     308.9311    15432 
247000000   -3822.2511    3365.9392    12949.932   -1029.3055    8217.4958    310.33886    15423 
248000000   -3747.4372    3486.8086    12954.207   -1046.3505    8280.5964    310.44132    15405 
249000000   -3724.5832    3436.9657    12816.299   -1116.1121     8277.661    307.13642    15428 
250000000   -3806.5906     3502.322    12962.754    -928.6906    8237.6031    310.64614    15385 
251000000   -3792.9968    3510.4813    13001.532   -915.06971    8218.5478    311.57545    15396 
252000000    -3865.907     3364.816    12926.612    -1037.652     8268.375       309.78    15399 
253000000   -3754.3704    3448.0623    13043.217   -1000.8909    8203.3236     312.5744    15413 
254000000    -3755.016    3408.3281    12867.692   -1106.0511    8269.3953    308.36803    15433 
255000000   -3755.4713    3476.4022    12850.754   -989.83635    8221.7098    307.96212    15424 
256000000     -3843.04    3293.1454    12963.769   -995.06356     8131.249    310.67047    15395 
257000000   -3823.6974     3485.014    13031.938   -997.58157     8306.293     312.3041    15411 
258000000   -3826.3674    3553.3601    12806.774   -1000.1972    8379.9246    306.90815    15408 
259000000   -3729.5094    3585.0191    12897.616   -982.41107    8296.9396    309.08514    15417 
260000000   -3894.5112    3311.1525    12873.596   -1041.4331    8247.0969    308.50952    15420 
261000000   -3827.2203    3422.9498    12923.586   -1005.8868    8256.0569    309.70751    15406 
262000000   -3762.1993    3622.7878     12928.55    -1009.148    8394.1351    309.82645    15414 
263000000   -3786.6681     3370.013    12976.944   -978.95959    8135.6407     310.9862    15396 
264000000   -3734.9528    3431.5643    13002.205   -992.59806    8159.1151    311.59156    15399 
265000000   -3814.4164    3473.2435    12997.951   -929.53451    8217.1944    311.48962    15400 
266000000   -3855.5764    3351.1192    12894.575   -974.45693    8181.1525    309.01228    15399 
267000000   -3836.0326    3289.6651    13020.067   -1061.8928    8187.5906    312.01963    15409 
268000000   -3806.2385    3674.6509    12923.583   -815.13554    8296.0249    309.70743    15418 
269000000   -3800.4621    3557.6462    12946.943   -977.19121    8335.2995    310.26723    15420 
270000000   -3841.5722    3502.0043    12951.949   -928.94418    8272.5207    310.38722    15393 
271000000   -3849.9582    3269.0038    12830.367    -1087.529     8206.491    307.47355    15409 
272000000   -3837.8782    3338.4039    12918.692   -1049.2003    8225.4824    309.59023    15415 
273000000   -3751.2967    3542.6594     12901.91   -1006.3107    8300.2668    309.18805    15389 
274000000    -3846.336     3368.987     12963.41   -1112.5875    8327.9105    310.66187    15424 
275000000   -3786.0909    3435.9708    12740.117   -947.39086    8169.4525    305.31076    15396 
276000000   -3808.3862    3385.8973    12867.986   -1033.8653    8228.1488    308.37507    15405 
277000000   -3737.6281    3580.8428    12889.967   -940.06018     8258.531    308.90184    15404 
278000000   -3869.5764    3274.0827    12856.257    -1022.251    8165.9101    308.09398    15426 
279000000   -3835.6116    3354.7858    12958.449   -1093.0744    8283.4719    310.54297    15417 
280000000   -3829.9001    3252.1309    12816.132   -1034.9387    8116.9697    307.13243    15397 
281000000   -3706.2655    3545.5314    12928.858   -1073.0275    8324.8244    309.83385    15406 
282000000   -3886.3662    3430.0014    12970.872   -1028.4499    8344.8176    310.84069    15417 
283000000   -3815.3919    3571.4358    12892.483   -903.46324     8290.291    308.96213    15369 
284000000   -3781.2786    3561.8936    12764.141   -1054.0172    8397.1894    305.88647    15411 
285000000   -3895.9491    3400.2988    12849.409    -1006.824    8303.0719    307.92987    15401 
286000000   -3809.5459    3474.1425    13013.506   -937.41666    8221.1051    311.86239    15400 
287000000   -3862.8018    3391.7004    12981.531   -996.31638    8250.8185    311.09613    15389 
288000000   -3785.2899    3466.1265    13099.136   -947.97231    8199.3887    313.91446    15412 
289000000    -3917.322    3393.3175    12939.687   -922.29015    8232.9296    310.09335    15403 
290000000   -3918.0737    3129.1758    13088.331   -1208.5932    8255.8427    313.65554    15454 
291000000   -3888.3867    3396.1252     12898.53   -1032.8743    8317.3862    309.10704    15414 
292000000   -3837.6186    3466.6779    12840.639   -1001.1723    8305.4687    307.71972    15409 
293000000   -3829.9616    3269.3192    12911.633   -1119.8871     8219.168    309.42104    15430 
294000000   -3761.8475    3540.1615     12881.56   -1006.6447    8308.6537    308.70036    15406 
295000000   -3861.8522    3436.8198    13025.328   -983.88144    8282.5534    312.14569    15397 
296000000   -3849.0548    3422.9331    12882.352   -999.76851    8271.7564    308.71934    15399 
297000000   -3834.4446    3389.4692    13002.775   -1008.1149    8232.0288    311.60521    15408 
298000000   -3836.6884    3458.6553    12917.012    -1051.162    8346.5057    309.54996    15409 
299000000   -3746.8544    3452.0265    12904.569   -1051.0885    8249.9694    309.25176    15405 
300000000   -3794.4182    3667.0253    12906.888   -876.48881    8337.9323    309.30733    15396 
301000000    -3810.559    3384.8844    13003.184    -885.0417    8080.4852    311.61503    15378 
302000000   -3854.7647    3318.0727    13100.248   -1042.2801    8215.1175    313.94112    15418 
303000000    -3863.396    3416.2503    12950.964   -1000.8566    8280.5029     310.3636    15403 
304000000   -3886.9116    3265.6029    13048.349    -1008.148    8160.6626    312.69739    15393 
305000000   -3902.6643    3413.0809    12855.182   -1036.8491    8352.5943    308.06822    15431 
306000000   -3751.1494    3514.7204     12888.11   -982.29903    8248.1688    308.85733    15395 
307000000   -3848.2297    3485.3032    12998.224   -950.14833    8283.6812    311.49617    15409 
308000000   -3877.3162    3217.9232    12876.509   -1105.9184    8201.1578    308.57932    15436 
309000000   -3854.6695    3362.9206    12925.797   -1056.9962    8274.5863    309.76048    15409 
310000000   -3733.8052    3559.2408    12907.586   -912.16864    8205.2146    309.32408    15388 
311000000      -3759.6    3455.3536    12892.092   -938.96495    8153.9186    308.95277    15392 
312000000   -3799.2199    3465.2004    12780.407   -1060.7669    8325.1873    306.27628    15394 
313000000   -3860.1544      3255.28    12783.523   -1115.4347    8230.8691    306.35096    15425 
314000000   -3733.5246    3495.4261    12870.152   -990.83278    8219.7835    308.42698    15402 
315000000   -3800.9618    3443.2061    13004.048   -1008.3737    8252.5416    311.63574    15406 
316000000   -3801.8142    3606.0678     13019.79   -882.09503    8289.9771    312.01299    15388 
317000000   -3821.2853    3464.6795     12943.73   -1032.3583    8318.3232    310.19023    15410 
318000000   -3914.0862    3207.4035    12917.077   -1040.0307    8161.5205    309.55152    15413 
319000000    -3786.537    3565.2168     12845.95    -836.7411    8188.4949    307.84699    15391 
320000000   -3793.7667    3340.7985     12945.04   -1053.8784    8188.4437    310.22164    15436 
321000000   -3854.5895    3364.0729    12966.831   -1036.3104    8254.9728    310.74384    15436 
322000000   -3951.6385    3317.3202    12887.078     -871.817    8140.7757    308.83261    15402 
323000000   -3740.2291    3501.2698    12801.722   -978.23916     8219.738     306.7871    15391 
324000000   -3873.5373    3301.5606    13006.467   -978.15459    8153.2524    311.69371    15422 
325000000   -3935.3792    3472.5115    12993.315   -946.40698    8354.2977    311.37852    15398 
326000000   -3758.2583    3544.4075    12989.303   -996.14191    8298.8077    311.28238    15422 
327000000   -3665.1252    3737.3973    12852.646   -898.17184    8300.6943    308.00747    15388 
328000000   -3791.9974    3453.9215    12845.682   -978.69996    8224.6189    307.84056    15404 
329000000   -3928.8154    3387.1286    13018.671   -1018.7053    8334.6494    311.98616    15391 
330000000   -3822.3983     3467.325    13020.265   -1030.1732    8319.8965    312.02437    15421 
331000000   -3825.1291    3438.0611    12933.519   -1058.5073    8321.6975    309.94555    15434 
332000000   -3823.8912    3537.1236     13024.14   -961.16523      8322.18    312.11723    15400 
333000000   -3751.9125    3415.1085    12897.286   -1032.4429    8199.4639    309.07724    15405 
334000000   -3808.8559    3458.6695    12825.689   -1031.2749    8298.8003    307.36144    15410 
335000000   -3827.8489    3540.7553     12852.43   -976.53629    8345.1405    308.00229    15414 
336000000   -3819.9342    3365.2461    12884.066    -1061.947    8247.1273    308.76042    15415 
337000000   -3803.4491    3405.5541    12757.998   -1034.9484    8243.9516    305.73927    15401 
338000000   -3835.6225    3351.0447    12870.924   -1056.2002    8242.8673    308.44549    15422 
339000000   -3882.4799    3538.1881    13001.574   -1056.7974    8477.4654    311.57645    15414 
340000000   -3884.3915    3283.3737     12782.11     -1108.53    8276.2952     306.3171    15407 
341000000   -3851.6334    3355.5986    12996.555   -1082.7567    8289.9887    311.45617    15415 
342000000    -3797.531    3476.8957    12886.622   -985.94743    8260.3741    308.82167    15393 
343000000   -3817.6923     3426.999    13020.446   -1001.8239    8246.5152    312.02871    15414 
344000000   -3780.8019    3475.6945    12944.094   -942.08451    8198.5809    310.19896    15390 
345000000   -3743.6106    3509.3697    12835.969   -1021.5986    8274.5789     307.6078    15397 
346000000   -3790.3608    3488.5391    12798.265   -964.86914    8243.7691    306.70425    15389 
347000000   -3785.5043    3546.6526    12862.505     -899.718    8231.8749    308.24372    15401 
348000000   -3768.5219    3495.8159    12857.044    -1029.193    8293.5308    308.11285    15411 
349000000   -3808.2448    3536.2194    12963.568   -993.55076    8338.0149    310.66566    15411 
350000000   -3786.7776    3666.5239    12908.995   -942.76553     8396.067    309.35783    15411 
351000000   -3815.4399    3276.9919    12907.079   -1096.7604    8189.1921    309.31192    15423 
352000000   -3766.4717    3449.6281    12912.226   -1034.1916    8250.2914    309.43527    15389 
353000000   -3752.1097    3471.6075    13002.254   -982.58511    8206.3023    311.59274    15400 
354000000    -3831.884    3351.0011    12977.776   -1136.6617    8319.5468    311.00614    15424 
355000000   -3911.6576    3284.3394    12991.591   -1060.8771    8256.8742    311.33721    15421 
356000000   -3850.7945    3278.8282    13082.622   -1017.4911    8147.1138    313.51872    15393 
357000000   -3850.6118    3428.0683    12867.123    -1053.264    8331.9441    308.35439    15402 
358000000    -3870.735    3302.7781    13041.519    -1088.646    8262.1591    312.53372    15413 
359000000   -3818.6482    3481.0556    13035.868   -972.44659    8272.1504    312.39827    15402 
360000000   -3920.0296    3398.3292    12847.554   -929.81447    8248.1733    307.88544    15397 
361000000    -3870.623    3301.2914    12828.171   -1066.0003    8237.9147    307.42093    15418 
362000000   -3872.2191    3528.4865    12761.379   -946.53534     8347.241    305.82029    15423 
363000000   -3882.5557    3456.9015    12812.526   -966.05682     8305.514    307.04599    15384 
364000000   -3796.6375    3378.4293     13056.42   -1052.7354    8227.8023     312.8908    15410 
365000000   -3796.0753    3593.3342    12907.847   -925.84822    8315.2578    309.33032    15390 
366000000   -3809.3996    3473.0232    12965.043   -1039.9478    8322.3706      310.701    15415 
367000000    -3855.271    3359.8776    12988.936   -1151.7803    8366.9288    311.27358    15425 
368000000   -3814.1909    3439.3878    12962.453   -977.92722    8231.5059    310.63892    15416 
369000000   -3792.4666    3334.1957    12951.393   -1073.7436    8200.4059    310.37388    15407 
370000000   -3788.6308    3407.0408    13039.692   -1103.5688    8299.2404    312.48993    15406 
371000000   -3809.7063     3238.888    12844.136   -1203.0944    8251.6887    307.80351    15434 
372000000   -3757.5279    3526.4567    13066.543   -1044.7354      8328.72    313.13341    15414 
373000000   -3784.1403    3403.7807    12849.852    -966.6199    8154.5409    307.94049    15403 
374000000   -3760.3971    3515.3477    12913.618    -1034.603    8310.3479    309.46862    15388 
375000000    -3743.469    3814.4908    13006.005    -876.3252     8434.285    311.68264    15391 
376000000   -3832.4913     3362.493    12794.232   -980.35126    8175.3355    306.60759    15420 
377000000   -3809.6016    3470.8815    13139.656   -936.61341    8217.0965    314.88552    15408 
378000000   -3778.5831    3595.3829    13014.004   -925.79802     8299.764    311.87432    15409 
379000000   -3762.2639    3495.2261    12800.155   -1058.9809    8316.4709    306.74953    15396 
380000000   -3903.7943    3430.7422    12863.866   -963.09497    8297.6315    308.27635    15412 
381000000   -3866.3964    3374.1151    12836.302   -1088.4673    8328.9788    307.61578    15425 
382000000   -3665.9891    3762.4861    12947.674   -790.63319    8219.1084    310.28477    15385 
383000000   -3705.9067    3491.7425    12924.267   -1080.2501    8277.8992    309.72383    15406 
384000000   -3724.0901    3617.6404    12964.843    -900.5332    8242.2637     310.6962    15406 
385000000   -3790.3633    3472.2035     13091.42   -1080.9699    8343.5367    313.72957    15399 
386000000   -3908.6943    3312.2008    13027.921    -1006.576    8227.4712    312.20784    15416 
387000000   -3724.1511     3516.335     12865.34   -1023.2532    8263.7392    308.31166    15391 
388000000   -3899.9905    3397.9065    12788.781    -951.8726    8249.7696    306.47696    15398 
389000000   -3736.8976    3354.9387    12967.273   -1076.6011    8168.4374    310.75444    15419 
390000000   -3826.6165     3495.295    12820.694    -959.2559    8281.1674    307.24174    15412 
391000000   -3705.5802    3559.8586    12853.082   -1036.3713    8301.8101     308.0179    15408 
392000000   -3811.6175    3434.2889    12848.483   -930.02494    8175.9313    307.90769    15410 
393000000   -3682.9862    3455.3203     12919.56   -1029.6556    8167.9621    309.61101    15414 
394000000   -3893.5422    3379.0113    12838.189   -915.61081    8188.1643    307.66101    15407 
395000000   -3781.5436    3546.2774    12973.728   -970.09389     8297.915    310.90912    15404 
396000000   -3765.7396    3395.9595    12875.885   -1097.7178    8259.4169    308.56437    15430 
397000000   -3887.3851    3329.9869    12767.435   -1053.4248    8270.7968     305.9654    15407 
398000000    -3828.857    3208.2502    12944.984   -1106.4221    8143.5293    310.22028    15419 
399000000   -3819.7637    3393.7725    13007.708   -967.56986    8181.1061    311.72344    15415 
400000000   -3820.8809    3530.8747    12826.651   -920.08936     8271.845     307.3845    15414 
Loop time of 168326 on 28 procs for 400000000 steps with 14000 atoms

Performance: 5132.885 ns/day, 0.005 hours/ns, 2376.336 timesteps/s
99.5% CPU use with 28 MPI tasks x no OpenMP threads

MPI task timing breakdown:
Section |  min time  |  avg time  |  max time  |%varavg| %total
---------------------------------------------------------------
Pair    | 20008      | 24080      | 27988      |1245.4 | 14.31
Bond    | 4778.1     | 6607.7     | 9951.3     |2674.9 |  3.93
Neigh   | 53611      | 54413      | 55318      | 195.3 | 32.33
Comm    | 39979      | 47074      | 55932      |1962.9 | 27.97
Output  | 0.85971    | 1.125      | 1.1358     |   4.8 |  0.00
Modify  | 21872      | 22081      | 22681      | 102.7 | 13.12
Other   |            | 1.407e+04  |            |       |  8.36

Nlocal:    500 ave 528 max 463 min
Histogram: 3 0 3 3 1 2 5 5 2 4
Nghost:    832.107 ave 1093 max 521 min
Histogram: 2 1 4 2 4 4 1 4 1 5
Neighs:    6831.71 ave 7953 max 5540 min
Histogram: 4 0 2 2 7 1 1 5 0 6

Total # of neighbors = 191288
Ave neighs/atom = 13.6634
Ave special neighs/atom = 8.805
Neighbor list builds = 79940012
Dangerous builds = 0
System init for write_restart ...
Total wall time: 46:45:32
