LAMMPS (5 Jun 2019)
Reading data file ...
  orthogonal box = (-420 -420 -420) to (420 420 420)
  2 by 2 by 7 MPI processor grid
  reading atoms ...
  14000 atoms
  scanning bonds ...
  51 = max bonds/atom
  scanning angles ...
  1 = max angles/atom
  reading bonds ...
  13800 bonds
  reading angles ...
  13600 angles
Finding 1-2 1-3 1-4 neighbors ...
  special bond factors lj:   0          0          0         
  special bond factors coul: 0          0          0         
  2 = max # of 1-2 neighbors
  2 = max # of 1-3 neighbors
  4 = max # of 1-4 neighbors
  56 = max # of special neighbors
  special bonds CPU = 0.661718 secs
  read_data CPU = 0.831608 secs
Finding 1-2 1-3 1-4 neighbors ...
  special bond factors lj:   1          1          1         
  special bond factors coul: 0          0          0         
  2 = max # of 1-2 neighbors
  2 = max # of 1-3 neighbors
  4 = max # of 1-4 neighbors
  56 = max # of special neighbors
  special bonds CPU = 0.000605351 secs
WARNING: Using 'neigh_modify every 1 delay 0 check yes' setting during minimization (../min.cpp:168)
Neighbor list info ...
  update every 1 steps, delay 0 steps, check yes
  max neighbors/atom: 2000, page size: 100000
  master list distance cutoff = 26.9
  ghost atom cutoff = 26.9
  binsize = 13.45, bins = 63 63 63
  1 neighbor lists, perpetual/occasional/extra = 1 0 0
  (1) pair lj/cut, perpetual
      attributes: half, newton on
      pair build: half/bin/newton
      stencil: half/bin/3d/newton
      bin: standard
Setting up cg style minimization ...
  Unit style    : real
  Current step  : 0
Per MPI rank memory allocation (min/avg/max) = 1.164 | 13.81 | 17.68 Mbytes
Step Temp E_pair E_mol TotEng Press 
       0            0 2.4262116e+12      2649600 2.4262142e+12 1.1227655e+09 
    7035            0   -6144.0854    5742.4468   -401.63854  -0.02117856 
Loop time of 2.7752 on 28 procs for 7035 steps with 14000 atoms

99.6% CPU use with 28 MPI tasks x no OpenMP threads

Minimization stats:
  Stopping criterion = energy tolerance
  Energy initial, next-to-last, final = 
     2.42621421633e+12     -401.614938723     -401.638544729
  Force two-norm initial, final = 2.10957e+10 0.584999
  Force max component initial, final = 1.04817e+09 0.0848794
  Final line search alpha, max atom move = 0.948135 0.0804771
  Iterations, force evaluations = 7035 9919

MPI task timing breakdown:
Section |  min time  |  avg time  |  max time  |%varavg| %total
---------------------------------------------------------------
Pair    | 0.16387    | 0.53291    | 0.97981    |  33.0 | 19.20
Bond    | 0.047365   | 0.13203    | 0.22378    |  12.7 |  4.76
Neigh   | 0.27964    | 0.28453    | 0.28988    |   0.4 | 10.25
Comm    | 0.4413     | 0.92646    | 1.4083     |  28.6 | 33.38
Output  | 0          | 0          | 0          |   0.0 |  0.00
Modify  | 0          | 0          | 0          |   0.0 |  0.00
Other   |            | 0.8993     |            |       | 32.40

Nlocal:    500 ave 824 max 176 min
Histogram: 2 2 4 3 3 2 5 4 0 3
Nghost:    338.464 ave 536 max 168 min
Histogram: 3 4 2 2 3 6 2 2 2 2
Neighs:    5465.89 ave 9884 max 1749 min
Histogram: 2 7 2 3 1 3 2 3 3 2

Total # of neighbors = 153045
Ave neighs/atom = 10.9318
Ave special neighs/atom = 5.82857
Neighbor list builds = 571
Dangerous builds = 0
Setting up Verlet run ...
  Unit style    : real
  Current step  : 7035
  Time step     : 0.1
Per MPI rank memory allocation (min/avg/max) = 1.128 | 14 | 16.55 Mbytes
Step Temp E_pair E_mol TotEng Press 
    7035            0   -6144.0854    5742.4468   -401.63854  -0.02117856 
   17035    212.32619   -4848.2889    9413.8786    13425.613   -1.1374597 
Loop time of 1.81479 on 28 procs for 10000 steps with 14000 atoms

Performance: 47.609 ns/day, 0.504 hours/ns, 5510.287 timesteps/s
99.6% CPU use with 28 MPI tasks x no OpenMP threads

MPI task timing breakdown:
Section |  min time  |  avg time  |  max time  |%varavg| %total
---------------------------------------------------------------
Pair    | 0.09129    | 0.33109    | 0.67626    |  30.3 | 18.24
Bond    | 0.04004    | 0.11277    | 0.1911     |  11.9 |  6.21
Neigh   | 0.0022675  | 0.0023335  | 0.0024086  |   0.1 |  0.13
Comm    | 0.41055    | 0.79046    | 1.1221     |  22.6 | 43.56
Output  | 9.7913e-05 | 0.00012036 | 0.00015573 |   0.0 |  0.01
Modify  | 0.094377   | 0.26248    | 0.43893    |  17.8 | 14.46
Other   |            | 0.3155     |            |       | 17.39

Nlocal:    500 ave 822 max 179 min
Histogram: 2 2 4 3 3 2 5 4 0 3
Nghost:    339.571 ave 539 max 169 min
Histogram: 3 3 3 3 2 6 2 2 2 2
Neighs:    5463.11 ave 9815 max 1806 min
Histogram: 2 7 2 3 1 3 2 3 3 2

Total # of neighbors = 152967
Ave neighs/atom = 10.9262
Ave special neighs/atom = 5.82857
Neighbor list builds = 4
Dangerous builds = 0
4000 atoms in group rxnSites
Neighbor list info ...
  update every 1 steps, delay 1 steps, check yes
  max neighbors/atom: 2000, page size: 100000
  master list distance cutoff = 26.9
  ghost atom cutoff = 26.9
  binsize = 13.45, bins = 63 63 63
  2 neighbor lists, perpetual/occasional/extra = 1 1 0
  (1) pair lj/cut, perpetual
      attributes: half, newton on
      pair build: half/bin/newton
      stencil: half/bin/3d/newton
      bin: standard
  (2) fix bond/create/random, occasional, copy from (1)
      attributes: half, newton on
      pair build: copy
      stencil: none
      bin: none
Setting up Verlet run ...
  Unit style    : real
  Current step  : 0
  Time step     : 25
Per MPI rank memory allocation (min/avg/max) = 17.88 | 18.29 | 18.78 Mbytes
Step E_pair PotEng KinEng E_bond E_angle Temp Bonds 
       0   -4848.2889    4565.5897    8860.0238    3094.3272    6319.5513    212.32619    13800 
 1000000    -1449.981    9897.4724    12931.186    2934.8319    8412.6216    309.88963    14353 
 2000000    -1603.245    9617.3319    12950.014     2706.402    8514.1749    310.34083    14463 
 3000000   -1688.7336    9257.9747    12937.727    2532.4047    8414.3036    310.04638    14492 
 4000000   -1761.7278    9058.9379    12938.118    2497.2783    8323.3874    310.05576    14510 
 5000000    -1905.413    9070.2411    12879.185    2510.1921     8465.462    308.64346    14554 
 6000000   -1918.4405    8971.6759     12988.18    2418.6744     8471.442    311.25547    14603 
 7000000   -2028.5532    8643.7002    12988.357      2314.39    8357.8634     311.2597    14594 
 8000000   -2025.2116    8737.4363    12883.786    2307.2305    8455.4174     308.7537    14629 
 9000000   -2105.8422    8563.9548     12993.54    2267.7585    8402.0385    311.38392    14643 
10000000   -2229.7119    8490.5947    13063.399    2211.4962    8508.8104    313.05805    14678 
11000000   -2324.3244    8499.5921     12934.99    2222.3107    8601.6058    309.98078    14679 
12000000   -2293.0306    8309.3234    12959.065    2162.9512    8439.4028    310.55774    14681 
13000000   -2455.8465    8144.7481    12911.632    2156.3128    8444.2818    309.42102    14735 
14000000   -2365.0832    8159.9391    12908.049    2090.4529    8434.5694    309.33517    14727 
15000000   -2470.5676    8200.9446    12763.761    2140.2984    8531.2138    305.87738    14717 
16000000   -2542.6307     7786.068    12939.543    2066.3268    8262.3719    310.08991    14735 
17000000   -2516.4266    7849.0021    12969.438    1940.0163    8425.4124    310.80631    14756 
18000000    -2600.923    7640.8507    12859.829    1938.9413    8302.8324     308.1796    14824 
19000000   -2579.8415    7953.1071    12949.832    2085.7081    8447.2404    310.33648    14755 
20000000   -2584.8614    7778.6216    12957.313    2020.1841     8343.299    310.51576    14735 
21000000    -2658.162    7824.8305    12876.244    2029.4768    8453.5157    308.57297    14765 
22000000    -2669.888    7800.3283    12766.102     1985.624    8484.5923    305.93347    14782 
23000000   -2600.7323    7789.9749    12992.313    1993.3137    8397.3935     311.3545    14775 
24000000   -2737.5582    7503.2292    12909.266    1936.5333    8304.2541    309.36432    14809 
25000000   -2783.7364    7386.0916    12890.298    1889.1955    8280.6324    308.90977    14813 
26000000   -2769.9232    7488.3774     12952.12    1962.6419    8295.6586    310.39131    14791 
27000000   -2793.0165    7631.3431    12886.763    2018.9471    8405.4125    308.82504    14791 
28000000   -2805.4356    7573.1055    12949.773    1913.8282    8464.7129    310.33505    14803 
29000000   -2815.4887    7482.8505    12953.426    1866.4162     8431.923    310.42259    14827 
30000000   -2843.5163     7608.221    12975.799    1959.7401    8491.9971    310.95875    14803 
31000000   -2811.2237    7460.8865    12811.998    1899.9517    8372.1585    307.03334    14826 
32000000   -2839.3167    7398.9684    13011.671    1936.4581     8301.827    311.81842    14802 
33000000   -2657.6186    7688.9614    13014.095    1987.7321    8358.8479     311.8765    14790 
34000000   -2705.3029    7628.3519    12868.507     1892.934    8440.7208    308.38757    14801 
35000000    -2689.506    7632.4917    13015.737     1903.746    8418.2517    311.91585    14833 
36000000   -2840.0996    7643.5052    12740.625    2010.5609    8473.0439    305.32293    14788 
37000000    -2818.012    7419.6148    13064.206    1927.7702    8309.8566    313.07739    14813 
38000000   -2894.4459    7438.1228    12961.419    1944.3833    8388.1854    310.61415    14823 
39000000   -2915.9082    7346.5015    12942.181    1867.9363    8394.4734    310.15313    14815 
40000000   -2823.7877    7534.2579    13072.553    2000.7881    8357.2575    313.27743    14791 
41000000   -2960.8572    7307.5952    12827.096    1802.3133    8466.1391    307.39517    14843 
42000000   -2769.5745     7558.829    12907.003    1885.7243    8442.6792     309.3101    14817 
43000000   -2868.1646    7535.3175    12860.091    1955.7531    8447.7289    308.18586    14832 
44000000   -2911.9549    7235.8952    13098.395    1849.4266    8298.4234     313.8967    14851 
45000000   -2896.5977    7352.2644    12981.179    1937.8522    8311.0099     311.0877    14849 
46000000   -2833.8278    7398.5223    12844.463    1881.3306    8351.0195    307.81136    14826 
47000000   -2859.0984    7363.8684    12857.744    1871.6221    8351.3447    308.12963    14861 
48000000   -2804.7754    7438.0722    12933.979    1954.8465    8288.0011    309.95656    14794 
49000000   -2875.7137    7209.4536    12912.762    1879.1819    8205.9855     309.4481    14870 
50000000   -2883.4272    7463.5701    12928.625    1891.3286    8455.6687    309.82824    14845 
51000000   -2799.9108    7303.9575    12865.075    1846.9369    8256.9314     308.3053    14818 
52000000    -2955.871    7363.4604    12895.995     1931.952    8387.3794    309.04629    14828 
53000000   -2916.8535    7226.8291    12901.895     1892.254    8251.4285    309.18768    14823 
54000000   -2881.6077    7417.1344    12881.591    1986.0576    8312.6846    308.70112    14836 
55000000   -2851.0935       7517.8    12937.597    2014.6063    8354.2872    310.04327    14797 
56000000   -2951.4046    7322.2854    12839.406    1855.2443    8418.4457    307.69016    14830 
57000000   -2960.7272    7315.0023    12844.525    1992.3558    8283.3737    307.81284    14833 
58000000   -2821.3413    7506.5013    13016.299    1927.8442    8399.9984    311.92931    14825 
59000000   -2957.0228    7155.8368    12964.059    1820.0251    8292.8345    310.67741    14867 
60000000   -3022.4139    7063.2103    12889.962    1837.6217    8248.0025    308.90172    14875 
61000000   -3034.3915    7128.5839    13026.085    1790.2195    8372.7559    312.16383    14878 
62000000   -2925.2198    7321.9841    12887.089    1878.0551    8369.1489    308.83286    14845 
63000000   -3047.4075    7064.3287     12855.15    1767.3452    8344.3909    308.06747    14872 
64000000   -3137.3941    7092.4062    12897.141    1818.7283     8411.072    309.07375    14872 
65000000   -3048.9117    7201.9107    12844.701    1824.5487    8426.2738    307.81705    14857 
66000000   -3013.0451    7205.1369    12857.428    1851.4375    8366.7445    308.12206    14883 
67000000   -2998.0948    7304.2567    12882.656    1843.9046    8458.4469    308.72663    14842 
68000000   -3036.3779    6909.5638     12926.92    1649.0974    8296.8442    309.78741    14929 
69000000   -3038.9943    7089.1771    12802.833    1908.9397    8219.2317    306.81372    14861 
70000000   -3024.7811    7133.8456    12860.548    1857.9108    8300.7159    308.19683    14897 
71000000   -2966.7008    7144.3757    12871.973    1790.8398    8320.2367    308.47063    14868 
72000000   -2989.1736    7258.0505    12948.272    1845.5721    8401.6521     310.2991    14841 
73000000   -2904.8716    7253.2309    12991.969    1884.6846    8273.4179    311.34628    14851 
74000000   -2975.5405    7154.1174    12982.974    1845.4908    8284.1671    311.13071    14872 
75000000   -3023.4479    7014.7282    12997.658    1741.8779    8296.2983     311.4826    14897 
76000000   -3013.0307    7076.3383    12847.441     1840.239    8249.1299    307.88273    14861 
77000000   -3076.2044    6992.2552    12907.303    1748.1996    8320.2601    309.31729    14893 
78000000   -2976.1228    7166.3059    12908.852    1742.5919    8399.8368    309.35441    14900 
79000000   -3007.2003    7030.2211    12863.573     1690.446    8346.9755    308.26931    14885 
80000000   -3125.1311    7064.2665    12938.803    1810.4934    8378.9041    310.07217    14893 
81000000   -3145.7776    6994.8936    12893.601    1807.1205    8333.5507    308.98893    14916 
82000000   -3120.9246    7083.6488    12920.406    1831.7834      8372.79    309.63128    14871 
83000000   -2963.3061    7206.8081    13032.632    1878.2047    8291.9095    312.32075    14849 
84000000   -3068.2764    6964.9304    12831.785    1741.5363    8291.6706    307.50752    14905 
85000000   -3037.6102     7034.271    12953.435    1823.7242    8248.1569    310.42282    14826 
86000000   -3200.4544    6698.4491    12873.078    1609.8417    8289.0619    308.49709    14892 
87000000   -3143.3731    6837.6487    12937.937    1715.7306    8265.2913    310.05141    14921 
88000000   -3131.6946    6942.0911    12861.647    1734.2765    8339.5093    308.22317    14900 
89000000   -3100.8348    7044.8454    12905.224    1868.3251    8277.3551    309.26747    14872 
90000000   -3009.3906    6918.3012    12840.612    1717.8847    8209.8071    307.71908    14888 
91000000   -3134.0377    6942.6358    12978.454    1771.0399    8305.6335    311.02238    14878 
92000000   -3018.0622    7193.4332    13006.339     1865.605    8345.8904    311.69063    14872 
93000000   -3129.0175    6960.2967    12911.892    1728.9258    8360.3884    309.42727    14896 
94000000   -3057.6455    7090.1495    12805.606     1811.785      8336.01    306.88016    14843 
95000000   -3044.7546     7123.194    12838.119    1861.4911    8306.4575    307.65932    14857 
96000000   -3118.1546    7014.4946    12922.416    1822.7166    8309.9325    309.67947    14877 
97000000   -3087.5571     7045.078    12808.059    1811.5081     8321.127    306.93896    14891 
98000000   -2945.6899    7228.5772    12801.405     1869.656    8304.6111     306.7795    14872 
99000000   -3060.5469    7090.0525    12938.632     1804.557    8346.0423    310.06806    14881 
100000000   -3228.0098    6727.6825    12836.586    1718.0432    8237.6492    307.62259    14917 
101000000   -3081.9706    6963.3318    12881.615    1732.8654    8312.4369     308.7017    14890 
102000000   -3100.9488    7018.6032    12962.201    1728.6145    8390.9375    310.63288    14904 
103000000   -3044.3238    7175.0172    13033.633    1834.1497    8385.1913    312.34472    14859 
104000000   -3101.9666    6970.2236    13022.564    1729.7637    8342.4265    312.07946    14874 
105000000   -3126.3098    6879.5505    12886.609    1775.7458    8230.1145    308.82137    14870 
106000000   -3027.6863    7147.6862    13127.322    1910.2275     8265.145    314.58993    14882 
107000000    -3089.873    6953.2625    12865.668    1719.7799    8323.3556    308.31952    14892 
108000000   -3088.7418    7011.2828    12912.714    1798.9168    8301.1078    309.44696    14872 
109000000   -3073.7312    7067.3605    12866.775    1784.9193    8356.1724    308.34605    14885 
110000000    -3054.995    6965.5571    12874.375    1818.3673    8202.1848    308.52817    14874 
111000000   -3209.0923    6918.1773    12900.224    1801.8633    8325.4064    309.14764    14891 
112000000   -3089.2257    7024.5978    12978.052    1718.2942    8395.5293    311.01275    14877 
113000000   -3176.3853    6871.5595    12920.311    1745.3382    8302.6067    309.62901    14906 
114000000   -3131.9692    7082.4243    12916.762    1873.1331    8341.2604    309.54397    14892 
115000000   -3209.6899    6845.4716        12878      1737.26    8317.9016    308.61505    14925 
116000000   -3053.2594    6974.6162    12715.074    1712.5288    8315.3469    304.71062    14894 
117000000   -3043.3062    7155.5438    12918.801    1834.4085    8364.4415    309.59282    14889 
118000000   -3094.7309    7070.8342    12966.432    1839.1002    8326.4648    310.73428    14892 
119000000   -3145.4536    6922.2077    12828.221    1760.2171    8307.4442    307.42213    14883 
120000000   -3142.4631    7122.1752    12807.889    1806.9894    8457.6488    306.93488    14874 
121000000   -3106.6533    6910.1473    12891.947    1768.5353    8248.2653    308.94929    14887 
122000000   -3052.9135    7022.1863    13007.785    1824.0403    8251.0596    311.72529    14859 
123000000   -3125.2019    7067.8873    12977.623    1834.9675    8358.1217    311.00247    14860 
124000000   -3031.6022    7214.1167    12977.115    1860.0276    8385.6913     310.9903    14863 
125000000   -3094.1976    7001.0396    12873.785    1773.7054    8321.5318    308.51405    14856 
126000000   -3078.9092    6913.1606     12664.14    1742.2548     8249.815       303.49    14893 
127000000   -3136.3246    6933.5782    13065.349    1732.0325    8337.8703    313.10479    14894 
128000000   -3217.9454    6921.7632     12871.41    1797.5816     8342.127    308.45713    14903 
129000000   -3163.3988    6985.1231    12848.438    1778.8498    8369.6721    307.90661    14909 
130000000   -3021.2654    7166.2933    12832.071    1876.3175    8311.2411    307.51438    14869 
131000000   -3052.5504    7149.5945    12961.138    1863.2488    8338.8961    310.60742    14877 
132000000   -3207.7982    6885.7722    12883.457    1753.8873    8339.6832    308.74583    14905 
133000000   -3076.4288    6933.8469    12881.885    1714.4188    8295.8569    308.70815    14900 
134000000   -3139.1355    6963.3113    12897.561    1726.5861    8375.8606    309.08383    14912 
135000000    -3273.547    6676.7768    12987.001    1704.7958     8245.528    311.22721    14903 
136000000   -3256.8983    6849.7749    12860.815    1773.8953    8332.7779    308.20323    14955 
137000000   -3267.7202    6758.1823    12946.103    1692.5469    8333.3555    310.24711    14909 
138000000   -3218.1536    6783.1917    12993.806    1785.9383    8215.4071    311.39029    14891 
139000000   -3094.1009    6983.6546    13082.921    1827.9297    8249.8259     313.5259    14903 
140000000   -3260.4159    6803.9782    12967.458    1691.5763    8372.8178    310.75888    14930 
141000000   -3183.2204    6877.7399    12980.184    1772.4786    8288.4817    311.06383    14882 
142000000   -3091.0738    7006.5832    13096.893    1774.9949     8322.662    313.86072    14900 
143000000   -3200.1446    6698.9508    13003.712    1671.8522    8227.2431    311.62769    14926 
144000000   -3122.9427    6947.7759    13043.649    1759.5879    8311.1307    312.58475    14902 
145000000   -3165.7564    6863.7385    12855.378    1747.0064    8282.4885    308.07293    14897 
146000000   -3206.6213    7059.4971    12881.355    1842.2569    8423.8615    308.69545    14893 
147000000    -3226.985    6726.8003    12917.762    1659.9208    8293.8645    309.56794    14950 
148000000    -3214.332    7049.9638    12983.448    1840.2787    8424.0171    311.14207    14895 
149000000   -3120.7517    6974.0586    12952.348    1860.8086    8234.0017    310.39676    14889 
150000000    -3267.615    6746.4546    12968.528    1720.0263    8294.0433    310.78451    14910 
151000000   -3148.2015    7014.1324    12749.362    1753.0443    8409.2896    305.53229    14882 
152000000   -3182.1679    6925.6486    12845.988     1732.261    8375.5555     307.8479    14915 
153000000   -3041.2094    7078.4143    13058.079    1768.6783    8350.9455    312.93056    14892 
154000000   -3196.2719    6811.3454     12805.24    1730.6408    8276.9765     306.8714    14920 
155000000   -3150.7585     6857.685      13070.8    1747.3455    8261.0979    313.23542    14906 
156000000   -3133.9577    6954.7282    12974.423    1752.4331    8336.2528    310.92579    14876 
157000000   -3223.9502    6769.1587    12772.929    1685.7875    8307.3214    306.09707    14914 
158000000   -3263.2257      6751.67     12765.15    1627.0928    8387.8029    305.91065    14915 
159000000   -3103.9836    6921.2147    12894.063    1796.3263    8228.8719          309    14901 
160000000   -3218.8381    6715.0712     12820.36    1697.9303     8235.979    307.23373    14914 
161000000   -3087.1018    6979.6697    12896.228    1773.1518    8293.6197    309.05188    14865 
162000000   -3208.2577     6858.174    12945.214    1739.8242    8326.6075     310.2258    14881 
163000000   -3171.6577    6912.8368    12906.222    1806.5376    8277.9569    309.29138    14869 
164000000   -3212.7716    6930.5062    12829.318    1822.7022    8320.5756     307.4484    14880 
165000000   -3143.9765    6983.5332    12944.223    1811.4954    8316.0143    310.20205    14871 
166000000   -3103.9271    7058.8707    12841.095    1852.8358     8309.962    307.73065    14847 
167000000   -3149.3896    6967.0709    12798.271    1754.5089    8361.9516    306.70438    14907 
168000000   -3204.2624    6647.3933    12998.127    1688.7383    8162.9174    311.49384    14919 
169000000   -3030.4666    7057.8006     12875.94    1814.3457    8273.9215    308.56569    14873 
170000000   -3137.7388    6860.3581    12974.919    1702.4221    8295.6748    310.93767    14905 
171000000   -3185.6717    6967.3857    12917.897    1821.4723    8331.5851    309.57117    14896 
172000000   -3205.8261    6905.1238    12820.854    1724.3962    8386.5537    307.24558    14918 
173000000   -3090.7876    6923.2629    12942.682    1684.9108    8329.1397    310.16512    14882 
174000000   -3138.0295    6949.7281    12838.213    1765.3665    8322.3912    307.66158    14912 
175000000   -3112.2454    7015.0367     12987.29    1818.1504    8309.1317    311.23414    14870 
176000000   -3086.3491    7091.0214    12944.959     1824.929    8352.4415    310.21969    14886 
177000000   -3153.2854    6988.4554    12869.761    1749.4784    8392.2624     308.4176    14921 
178000000   -3126.0279    6926.3623    12825.344    1826.1033     8226.287    307.35319    14883 
179000000   -3197.4452    6888.6989    12884.504     1759.793     8326.351    308.77093    14885 
180000000   -3164.1457    6803.7692    12866.709     1736.922    8230.9928    308.34447    14913 
181000000   -3172.7771    6898.1553    12996.554    1782.8292    8288.1033    311.45615    14913 
182000000   -3102.7216    6789.8715    12845.255    1655.8777    8236.7155    307.83033    14900 
183000000   -3202.3976    6832.0252    12889.789    1700.6923    8333.7305    308.89757    14932 
184000000   -3080.5884    7041.0676    12811.102    1850.4264    8271.2296    307.01189    14894 
185000000   -3239.3746    6714.9992    13003.725    1638.5372    8315.8366    311.62799    14936 
186000000   -3164.0611    6835.6561    13147.893    1671.4358    8328.2813     315.0829    14929 
187000000   -3189.7788    6767.1949    12836.269    1589.1256     8367.848    307.61499    14942 
188000000   -3138.7499    6987.3221    12961.454    1760.6629    8365.4092    310.61499    14910 
189000000   -3006.0803    6981.1646    12993.031    1676.6131    8310.6317    311.37171    14897 
190000000   -3111.4919    6938.7277    13005.225    1819.6167    8230.6029    311.66395    14883 
191000000   -3103.3774    6977.7958    12749.984    1796.8754    8284.2977    305.54721    14893 
192000000   -3101.2186     6943.348    12879.468    1706.7976     8337.769    308.65022    14877 
193000000   -3069.0861    7097.1364    12826.695    1784.6685     8381.554    307.38556    14888 
194000000   -3234.3636    6764.9929    12899.899    1714.5446    8284.8119    309.13985    14909 
195000000    -3191.096     6764.969    12906.148    1673.3263    8282.7386     309.2896    14915 
196000000   -3224.4011    6792.9375    13094.297    1725.8977    8291.4409     313.7985    14911 
197000000    -3139.803    6885.8139    12925.636    1709.5016    8316.1153    309.75662    14935 
198000000   -3153.8395    6844.1187    12913.218    1759.7471     8238.211    309.45903    14899 
199000000   -3200.8967    6956.2828     12876.36     1787.651    8369.5285    308.57575    14930 
200000000   -3222.7895    6659.4778    12925.372     1603.614    8278.6533     309.7503    14927 
201000000   -3043.8311    7028.4337    12863.743    1838.6722    8233.5926     308.2734    14875 
202000000   -3126.7642    6921.3616    12802.092     1783.523    8264.6028    306.79594    14892 
203000000    -3253.291    6870.5169    12881.507    1692.5637    8431.2442     308.6991    14916 
204000000   -3189.4309    6836.4086    13021.413    1672.5266    8353.3129    312.05188    14897 
205000000   -3143.6911    6903.2572     13046.27    1800.7778    8246.1705    312.64756    14893 
206000000   -3164.4748    6908.9914    12873.327    1712.7344    8360.7318    308.50306    14916 
207000000   -3114.0699    6982.5082     12829.77    1755.8713    8340.7069    307.45924    14875 
208000000   -3074.8385     7011.757    12946.588    1792.5757    8294.0198    310.25873    14872 
209000000   -3149.5633    6828.8501    13003.911    1672.8585    8305.5549    311.63244    14899 
210000000   -3095.7785    7005.7194    12879.945    1752.0121    8349.4859    308.66165    14881 
211000000   -3153.7266    6911.5583    13128.611    1798.0485    8267.2363    314.62083    14888 
212000000   -3038.4451     6883.675    12983.216    1738.9231     8183.197    311.13651    14888 
213000000   -3048.6928    7056.0324    13048.408    1839.5848    8265.1404    312.69879    14903 
214000000    -3098.498     7073.927    12841.276     1758.532    8413.8931    307.73497    14897 
215000000   -3172.1612    6875.3983    12964.992    1732.4363    8315.1232    310.69976    14892 
216000000   -3113.1117    6903.4222    12988.222    1738.0798    8278.4541    311.25646    14906 
217000000   -3186.7608    6789.1703    12919.786    1655.5071     8320.424    309.61643    14916 
218000000   -3081.9194    6971.3542    12803.731     1746.214    8307.0596    306.83522    14899 
219000000   -3071.8728    6957.3665    12905.719    1771.1419    8258.0974    309.27933    14874 
220000000   -3157.5073    6819.8392    12850.924    1747.2626    8230.0839     307.9662    14907 
221000000   -3230.0525    6950.3364    12874.154    1804.8838    8375.5051    308.52288    14896 
222000000   -3279.2382    6873.6688    12981.963     1814.205     8338.702    311.10648    14900 
223000000   -3230.6451    6786.8991    12913.825    1755.1867    8262.3575    309.47358    14911 
224000000   -3115.0469    7007.8838    12748.972    1878.3604    8244.5703    305.52297    14876 
225000000   -3187.7418    6733.0578    13035.076    1724.3335    8196.4661    312.37931    14890 
226000000   -3205.7763    6884.6962        13045    1767.1343    8323.3383    312.61712    14895 
227000000   -3172.4726    6922.8806    12870.458    1752.5067    8342.8465    308.43431    14919 
228000000   -3115.3964    6997.1139    13036.207    1834.3558    8278.1545    312.40642    14872 
229000000    -3066.768    7121.0592    13015.324    1832.8594    8354.9678    311.90595    14909 
230000000   -3118.3784    7149.2322    12922.711    1874.0515    8393.5591    309.68654    14896 
231000000   -3045.5389    7050.6294    12907.521    1768.9803     8327.188    309.32251    14897 
232000000   -3208.3322    7013.1471    12903.558    1789.4426    8432.0368    309.22754    14906 
233000000   -3240.0607    6814.7286     12883.87    1689.4407    8365.3485    308.75573    14914 
234000000   -3100.4336    6862.4527    12933.613    1666.1252    8296.7611    309.94779    14915 
235000000   -3052.8828    6870.2706    12904.062    1696.5564     8226.597    309.23962    14899 
236000000   -3161.2665    6919.9463    12866.461    1798.4025    8282.8103    308.33854    14910 
237000000   -3154.0589    6714.6387    13036.821    1681.9414    8186.7562    312.42112    14917 
238000000   -3073.4838    6887.1099    12773.445    1748.1754    8212.4184    306.10945    14900 
239000000   -3212.9806    6888.8539    12920.571    1707.9531    8393.8814    309.63525    14890 
240000000   -3192.9296    6854.7499    12774.833    1667.5553    8380.1242     306.1427    14910 
241000000   -3158.2913    6861.9222    12793.975    1797.3169    8222.8966    306.60143    14899 
242000000   -3098.9249    7245.3063    12977.496    1911.8199    8432.4113    310.99943    14863 
243000000   -3051.1912    6931.7029    12840.949    1793.2618    8189.6322    307.72715    14870 
244000000   -3162.2928     7037.039    12904.527     1829.059    8370.2728    309.25075    14885 
245000000   -3124.1578    6948.0569    12780.997    1767.2068    8305.0079    306.29043    14896 
246000000   -3256.1301    6874.5239    12990.102    1771.7169     8358.937    311.30152    14926 
247000000    -3214.047    6959.9657    12917.918     1806.584    8367.4287    309.57166    14889 
248000000   -3149.2523    6718.0887    13080.857    1693.7941    8173.5468    313.47642    14903 
249000000   -3255.0334    6789.4097    12954.935    1676.2602    8368.1829    310.45876    14947 
250000000   -3105.6286    6993.7421    13045.752     1719.143    8380.2276    312.63514    14897 
251000000   -3144.1543    6910.7257    12907.278    1765.4763    8289.4037     309.3167    14891 
252000000   -3081.1877    6924.9395    12814.203    1695.7817    8310.3456    307.08619    14917 
253000000    -3143.762    6843.4657    12848.318    1659.6054    8327.6223    307.90374    14902 
254000000    -3019.582    7035.2925    13063.212    1698.9755    8355.8991    313.05358    14903 
255000000   -3096.4878    7169.2804    12889.659    1874.7432    8391.0251    308.89445    14880 
256000000    -3100.899    7000.7847    12957.927     1747.021    8354.6627    310.53046    14878 
257000000    -3075.063    7017.5472    12966.981    1780.2438    8312.3664    310.74744    14886 
258000000    -3028.937    6968.2505     12941.56    1773.3569    8223.8306    310.13824    14875 
259000000   -3208.6662    6793.8999    13163.326    1767.3541     8235.212    315.45275    14918 
260000000   -3104.4651    6913.1841    13016.467    1833.3311     8184.318    311.93335    14883 
261000000   -3151.5156    6945.4136    12992.037    1735.4139    8361.5153     311.3479    14904 
262000000   -3131.5607     6789.568    12968.938    1681.7219    8239.4068    310.79434    14899 
263000000   -3116.1275    6941.3805    13050.445    1838.0995    8219.4085    312.74762    14882 
264000000   -3270.6537    6779.2343     12964.62    1739.2138    8310.6742    310.69085    14931 
265000000   -3177.9234    6907.2282    12784.607    1778.9572    8306.1943    306.37694    14886 
266000000   -3108.0663    7085.8229    12942.914    1789.5613    8404.3279    310.17068    14896 
267000000   -3182.6428    6835.3979    12933.422    1644.2834    8373.7573    309.94322    14910 
268000000   -3104.5299    6815.3579    12865.955    1776.7098    8143.1781     308.3264    14912 
269000000   -3150.1171    6680.4968     13031.61    1723.8308    8106.7831    312.29625    14912 
270000000    -3171.868     6860.087        12952    1770.5381    8261.4169    310.38844    14898 
271000000   -3211.1722    6826.1926    12860.441    1739.5053    8297.8596    308.19426    14899 
272000000   -3195.2296     6950.681    13028.819     1777.247    8368.6636    312.22936    14897 
273000000   -3188.4195    7000.8074    12884.646    1813.6365    8375.5904    308.77431    14887 
274000000   -3092.0584    7127.7471    12786.318    1836.9378    8382.8678    306.41794    14844 
275000000   -3219.7831    6832.6076    12882.541    1765.9852    8286.4055    308.72387    14904 
276000000   -3248.6117     6709.959    12907.783    1711.4366    8247.1342     309.3288    14910 
277000000   -3179.0457    6874.5086    12970.075    1752.5945    8300.9598    310.82158    14916 
278000000   -3112.5992    6841.1205    12915.826    1738.6365    8215.0832    309.52154    14910 
279000000   -3180.6166    6847.6456    12851.725    1738.3938    8289.8684    307.98539    14910 
280000000    -3118.973     7098.347    12772.131    1804.0943    8413.2257    306.07795    14877 
281000000   -3117.9604     6910.942    12854.525    1732.5829    8296.3196    308.05247    14893 
282000000   -3029.0252    7167.5525    12862.357    1829.2489    8367.3288    308.24018    14880 
283000000   -3104.1552    6909.2369    13054.631    1744.5812    8268.8109    312.84792    14908 
284000000   -3154.1712    6717.0998    12798.153    1752.0843    8119.1866    306.70156    14886 
285000000   -3173.9953    6904.2067    13011.673    1735.5269    8342.6752    311.81847    14911 
286000000   -3160.0958     6849.889     13010.54    1805.8002    8204.1846     311.7913    14904 
287000000   -3114.5697    6906.6292    12846.927     1862.373    8158.8259    307.87041    14873 
288000000   -3199.6105    6737.6657     13004.29    1670.4527    8266.8236    311.64153    14911 
289000000   -3144.9276    6906.8951    12857.633    1763.8915    8287.9312    308.12696    14902 
290000000   -3189.0335    6705.8632    12960.079    1714.7584    8180.1384    310.58204    14902 
291000000    -3199.334    6748.9625    12911.793    1779.2118    8169.0847    309.42488    14887 
292000000   -3157.1005    6917.8914    12975.318    1738.2642    8336.7276    310.94723    14901 
293000000    -3226.835     6826.547    12930.935    1680.3807    8373.0013    309.88363    14897 
294000000    -3175.643    6823.9057    13014.108    1674.2478    8325.3008    311.87682    14866 
295000000   -3202.6241    6899.5036    12809.458    1788.5867     8313.541    306.97247    14903 
296000000   -3140.6799    6838.7901    12839.658    1725.7428    8253.7271    307.69621    14888 
297000000   -3158.5271    6864.9727    12926.856    1870.4918    8153.0081    309.78587    14899 
298000000   -3082.9262    7109.2437    12860.589    1892.5409    8299.6289    308.19781    14882 
299000000   -3171.3725    6978.5367    12791.757    1861.0395    8288.8696    306.54827    14903 
300000000   -3193.5889    6850.0034    12752.879    1846.3185    8197.2737    305.61658    14869 
301000000      -3162.4     6954.066    12918.467    1833.0563    8283.4097    309.58482    14909 
302000000   -3133.8934    6910.1979    12853.119    1755.8489    8288.2424    308.01879    14882 
303000000   -3116.6376    7035.1552    12948.217     1711.869    8439.9238    310.29777    14902 
304000000   -3225.4282    6663.1546     12971.89    1691.7022    8196.8806    310.86508    14900 
305000000   -3235.9313    6795.5653    12836.257    1744.2602    8287.2364    307.61469    14913 
306000000   -3188.7936    6895.3059    12825.229    1749.3054    8334.7941    307.35043    14932 
307000000   -3160.0871    6809.1397    13099.957     1674.861    8294.3657    313.93414    14906 
308000000   -3126.9073    6846.5888    12840.881    1727.5914    8245.9046    307.72551    14911 
309000000    -3173.791    6799.7902    12852.946     1644.389    8329.1922    308.01464    14905 
310000000   -3063.8941    6931.5181    12870.947    1669.0383    8326.3739    308.44603    14896 
311000000   -3083.4602    7266.3097    12831.768    2007.8708    8341.8991    307.50712    14858 
312000000   -3150.6399    6912.8428    12996.804    1708.5411    8354.9416    311.46213    14917 
313000000   -3162.7773    6958.1594    12990.154    1820.2703    8300.6664    311.30276    14901 
314000000   -3186.9271    6725.5154    12927.578    1681.2797    8231.1628    309.80317    14880 
315000000   -3087.1671    7118.2616    13087.738    1841.4237     8364.005    313.64133    14880 
316000000   -3079.7223    6986.4714    12975.801    1777.2163    8288.9774     310.9588    14905 
317000000   -2994.4273    7284.2051    12827.418    1948.8732    8329.7592    307.40288    14878 
318000000   -3075.2061    7110.8101    12961.526    1867.9035    8318.1126    310.61672    14876 
319000000    -3026.644    7198.5296    12923.273    1886.0346     8339.139        309.7    14894 
320000000   -3165.5322    7019.9989    13028.338    1767.5609    8417.9702    312.21784    14905 
321000000   -3185.8895    6874.9261    13003.432    1760.9802    8299.8354    311.62098    14909 
322000000   -3095.2959    7116.6916    13001.937    1866.8586    8345.1289    311.58515    14910 
323000000   -3133.9248    6911.3015    13007.178    1748.3838    8296.8426    311.71073    14902 
324000000   -3186.5723    6927.4184    12945.349    1867.9212    8246.0695    310.22905    14872 
325000000    -3208.361    6908.7495     12908.14    1820.5264    8296.5841    309.33734    14899 
326000000   -3199.2164    6782.1226    12931.163    1696.4556    8284.8834    309.88908    14933 
327000000   -3287.0647    6848.6164    12935.175    1790.7743    8344.9069    309.98523    14911 
328000000   -3210.7648    6768.9217    12791.296    1678.6184     8301.068    306.53723    14926 
329000000   -3164.4592    6889.2824    12901.081    1735.5954    8318.1462    309.16817    14894 
330000000   -3195.0991    6823.9306    12992.354     1690.713    8328.3167    311.35548    14934 
331000000   -3220.6902    6822.7142    12979.872    1677.1856    8366.2188    311.05637    14938 
332000000   -3115.1469     7080.093    12927.883    1877.3461    8317.8938    309.81049    14880 
333000000   -3154.2341    6851.8228    12994.001    1777.8392    8228.2178    311.39497    14884 
334000000   -3102.0184    7030.2677    12954.336    1775.0751     8357.211    310.44441    14902 
335000000     -3140.95    6875.5122     12794.36    1754.3597    8262.1025    306.61067    14910 
336000000   -3230.2874    6554.2929     12994.26    1659.6945    8124.8858    311.40116    14927 
337000000   -3200.9472    6970.5263    12898.936     1780.209    8391.2645    309.11678    14902 
338000000   -3057.8515    6927.7969    13050.362    1816.7147    8168.9337    312.74562    14855 
339000000   -3208.8782    6757.8818    12943.103    1712.8259    8253.9341    310.17521    14942 
340000000   -3168.5056    6819.8759    13001.591    1741.7766     8246.605    311.57686    14899 
341000000   -3166.0088    6931.7978    12905.297    1832.7889    8265.0178    309.26921    14887 
342000000   -3180.0486    6851.6124    13020.679    1743.4475    8288.2135    312.03428    14908 
343000000   -3320.3385    6669.1732    12764.025    1681.5223    8307.9894    305.88369    14919 
344000000   -3198.7749    6799.0856    13010.104    1694.6803    8303.1802    311.78086    14920 
345000000   -3089.6279    7005.8968    12879.595    1708.4648    8387.0599    308.65328    14895 
346000000   -3246.3275    6816.3423    12794.162     1747.133    8315.5369    306.60592    14914 
347000000   -3137.4564    6962.5153    13114.726    1815.0155    8284.9562    314.28809    14904 
348000000   -3140.0401    6955.4907    12979.526    1730.2121    8365.3188    311.04808    14911 
349000000   -3203.7392    6856.3461    12975.263     1741.049    8319.0364    310.94592    14938 
350000000   -3224.6232    6881.1846    12993.369    1721.8044    8384.0033     311.3798    14924 
351000000   -3144.8652    6832.2348    12966.751    1695.0444    8282.0555    310.74194    14896 
352000000   -3170.1578    7045.7032    12893.328    1800.9125    8414.9484    308.98237    14915 
353000000   -3338.3153    6815.1636    12773.144    1760.3419     8393.137    306.10223    14919 
354000000   -3108.5712    6914.6313    12920.898    1736.5719    8286.6306    309.64309    14880 
355000000   -3169.1655    6988.0929    12873.554    1808.9597    8348.2987     308.5085    14905 
356000000    -3210.187    6799.1188    12889.821    1721.2007    8288.1051    308.89835    14889 
357000000   -3153.4202    7003.7016    13024.639     1800.387    8356.7348    312.12918    14865 
358000000   -3194.2259    6812.1156    13067.524    1806.8344     8199.507    313.15691    14886 
359000000   -3271.7799    6703.2283    12889.066    1736.8387    8238.1695    308.88025    14919 
360000000   -3207.9254    7049.6871    12875.182    1770.7054    8486.9071    308.54753    14918 
361000000   -3223.1643    6841.1662     12979.22    1729.0561    8335.2744    311.04075    14909 
362000000   -3258.0755    6785.5598    12921.407    1721.0115    8322.6238    309.65529    14921 
363000000   -3246.7215    6678.3038     13043.49    1731.1212    8193.9041    312.58093    14913 
364000000   -3318.5925    6698.3923    12981.246    1666.3479    8350.6368    311.08929    14927 
365000000   -3221.3982    6858.6632    12927.217    1744.0375     8336.024    309.79451    14888 
366000000   -3197.0019    6984.0709    12992.996    1772.8226    8408.2503    311.37087    14897 
367000000   -3156.4994    6873.4647    12939.541    1701.3516    8328.6124    310.08985    14933 
368000000   -3263.5813    6632.8417    13036.406    1641.3242    8255.0988    312.41117    14923 
369000000   -3325.0946    6689.0872    12866.269    1663.2304    8350.9515    308.33394    14922 
370000000   -3275.0927    6695.9916    13081.422    1762.1449    8208.9394    313.48996    14934 
371000000   -3229.7687    6795.9323    13003.976    1700.8694    8324.8317    311.63401    14939 
372000000    -3188.961    6878.8893    12870.574    1711.6918    8356.1586    308.43709    14886 
373000000   -3228.0885    6747.1407    12794.274    1726.3629    8248.8662    306.60861    14909 
374000000   -3222.4136    6717.3725    12895.434    1781.8685    8157.9175    309.03285    14905 
375000000   -3241.8282    6786.5287    12871.664    1731.7296    8296.6273    308.46322    14907 
376000000   -3136.1494    6866.7718    12910.453    1733.4846    8269.4367    309.39277    14931 
377000000   -3119.5103    6854.9003    12882.521    1715.8837    8258.5269     308.7234    14904 
378000000   -3272.1445    6754.9506    12913.945    1664.6645    8362.4306    309.47646    14894 
379000000   -3249.7203    6798.2117    12749.093    1714.6023    8333.3297    305.52586    14929 
380000000   -3265.6932    6626.5116     12841.81    1594.1229    8298.0819    307.74778    14933 
381000000   -3183.0267    6849.9403    12862.299    1743.1095    8289.8575    308.23878    14899 
382000000   -3320.6599    6611.3563    12961.024    1682.4651    8249.5512    310.60468    14927 
383000000   -3222.5379    6883.7054    12876.459    1826.6473     8279.596    308.57813    14925 
384000000   -3121.0047    6789.0626    12997.008     1607.753    8302.3144    311.46703    14915 
385000000   -3272.6007    6619.4056    13055.713     1639.823    8252.1833    312.87386    14959 
386000000   -3292.8588    6627.2172    12956.884    1655.7513    8264.3247    310.50547    14924 
387000000    -3318.227    6628.8081    13006.985    1662.1884    8284.8467    311.70612    14916 
388000000   -3281.2074    6606.2509    12948.229    1591.7859    8295.6724    310.29807    14936 
389000000   -3118.8463    6921.1962    12679.834    1799.9444    8240.0981    303.86609    14907 
390000000   -3249.1954    6769.9017    12923.603    1784.5464    8234.5507     309.7079    14906 
391000000   -3277.7008    6717.6917    12895.532    1757.1801    8238.2124    309.03521    14925 
392000000   -3336.5536    6740.6033    12981.123    1779.7035    8297.4534    311.08635    14934 
393000000   -3108.6124     6796.303    13094.642    1719.4419    8185.4735    313.80678    14901 
394000000   -3125.9174    7126.9281    12874.799    1843.0553    8409.7902    308.53834    14876 
395000000   -3295.1576    6796.2887    13006.439    1795.8949    8295.5514    311.69304    14895 
396000000    -3206.773    6758.1421    12874.222    1702.6389    8262.2762    308.52452    14921 
397000000   -3246.2474    6698.5751    12869.656    1717.7333    8227.0892     308.4151    14935 
398000000   -3185.1211    6876.3012    12870.385    1620.8269    8440.5954    308.43257    14917 
399000000   -3227.1869    6719.2606    12884.314    1695.0998    8251.3477    308.76637    14916 
400000000    -3118.188     6954.384    13123.068    1763.3807    8309.1913    314.48799    14905 
401000000    -3134.532    6924.5944    12765.882    1736.4806    8322.6457     305.9282    14893 
402000000   -3252.5733    6582.9372    12990.836    1646.7252    8188.7853    311.31912    14924 
403000000   -3249.0426    6824.7265    13005.081    1737.2262    8336.5429     311.6605    14926 
404000000   -3170.3557    6587.7551    12793.554    1549.4518     8208.659    306.59135    14948 
405000000   -3184.4682    6863.0571    12979.437    1801.8837    8245.6416    311.04593    14925 
406000000   -3175.7423     6813.403     12897.84    1726.7415    8262.4038    309.09052    14900 
407000000   -3204.7265    6720.9725    12930.645    1628.4807    8297.2183    309.87668    14931 
408000000   -3174.0368    6837.0671    12865.897    1723.8128    8287.2911    308.32502    14921 
409000000    -3278.718    6796.3758     13044.05    1763.3104    8311.7834    312.59437    14912 
410000000   -3331.8438    6684.6254     12822.32    1658.7991    8357.6701    307.28072    14937 
411000000   -3215.7851    6866.7714    12911.996     1774.766    8307.7905    309.42975    14906 
412000000   -3240.1598    6915.7078    13001.421    1787.6277      8368.24    311.57278    14878 
413000000   -3250.1838    6697.2363    12862.419    1677.5462    8269.8739    308.24166    14917 
414000000    -3319.745    6744.2955    13011.245    1692.0889    8371.9516    311.80821    14911 
415000000   -3313.0302    6660.3558     12981.86    1749.4445    8223.9416      311.104    14924 
416000000   -3299.6153    6781.5734    12754.251    1748.9924    8332.1963    305.64947    14909 
417000000   -3327.4317    6564.4711    12913.977    1683.3376    8208.5652    309.47722    14910 
418000000   -3265.1744    6607.5976    12925.028    1663.1498    8209.6222    309.74205    14942 
419000000   -3246.4239    6691.5738    12800.316    1674.4533    8263.5443     306.7534    14932 
420000000   -3228.9912    6828.3621    12965.604     1709.239    8348.1143    310.71443    14919 
421000000   -3289.5769    6706.3885    13047.976    1655.0307    8340.9347    312.68843    14920 
422000000   -3175.3219    6794.6613    12891.581    1761.6626    8208.3206    308.94051    14898 
423000000   -3287.5077    6832.6117    12926.485    1723.5361    8396.5833    309.77697    14925 
424000000   -3273.0563    6608.1547    12820.966    1624.4962    8256.7149    307.24825    14926 
425000000   -3172.0909    6722.9528    12952.439    1688.1002    8206.9435    310.39894    14951 
426000000   -3341.2258    6532.5627    12833.991     1706.744    8167.0445     307.5604    14959 
427000000   -3277.9325    6816.9704    12906.449    1675.9607    8418.9422    309.29682    14932 
428000000   -3395.6661    6451.6346    12916.434    1527.8983    8319.4024    309.53611    14971 
429000000   -3395.0496    6452.5909    13011.593    1626.8214    8220.8191    311.81655    14952 
430000000   -3217.3287    6593.9584    12981.908    1653.3649    8157.9222    311.10516    14921 
431000000   -3296.1084    6596.0952    12935.174    1666.1747    8226.0289     309.9852    14956 
432000000   -3285.1078    6765.1383    12945.224    1721.3142     8328.932    310.22604    14929 
433000000   -3320.1193    6772.5456    12865.849    1738.4273    8354.2377    308.32387    14910 
434000000   -3188.9378    6852.7572    13034.461    1771.2087    8270.4862    312.36455    14895 
435000000   -3316.3821    6617.7001    12876.379    1671.4779    8262.6043     308.5762    14955 
436000000    -3215.478    6596.4759     12799.35    1689.4362    8122.5177    306.73024    14907 
437000000   -3242.0527    6704.2738    12862.654    1612.8159    8333.5106     308.2473    14953 
438000000   -3317.3841    6655.6606     12870.76    1635.0767     8337.968    308.44154    14934 
439000000   -3330.6757    6585.1629    12960.518    1660.2678    8255.5707    310.59256    14928 
440000000   -3324.1772    6632.8615    12968.198    1755.5245    8201.5142     310.7766    14911 
441000000   -3256.4864    6825.1434    12903.207    1680.3568     8401.273    309.21914    14952 
442000000   -3299.9959     6573.723    12735.033    1616.0651    8257.6538    305.18891    14958 
443000000   -3148.3752    6859.8064    13019.957    1773.8694    8234.3123    312.01697    14879 
444000000   -3203.5105    6868.5139    12863.467    1713.3405    8358.6839    308.26677    14917 
445000000   -3276.2806    6537.7549    12920.344    1625.7288    8188.3068     309.6298    14947 
446000000   -3387.1933    6602.1202     12773.27     1699.811    8289.5026    306.10525    14929 
447000000   -3289.3715    6630.6493    12890.614    1625.6832    8294.3376    308.91734    14937 
448000000   -3376.4309    6555.4272    12874.335    1661.1971    8270.6611    308.52722    14946 
449000000   -3474.4272     6486.042    12899.697    1604.3894    8356.0798    309.13501    14964 
450000000   -3290.6566    6727.2841    12909.853     1757.182    8260.7587    309.37839    14929 
451000000   -3320.5862    6613.5986     12896.72    1607.7963    8326.3886    309.06368    14967 
452000000   -3194.8691    6867.1072    12876.596     1686.755    8375.2213     308.5814    14915 
453000000   -3146.1948    6817.3213    12857.627    1732.3318    8231.1842    308.12682    14939 
454000000    -3197.963    6708.1136    12989.028    1690.1667    8215.9098     311.2758    14913 
455000000   -3337.1643    6741.0443    12847.937    1730.7389    8347.4697    307.89462    14933 
456000000   -3413.5617    6493.2513    12918.066    1657.6468    8249.1661    309.57521    14937 
457000000   -3429.9131    6304.8819    12911.423    1557.8085    8176.9866    309.41603    14941 
458000000   -3406.3316    6502.0509    12940.516    1652.8132    8255.5693    310.11321    14958 
459000000    -3314.579    6471.6655    12879.661    1615.4918    8170.7528    308.65486    14957 
460000000   -3364.7582    6628.6918    12922.382    1659.6634    8333.7866    309.67864    14958 
461000000   -3258.3822    6667.9753    12984.871    1659.6318    8266.7257    311.17616    14932 
462000000   -3340.5093    6628.7145    12882.338    1609.2908     8359.933    308.71902    14952 
463000000   -3169.4034    6970.6884    13020.803    1800.8937    8339.1981    312.03725    14904 
464000000    -3215.879    6745.5057    12861.346    1732.8419    8228.5429    308.21595    14929 
465000000   -3307.8839    6607.0227    12929.993    1617.9053    8297.0012    309.86104    14946 
466000000   -3169.9033    6790.9069    12932.128    1805.0397    8155.7705     309.9122    14895 
467000000   -3235.8933    6871.9587    13014.428    1733.7467    8374.1053    311.88449    14909 
468000000   -3293.4991    6770.3233    12922.627    1668.2909    8395.5315    309.68452    14918 
469000000   -3258.3293    6675.4515    12977.805    1730.2948    8203.4859    311.00682    14919 
470000000   -3269.2969    6798.5771    12996.545     1767.514      8300.36    311.45593    14898 
471000000    -3236.024    6728.4053    13082.257    1739.8203    8224.6091    313.50998    14909 
472000000   -3184.6894    6831.0147    12786.645    1697.6615    8318.0426    306.42577    14926 
473000000   -3170.6683    6829.0368    12999.618    1711.0778    8288.6273    311.52956    14895 
474000000     -3278.01     6762.582    12916.965    1744.0104    8296.5817    309.54884    14920 
475000000   -3206.3523    6691.3301    13011.775    1632.1507    8265.5317     311.8209    14941 
476000000    -3290.587    6597.7636    12790.217    1706.1901    8182.1605    306.51137    14920 
477000000   -3325.7531    6687.2683    12908.475     1619.106    8393.9155    309.34536    14944 
478000000    -3204.366    6795.6791    13025.555    1735.4541     8264.591    312.15115    14933 
479000000   -3291.4693    6590.5678    12838.214    1664.0586    8217.9785    307.66161    14953 
480000000   -3222.8434    6648.1025     12874.53    1687.1773    8183.7686     308.5319    14865 
481000000    -3190.493    6868.2691     12916.01    1728.3231     8330.439    309.52594    14885 
482000000   -3297.3753    6629.3403    12890.046    1515.8512    8410.8645    308.90372    14946 
483000000   -3301.5138    6650.5033     12920.96    1626.6345    8325.3825    309.64456    14928 
484000000    -3330.799    6781.7719    12953.598    1740.4458    8372.1251    310.42672    14942 
485000000   -3331.3059    6652.6446    12750.207    1593.0641    8390.8864    305.55255    14949 
486000000   -3319.2337    6671.5671    12950.842     1708.638    8282.1628    310.36067    14929 
487000000   -3361.8921    6605.2368    12837.215    1666.1786    8300.9503    307.63767    14954 
488000000   -3280.4787    6667.8873    12751.369    1687.0829    8261.2832     305.5804    14957 
489000000   -3264.8853    6649.2132    12866.509    1672.9181    8241.1804    308.33967    14930 
490000000   -3326.1178    6630.4921    12995.573    1610.6788    8345.9311    311.43263    14958 
491000000   -3360.2691     6671.324    13007.394    1638.5464    8393.0467    311.71592    14931 
492000000   -3278.3935    6593.6394    12886.934    1695.0058     8177.027    308.82916    14923 
493000000   -3340.2236    6743.6615    12965.161    1722.2899    8361.5952    310.70384    14937 
494000000    -3243.219    6924.2635    12918.357    1903.3952    8264.0873     309.5822    14903 
495000000   -3222.9561    6975.1759    12945.821    1808.3367    8389.7953    310.24036    14930 
496000000   -3317.4519    6702.9177    13087.395    1767.0124    8253.3573     313.6331    14903 
497000000   -3346.2225    6617.3863    12864.425    1696.9037     8266.705    308.28973    14922 
498000000   -3326.3529    6515.4697    12961.363    1549.7474    8292.0752    310.61281    14969 
499000000   -3289.4049    6668.9126    12958.703    1728.9366    8229.3809    310.54906    14906 
500000000   -3382.6936    6461.7598     13076.06    1608.7462    8235.7072    313.36147    14955 
Loop time of 194972 on 28 procs for 500000000 steps with 14000 atoms

Performance: 5539.247 ns/day, 0.004 hours/ns, 2564.466 timesteps/s
99.5% CPU use with 28 MPI tasks x no OpenMP threads

MPI task timing breakdown:
Section |  min time  |  avg time  |  max time  |%varavg| %total
---------------------------------------------------------------
Pair    | 20490      | 24157      | 29239      |1401.3 | 12.39
Bond    | 6062.6     | 6434       | 12083      |1420.1 |  3.30
Neigh   | 60595      | 61618      | 62463      | 217.3 | 31.60
Comm    | 41639      | 56084      | 63128      |1923.5 | 28.76
Output  | 0.7314     | 0.78189    | 0.78593    |   1.1 |  0.00
Modify  | 28713      | 29037      | 29463      |  93.6 | 14.89
Other   |            | 1.764e+04  |            |       |  9.05

Nlocal:    500 ave 530 max 454 min
Histogram: 1 1 0 4 3 4 4 4 4 3
Nghost:    765.107 ave 1025 max 515 min
Histogram: 3 4 1 5 4 1 2 0 2 6
Neighs:    6338.21 ave 7746 max 4959 min
Histogram: 1 1 6 5 2 3 3 2 2 3

Total # of neighbors = 177470
Ave neighs/atom = 12.6764
Ave special neighs/atom = 7.95729
Neighbor list builds = 100017289
Dangerous builds = 0
System init for write_restart ...
Total wall time: 54:09:38
