LAMMPS (5 Jun 2019)
Reading data file ...
  orthogonal box = (-420 -420 -420) to (420 420 420)
  2 by 2 by 7 MPI processor grid
  reading atoms ...
  14000 atoms
  scanning bonds ...
  51 = max bonds/atom
  scanning angles ...
  1 = max angles/atom
  reading bonds ...
  13800 bonds
  reading angles ...
  13600 angles
Finding 1-2 1-3 1-4 neighbors ...
  special bond factors lj:   0          0          0         
  special bond factors coul: 0          0          0         
  2 = max # of 1-2 neighbors
  2 = max # of 1-3 neighbors
  4 = max # of 1-4 neighbors
  56 = max # of special neighbors
  special bonds CPU = 0.00260129 secs
  read_data CPU = 0.0636682 secs
Finding 1-2 1-3 1-4 neighbors ...
  special bond factors lj:   1          1          1         
  special bond factors coul: 0          0          0         
  2 = max # of 1-2 neighbors
  2 = max # of 1-3 neighbors
  4 = max # of 1-4 neighbors
  56 = max # of special neighbors
  special bonds CPU = 0.00072834 secs
WARNING: Using 'neigh_modify every 1 delay 0 check yes' setting during minimization (../min.cpp:168)
Neighbor list info ...
  update every 1 steps, delay 0 steps, check yes
  max neighbors/atom: 2000, page size: 100000
  master list distance cutoff = 26.9
  ghost atom cutoff = 26.9
  binsize = 13.45, bins = 63 63 63
  1 neighbor lists, perpetual/occasional/extra = 1 0 0
  (1) pair lj/cut, perpetual
      attributes: half, newton on
      pair build: half/bin/newton
      stencil: half/bin/3d/newton
      bin: standard
Setting up cg style minimization ...
  Unit style    : real
  Current step  : 0
Per MPI rank memory allocation (min/avg/max) = 1.164 | 13.81 | 17.68 Mbytes
Step Temp E_pair E_mol TotEng Press 
       0            0 2.4262116e+12      2649600 2.4262142e+12 1.1227655e+09 
    7035            0   -6144.0854    5742.4468   -401.63854  -0.02117856 
Loop time of 2.15858 on 28 procs for 7035 steps with 14000 atoms

99.4% CPU use with 28 MPI tasks x no OpenMP threads

Minimization stats:
  Stopping criterion = energy tolerance
  Energy initial, next-to-last, final = 
     2.42621421633e+12     -401.614938723     -401.638544729
  Force two-norm initial, final = 2.10957e+10 0.584999
  Force max component initial, final = 1.04817e+09 0.0848794
  Final line search alpha, max atom move = 0.948135 0.0804771
  Iterations, force evaluations = 7035 9919

MPI task timing breakdown:
Section |  min time  |  avg time  |  max time  |%varavg| %total
---------------------------------------------------------------
Pair    | 0.17336    | 0.54173    | 1.0201     |  33.7 | 25.10
Bond    | 0.049722   | 0.13386    | 0.21596    |  12.6 |  6.20
Neigh   | 0.27934    | 0.28383    | 0.28878    |   0.4 | 13.15
Comm    | 0.28544    | 0.7653     | 1.1882     |  30.0 | 35.45
Output  | 0          | 0          | 0          |   0.0 |  0.00
Modify  | 0          | 0          | 0          |   0.0 |  0.00
Other   |            | 0.4339     |            |       | 20.10

Nlocal:    500 ave 824 max 176 min
Histogram: 2 2 4 3 3 2 5 4 0 3
Nghost:    338.464 ave 536 max 168 min
Histogram: 3 4 2 2 3 6 2 2 2 2
Neighs:    5465.89 ave 9884 max 1749 min
Histogram: 2 7 2 3 1 3 2 3 3 2

Total # of neighbors = 153045
Ave neighs/atom = 10.9318
Ave special neighs/atom = 5.82857
Neighbor list builds = 571
Dangerous builds = 0
Setting up Verlet run ...
  Unit style    : real
  Current step  : 7035
  Time step     : 0.1
Per MPI rank memory allocation (min/avg/max) = 1.128 | 14 | 16.55 Mbytes
Step Temp E_pair E_mol TotEng Press 
    7035            0   -6144.0854    5742.4468   -401.63854  -0.02117856 
   17035    214.04128   -4866.1878    9424.0177    13489.421    -1.065227 
Loop time of 1.68299 on 28 procs for 10000 steps with 14000 atoms

Performance: 51.337 ns/day, 0.467 hours/ns, 5941.819 timesteps/s
99.5% CPU use with 28 MPI tasks x no OpenMP threads

MPI task timing breakdown:
Section |  min time  |  avg time  |  max time  |%varavg| %total
---------------------------------------------------------------
Pair    | 0.0991     | 0.34418    | 0.72082    |  31.5 | 20.45
Bond    | 0.042749   | 0.11711    | 0.19115    |  12.1 |  6.96
Neigh   | 0.0023555  | 0.0024551  | 0.0026131  |   0.2 |  0.15
Comm    | 0.27124    | 0.63483    | 0.95017    |  24.7 | 37.72
Output  | 4.9572e-05 | 7.856e-05  | 0.00010882 |   0.0 |  0.00
Modify  | 0.10271    | 0.27311    | 0.4416     |  18.1 | 16.23
Other   |            | 0.3112     |            |       | 18.49

Nlocal:    500 ave 824 max 178 min
Histogram: 2 2 4 3 3 2 5 4 0 3
Nghost:    338.429 ave 532 max 168 min
Histogram: 3 4 2 1 4 6 2 2 2 2
Neighs:    5459.14 ave 9870 max 1769 min
Histogram: 2 7 2 3 1 4 1 3 3 2

Total # of neighbors = 152856
Ave neighs/atom = 10.9183
Ave special neighs/atom = 5.82857
Neighbor list builds = 4
Dangerous builds = 0
4000 atoms in group rxnSites
Neighbor list info ...
  update every 1 steps, delay 1 steps, check yes
  max neighbors/atom: 2000, page size: 100000
  master list distance cutoff = 26.9
  ghost atom cutoff = 26.9
  binsize = 13.45, bins = 63 63 63
  2 neighbor lists, perpetual/occasional/extra = 1 1 0
  (1) pair lj/cut, perpetual
      attributes: half, newton on
      pair build: half/bin/newton
      stencil: half/bin/3d/newton
      bin: standard
  (2) fix bond/create/random, occasional, copy from (1)
      attributes: half, newton on
      pair build: copy
      stencil: none
      bin: none
Setting up Verlet run ...
  Unit style    : real
  Current step  : 0
  Time step     : 25
Per MPI rank memory allocation (min/avg/max) = 17.88 | 18.29 | 18.78 Mbytes
Step E_pair PotEng KinEng E_bond E_angle Temp Bonds 
       0   -4866.1878    4557.8299    8931.5915    3084.1498    6339.8679    214.04128    13800 
 1000000   -1408.2235    10051.275    12957.608    2989.7055    8469.7928    310.52282    14369 
 2000000   -1639.1611    9620.5507    12988.623    2682.3862    8577.3256    311.26609    14473 
 3000000   -1705.8605     9571.132    12959.682    2703.8408    8573.1517    310.57252    14494 
 4000000   -1786.9109    9158.1775    12865.391    2591.8627    8353.2257    308.31288    14527 
 5000000   -1847.3921    9265.6545    12872.731    2592.3542    8520.6923    308.48879    14523 
 6000000   -1910.7837     8938.271    12949.632      2414.51    8434.5447    310.33168    14578 
 7000000   -2003.4837    8947.5899    12979.365    2473.0573    8478.0163    311.04422    14592 
 8000000   -2164.4418    8711.1108    12920.771    2334.0099    8541.5426    309.64003    14638 
 9000000   -2250.7829    8533.4642    12901.704    2300.2183    8484.0288    309.18311    14657 
10000000   -2324.1943    8458.7503     13089.61    2287.5456     8495.399    313.68617    14678 
11000000    -2377.441    8107.9228     12785.21    2142.9475    8342.4162    306.39139    14726 
12000000   -2325.5632    8223.4182    13008.575    2186.3073    8362.6741    311.74423    14701 
13000000   -2352.7017       8237.9    12912.307     2169.939    8420.6628     309.4372    14710 
14000000   -2381.5309    8186.8374    12892.536    2124.2872    8444.0811     308.9634    14716 
15000000   -2520.1082    8111.9403    12999.524    2115.5925     8516.456    311.52732    14730 
16000000   -2485.4592    7983.5356    12898.512     2108.785    8360.2098     309.1066    14724 
17000000   -2593.2218    7702.8218    12918.284    1939.4521    8356.5915    309.58044    14778 
18000000   -2564.3011    7986.4485     12942.61    2084.2744    8466.4753     310.1634    14752 
19000000   -2626.5903    7868.6741    12960.542    2010.0798    8485.1846    310.59313    14772 
20000000   -2655.3382    7803.8819    12909.817    2072.7509    8386.4692    309.37754    14747 
21000000   -2697.2556    7655.6739    12925.216    1990.1132    8362.8163    309.74656    14772 
22000000    -2676.114    7625.1402    12849.233     2003.167    8298.0872    307.92566    14777 
23000000   -2729.3322    7678.9531    12982.172    2010.4561    8397.8292    311.11148    14773 
24000000   -2606.6054    7846.1905    12968.898    2109.8478     8342.948    310.79338    14765 
25000000   -2556.1231    7847.9683    12989.854    2021.2414      8382.85    311.29559    14776 
26000000   -2584.8994    7843.0524    12851.379    2006.8146    8421.1372     307.9771    14790 
27000000    -2570.484    7853.6581    12988.532    2005.8576    8418.2845    311.26391    14765 
28000000   -2643.2696    7700.9126    12934.002    1975.3506    8368.8316    309.95712    14771 
29000000   -2690.2666    7790.7787    12840.419    2005.5227    8475.5226    307.71444    14789 
30000000   -2705.1434    7482.0596    13058.542    1876.3963    8310.8068    312.94166    14808 
31000000   -2675.4447    7594.1235    12823.416    1928.5222     8341.046    307.30698    14807 
32000000   -2740.5014    7702.7206    12958.537    2000.7116    8442.5103    310.54508    14775 
33000000   -2773.6484    7572.1009    12802.878    1958.0247    8387.7246    306.81478    14798 
34000000    -2717.195    7612.6928    12941.165    2006.0875    8323.8003    310.12876    14802 
35000000   -2828.9266    7375.3219    13027.663    1856.1414    8348.1071    312.20166    14825 
36000000   -2816.5682    7447.7944    12949.222    1909.5837    8354.7788    310.32184    14814 
37000000   -2853.9492     7292.702    12824.324    1793.9546    8352.6966    307.32873    14831 
38000000   -2769.9163    7339.0934    12831.392     1783.695    8325.3147    307.49811    14837 
39000000   -2869.0915    7166.6988    12849.302    1809.7059    8226.0845    307.92731    14845 
40000000   -2835.3696    7403.2993    13032.665    1952.9143    8285.7546    312.32152    14822 
41000000    -2930.537    7291.6902    13127.303    1893.3019    8328.9253    314.58948    14860 
42000000   -2981.9412     7271.009    12942.166    1913.9661    8338.9842    310.15277    14854 
43000000   -3057.5896    7366.3946    13019.381     2013.422    8410.5621    312.00319    14829 
44000000    -3070.014     7053.361     12939.41    1813.6507    8309.7243    310.08671    14879 
45000000   -2990.4259    7323.3236    12846.325    1883.2215     8430.528    307.85598    14844 
46000000   -2932.4487    7290.3886    12936.355    1820.0431    8402.7942    310.01351    14861 
47000000   -2956.2144    7296.0931    13029.828     1827.562    8424.7455    312.25354    14860 
48000000   -3001.8268    7192.7871    12894.639     1870.966    8323.6479     309.0138    14853 
49000000   -2962.1998    7109.0669    12993.333    1671.9316     8399.335    311.37896    14881 
50000000   -2953.3717    7333.5105    12960.505    1964.3356    8322.5466    310.59225    14829 
51000000   -2958.4549    7141.7569    12873.069    1845.2577    8254.9541    308.49688    14869 
52000000   -2879.4756    7257.3737    12887.667    1772.5869    8364.2624    308.84671    14839 
53000000   -2868.1765    7255.1419    12782.044    1782.3811    8340.9372    306.31552    14875 
54000000   -2834.2222    7420.8572    12870.865    1923.4551    8331.6242    308.44406    14832 
55000000   -2908.9309    7380.8396    12978.731    1956.3611    8333.4094    311.02903    14815 
56000000   -2899.7591    7178.1531    12981.668    1840.6514    8237.2607    311.09942    14855 
57000000   -2939.2564    7261.0879    12900.722    1904.4787    8295.8655    309.15959    14854 
58000000   -3042.5469    7159.3642    13070.103    1864.1053    8337.8058    313.21871    14855 
59000000   -2877.0722    7141.6985    12888.712    1727.0251    8291.7456    308.87177    14874 
60000000   -2956.1634     7269.046    12950.243    1869.4779    8355.7315    310.34633    14843 
61000000   -2957.9571    7267.5582    12971.032    1835.8113     8389.704    310.84451    14883 
62000000   -2912.4492    7462.5539    13122.985    1972.5076    8402.4954    314.48601    14822 
63000000   -2941.8946    7242.5095    12894.575    1873.2324    8311.1716    309.01226    14866 
64000000   -2946.5326    7273.5142    12843.783    1920.8816    8299.1652    307.79506    14854 
65000000   -3051.1748    7208.6749    12969.556    1885.1471    8374.7026    310.80915    14864 
66000000   -2888.9616    7279.0359    13031.919     1796.594    8371.4034    312.30365    14864 
67000000   -2906.2634    7310.8201    13127.702    1928.8623    8288.2212    314.59904    14837 
68000000    -2932.357    7290.9803    13019.944    1826.4003     8396.937    312.01667    14851 
69000000   -2959.6821    7325.6046    12964.682    1823.5655    8461.7212    310.69234    14848 
70000000   -2979.9185    7284.3507    12957.613    1923.8744    8340.3948    310.52295    14835 
71000000   -2893.6556    7366.2466    12897.665    1864.4715    8395.4307    309.08632    14835 
72000000   -2927.0428    7305.3252    12872.313    1864.6142    8367.7538    308.47876    14845 
73000000   -2860.7873    7322.6386    12854.382    1871.7774    8311.6485    308.04905    14842 
74000000   -2941.2197    7418.8019    12973.594    1948.0567    8411.9648    310.90593    14847 
75000000   -2920.5238      7133.87    12797.312    1749.8738      8304.52    306.68141    14842 
76000000   -2907.2585    7307.9544    12877.825    1840.7794    8374.4335    308.61085    14838 
77000000   -2983.0577    7261.4168    12833.016    1884.6184    8359.8562    307.53702    14843 
78000000   -2998.8223    7190.8789    12823.572    1851.4444    8338.2568    307.31072    14864 
79000000   -2978.3284    7235.7892    12875.019    1851.7346     8362.383    308.54361    14857 
80000000   -2957.5911    7306.0853    12894.183    1857.3078    8406.3686    309.00286    14858 
81000000   -3040.9586    7033.3604    12944.119    1745.4159    8328.9031    310.19957    14886 
82000000   -2993.1495     7177.016    12921.375    1741.3707    8428.7947    309.65452    14882 
83000000   -3029.4889    7073.9832    12831.811    1782.4121      8321.06    307.50815    14881 
84000000   -3052.4696    7128.4838    12913.811    1807.9054    8373.0479    309.47323    14894 
85000000   -3037.6981    7235.8102    12881.883    1903.9074    8369.6008     308.7081    14843 
86000000   -2857.7505    7235.5288    12954.897    1866.0035    8227.2758    310.45785    14817 
87000000   -3043.7231      7174.33    12885.358     1852.893      8365.16    308.79138    14854 
88000000   -3015.3234    7130.7331    12928.719      1827.61    8318.4465     309.8305    14903 
89000000   -3059.4074    7294.8214    12815.513    1864.2196    8490.0093    307.11759    14867 
90000000   -2863.8845    7286.1031     12826.84     1825.109    8324.8786    307.38903    14874 
91000000   -2958.0251    7246.7876    12920.254    1854.9684    8349.8442    309.62764    14855 
92000000   -3044.8769    7159.7828    12908.259    1926.0021    8278.6576    309.34019    14853 
93000000   -2994.5839     7245.433    12810.219    1898.3749     8341.642    306.99072    14869 
94000000   -3062.3047    6975.9826    12691.041    1731.3725    8306.9148    304.13468    14901 
95000000   -3067.1852    7007.2392    13117.403    1817.8086    8256.6158    314.35222    14916 
96000000   -3089.1048    7016.9148    12912.916    1793.3698    8312.6497    309.45181    14897 
97000000    -3088.478    7020.0848     12901.79    1804.7144    8303.8484    309.18516    14885 
98000000   -3105.4963    6967.3893    12825.237    1801.8963    8270.9893     307.3506    14886 
99000000   -2994.7185    7180.4907    12927.561     1806.976    8368.2331    309.80277    14844 
100000000   -2936.9371    7191.6767      13045.1    1806.1403    8322.4735    312.61952    14861 
101000000   -2949.4582     7386.513    13043.992    1866.4963    8469.4749    312.59297    14857 
102000000   -3054.5036    7129.8939    12931.841    1790.4303    8393.9672    309.90532    14894 
103000000   -2983.5547    7249.6302    12774.408    1853.8191    8379.3658    306.13251    14857 
104000000   -3083.5167    7168.4459     12893.24    1877.4832    8374.4794    308.98028    14880 
105000000   -2983.6417    7185.1004     12956.52    1840.2763    8328.4658    310.49676    14863 
106000000   -3028.6289    7204.2805    13043.916    1899.6476    8333.2619    312.59115    14849 
107000000   -3021.2761    7173.5805    12912.827    1874.2591    8320.5976    309.44967    14860 
108000000   -3116.3772      7152.38    13007.314    1875.9708    8392.7864      311.714    14864 
109000000   -3068.3801    7018.2432    12874.983    1695.5022    8391.1212    308.54276    14878 
110000000   -3080.9051    7178.0198      12882.5    1922.0073    8336.9176     308.7229    14871 
111000000   -3027.0001    7122.4642    12898.947    1784.7138    8364.7505    309.11703    14870 
112000000   -3064.6295    6938.6424     12949.49    1754.4225    8248.8495    310.32828    14884 
113000000   -3090.4501    6870.6973    12847.812     1709.917    8251.2304    307.89161    14915 
114000000   -3012.5712    7161.9776    12871.507    1887.4784    8287.0704    308.45944    14890 
115000000    -3055.037    7159.6184    12922.754    1838.5536    8376.1019    309.68756    14881 
116000000   -3086.2167    7140.2617    12991.794    1897.7545    8328.7238    311.34206    14864 
117000000   -3015.7776    7202.6773    12942.031    1881.3228    8337.1321    310.14954    14847 
118000000   -3058.0355    7106.1598    13062.229    1843.6129    8320.5824    313.03002    14863 
119000000   -3148.8134    6869.2338    12827.837    1733.0035    8285.0436    307.41291    14863 
120000000   -3125.7196    6774.5186    12888.047    1666.8298    8233.4084    308.85583    14919 
121000000   -3061.8734     7044.077     12870.26    1879.8563     8226.094    308.42957    14855 
122000000   -3020.0461    7302.1115    13098.894    1925.8579    8396.2996    313.90868    14851 
123000000   -3005.0038    7014.8026    12956.174    1764.4883    8255.3181    310.48847    14865 
124000000   -3068.9483    7142.2287     12861.81    1858.6463    8352.5307    308.22706    14887 
125000000   -3016.6701    7074.4167    12844.972    1819.1264    8271.9604    307.82355    14872 
126000000   -3013.1526     7098.781    12972.368    1845.4056     8266.528    310.87654    14861 
127000000   -3113.4677    6937.5307    12860.723    1764.4824     8286.516    308.20101    14889 
128000000   -2969.6367    7274.7937    12888.715    1881.4847    8362.9457    308.87182    14879 
129000000   -3046.5459    7089.3673    12910.111    1788.4195    8347.4936    309.38457    14900 
130000000   -2968.8697    7136.7214    13035.395    1772.7806    8332.8104    312.38694    14871 
131000000    -2971.129    7224.7014    12885.863    1822.7161    8373.1143    308.80348    14863 
132000000   -3030.7166    7100.6802    12986.746    1816.0457    8315.3511    311.22111    14870 
133000000   -3068.0564    6967.2352    12802.844    1809.3905    8225.9012    306.81398    14869 
134000000   -2964.9172    7118.8624      12914.2    1842.3075    8241.4721    309.48257    14861 
135000000   -3080.1531    7065.0499     12940.19    1850.4559     8294.747    310.10541    14874 
136000000   -3063.1135    7142.0695    12811.282    1929.6631    8275.5198     307.0162    14860 
137000000   -3059.4679    6942.7857    12942.658    1825.0361    8177.2175    310.16454    14875 
138000000   -3098.4657    7008.9034    12896.976    1728.1551     8379.214    309.06981    14897 
139000000   -3017.5719    7234.3638    12909.569    1930.7822    8321.1534     309.3716    14859 
140000000   -3038.3434    7228.5652     12799.68    1954.2785    8312.6302    306.73815    14846 
141000000   -3084.3731     6963.186    12950.546    1753.7028    8293.8563    310.35358    14881 
142000000   -3056.0508    7186.2078    12921.367    1865.6154    8376.6432    309.65433    14860 
143000000   -3014.7261    7037.7707    12850.224     1728.388    8324.1088    307.94942    14876 
144000000   -3011.0185    7053.8198    12985.753    1778.3819    8286.4564    311.19729    14872 
145000000   -3028.8652    7082.3468    12844.336    1679.9631    8431.2489    307.80831    14884 
146000000   -2993.9744    7246.9373    12782.022     1831.351    8409.5607    306.31498    14879 
147000000   -3074.5284    7035.7707    12993.848    1797.5603    8312.7389    311.39129    14893 
148000000   -3087.5463    6887.5443    12981.021    1674.7853    8300.3053    311.08391    14910 
149000000   -3092.5732    6992.1689    12784.097    1769.0185    8315.7237    306.36472    14889 
150000000   -2995.3145    7163.0902    12881.611    1844.1599    8314.2447    308.70159    14873 
151000000   -3040.3798     7144.982    12914.402    1819.6449    8365.7169    309.48742    14879 
152000000   -3151.8596    6998.8979    12919.389    1739.5945     8411.163    309.60692    14906 
153000000   -2981.8864    7382.9359    13027.242    1883.9996    8480.8227    312.19157    14840 
154000000   -2955.5452    7100.3491    12891.706    1786.3299    8269.5643    308.94352    14896 
155000000   -2986.8851    7060.6534      12952.1    1749.0481    8298.4904    310.39082    14911 
156000000   -3125.1037    6949.1284     12845.75    1772.1051     8302.127    307.84219    14877 
157000000   -3101.1581    7135.8565    12865.964    1786.1449    8450.8696    308.32661    14882 
158000000   -3103.7634    7127.9471    12979.247    1895.6112    8336.0993     311.0414    14873 
159000000   -3064.7886    7105.9757    12842.932    1824.7808    8345.9835    307.77467    14853 
160000000   -2992.3271     7265.747    12975.369    1832.3292    8425.7449    310.94846    14864 
161000000   -3191.6754    6895.5972    12986.576    1696.2472    8391.0255    311.21703    14921 
162000000   -3031.8341    7084.7574    12805.726    1852.9155    8263.6759    306.88304    14882 
163000000   -3053.7167    7076.5073    12897.386    1712.3761    8417.8479    309.07963    14909 
164000000   -3176.4952    6893.7435    12885.037    1703.7168    8366.5219     308.7837    14924 
165000000   -3148.3339    7033.9886    12891.764    1825.8958    8356.4267    308.94491    14868 
166000000   -3088.1558    6743.4745    12975.854    1617.7885    8213.8418    310.96008    14911 
167000000   -3062.6136    7162.3753     12766.26    1903.3401    8321.6487    305.93725    14885 
168000000   -3118.6499    6916.4009    12933.631    1752.0442    8283.0066    309.94822    14888 
169000000   -3144.3085    6966.2004    12967.642    1757.3463    8353.1626    310.76328    14876 
170000000   -2988.7074     7168.041    12935.511     1941.508    8215.2405    309.99327    14850 
171000000   -3047.3735    7107.9556    12970.046     1782.967    8372.3621     310.8209    14882 
172000000   -3071.8305     7125.727     12883.59    1900.0697    8297.4878    308.74901    14869 
173000000   -3178.2213    6979.4501    12971.825    1814.3537    8343.3178    310.86351    14893 
174000000   -3163.0753    6931.4144    12820.994    1747.4246    8347.0651    307.24894    14909 
175000000   -3152.8945    6962.9923    12900.757     1719.833    8396.0538    309.16042    14899 
176000000   -3159.0761    7050.6682    12867.542    1823.6212    8386.1231    308.36443    14862 
177000000   -3139.2753    6988.0353    12916.743    1794.1207    8333.1899    309.54352    14866 
178000000   -3067.2256    6953.1969    12728.208    1720.0036    8300.4189    305.02535    14891 
179000000    -3076.575    6981.3801    12835.145    1707.0957    8350.8594    307.58806    14887 
180000000   -3170.1318    6918.4993    13115.878    1723.0199    8365.6112    314.31569    14903 
181000000   -3067.2769    7038.7012    12966.423    1772.7868    8333.1913    310.73408    14866 
182000000   -3022.5304    7307.7127    12979.145    1820.9914    8509.2517    311.03895    14854 
183000000   -3135.1981    6980.7808    12890.747    1763.5742    8352.4047    308.92053    14887 
184000000   -3072.7074    6943.5158    12779.089     1741.533    8274.6901    306.24471    14904 
185000000   -3064.2728    7231.6026    12928.161    1799.8332    8496.0421    309.81714    14850 
186000000   -3102.9746    6909.9024    12930.867    1750.1781    8262.6989    309.88199    14892 
187000000   -3225.4579    6770.2395    13023.069    1737.9546    8257.7427    312.09155    14897 
188000000   -3084.4672    6851.1353    13007.046    1779.0564     8156.546    311.70758    14883 
189000000   -3260.0137    6646.6178    12835.084    1705.9584    8200.6731    307.58659    14918 
190000000   -3114.1818     6987.981    12812.873    1763.6329    8338.5299    307.05432    14920 
191000000   -3189.1862    6916.8781    12825.642     1667.449    8438.6154    307.36032    14937 
192000000   -3084.1393    7036.5565    12993.052    1764.1433    8356.5525    311.37223    14886 
193000000   -3185.5213    6615.1445    12963.323    1647.3579    8153.3078    310.65977    14915 
194000000    -3133.241     7059.469    13023.222    1795.0289    8397.6811    312.09524    14881 
195000000   -3226.3216    6971.4484    12874.882    1826.8934    8370.8767    308.54032    14902 
196000000   -3207.2011    6780.3351    13024.412    1653.5291    8334.0071    312.12375    14944 
197000000   -3147.0239    6846.3563    12822.243    1787.9917    8205.3885    307.27886    14899 
198000000   -3348.2829    6662.5329    12770.019    1688.4563    8322.3595    306.02734    14912 
199000000   -3106.8723    6907.6562    12829.776    1727.7559    8286.7727    307.45939    14893 
200000000   -3131.3659    6867.6016    12981.001    1721.7435     8277.224    311.08342    14898 
201000000   -3157.4329    6850.0825    12867.592    1728.2158    8279.2996    308.36563    14916 
202000000   -3166.1472     6953.504    12862.069    1750.2323    8369.4189    308.23327    14887 
203000000   -3086.1831    6958.1595    12920.669    1745.2296     8299.113    309.63758    14877 
204000000   -3013.6532    7010.1574    12772.148    1678.1384    8345.6722    306.07837    14897 
205000000   -3125.5232    6876.2395     13070.62    1636.5401    8365.2226     313.2311    14925 
206000000   -3110.0556    7101.6108    12995.059    1855.1869    8356.4796    311.42032    14887 
207000000   -3047.0193    6935.7682    13056.562     1687.822    8294.9655    312.89421    14890 
208000000    -3084.856    7047.7122     12759.79    1794.4958    8338.0724     305.7822    14897 
209000000   -3191.6351    6965.0359    12807.748    1807.3773    8349.2937    306.93149    14891 
210000000   -3118.7477    6988.8284    12966.619    1793.4539    8314.1222    310.73876    14880 
211000000   -3140.2351    6935.5253    12991.874    1700.1057    8375.6548      311.344    14918 
212000000    -3193.426    6858.6269    12920.972    1705.0549     8346.998    309.64485    14917 
213000000   -3178.6339    6782.9799    12862.166    1777.9211    8183.6926     308.2356    14929 
214000000   -3102.6861     6973.739    12838.032    1728.3069    8348.1182    307.65724    14873 
215000000   -3056.8863    7059.2976     12875.52     1793.332     8322.852    308.55561    14869 
216000000   -3140.0814     6849.982    13018.641     1820.187    8169.8764    311.98545    14869 
217000000   -3086.6089    7075.8259     13083.97    1760.5941    8401.8407    313.55102    14903 
218000000   -3085.3482    6964.4799    13058.525    1793.9756    8255.8526    312.94126    14895 
219000000   -3124.1898     6870.801    13067.381    1760.8524    8234.1384    313.15348    14887 
220000000   -3108.5661    7027.3085    12987.606    1790.2831    8345.5915    311.24171    14898 
221000000   -3187.9367    6876.1512    12931.813    1746.9266    8317.1612    309.90466    14899 
222000000   -3225.6515    6823.2271    13007.835    1705.9603    8342.9183     311.7265    14903 
223000000   -3136.5609     6991.779    12909.418    1770.6953    8357.6447    309.36798    14877 
224000000   -3035.5196    7002.8241    12770.554    1800.5784    8237.7653    306.04016    14869 
225000000   -3233.0464    6871.5546    12958.779    1708.4824    8396.1186    310.55087    14917 
226000000   -3072.3446    7034.7566    12873.966    1780.3514    8326.7498    308.51838    14870 
227000000   -3081.6552    6974.2332    13055.134     1707.813    8348.0754    312.85999    14897 
228000000    -3070.433    7244.6943    13021.028     1877.329    8437.7983    312.04265    14879 
229000000   -3107.2771    7079.7769    12992.897    1883.6275    8303.4266     311.3685    14862 
230000000   -3135.8146    7081.2196    12949.591    1920.7356    8296.2987     310.3307    14891 
231000000   -3090.9298     6998.172    12939.048    1779.9377     8309.164    310.07803    14892 
232000000   -3118.1189    6860.4657    13007.293    1656.1517    8322.4329    311.71349    14932 
233000000   -3098.8515     6961.895    13031.921    1750.2751    8310.4713    312.30369    14876 
234000000   -3081.0127    7128.2296    12802.859    1787.8544    8421.3879    306.81435    14884 
235000000   -3183.6745    6766.9985    12770.134    1738.8558    8211.8173    306.03009    14927 
236000000   -3080.0454     7128.065    12908.336    1778.8582    8429.2521    309.34204    14905 
237000000   -3131.5406    6967.0949    13013.143    1771.6438    8326.9917     311.8537    14899 
238000000   -3049.6725    7066.8624    12969.037    1864.7741    8251.7609    310.79672    14876 
239000000   -3131.9028     6939.449    12975.493    1790.5387    8280.8131    310.95142    14858 
240000000   -3096.4923    7003.1847    13012.729    1806.5973    8293.0797    311.84378    14899 
241000000   -3084.2333    7061.3275    12964.778    1786.6553    8358.9055    310.69466    14888 
242000000   -3105.4723     6899.297    12843.964    1681.6823     8323.087    307.79939    14905 
243000000    -2991.251    7132.8007    12987.118    1875.2236    8248.8281    311.23002    14858 
244000000   -3106.0503    6980.1826    12986.331    1775.0974    8311.1355    311.21116    14896 
245000000   -3224.9041    6684.7282    12921.607    1748.3948    8161.2375    309.66007    14926 
246000000   -3232.2806    6661.2709    12927.515    1690.9866    8202.5649    309.80167    14927 
247000000   -3176.4235    6904.7863    13017.775    1718.6472    8362.5626    311.96469    14920 
248000000   -3231.1091    6814.9049    12793.398    1668.1691    8377.8448    306.58761    14915 
249000000   -3120.8501    6861.8005    12858.756    1679.0359    8303.6147    308.15389    14917 
250000000   -3140.9479    7034.5829    13056.198    1847.5549    8327.9759    312.88549    14903 
251000000    -3166.601    6909.7359    12759.258    1738.0613    8338.2756    305.76945    14883 
252000000    -3077.304     6986.482    12822.145    1762.7534    8301.0326    307.27652    14887 
253000000   -3044.0737     7066.108    13035.677    1840.1858    8269.9959    312.39371    14871 
254000000   -3124.6469    6940.4447    12858.177    1790.8882    8274.2034    308.14001    14903 
255000000   -3087.7682     6923.998    12958.436    1774.6761    8237.0901    310.54267    14900 
256000000    -3214.458    6904.4111     12801.63    1615.9593    8502.9098    306.78487    14948 
257000000   -3055.0909    6919.3162    12998.623    1733.4953    8240.9118    311.50572    14884 
258000000    -3105.573    6897.3453    13146.681    1770.6526    8232.2657    315.05387    14915 
259000000   -3197.1013    6761.4328    12965.393    1676.4216    8282.1126    310.70937    14906 
260000000    -3216.714    6826.8886    12923.652    1727.2447    8316.3579    309.70908    14920 
261000000   -3276.5285    6695.4992    12875.009    1663.7814    8308.2463    308.54337    14913 
262000000    -3235.255    6733.3254    12956.892    1785.4506    8183.1298    310.50566    14920 
263000000   -3184.3115    6873.8671    12966.877    1765.5122    8292.6664    310.74494    14906 
264000000   -3300.9543    6699.9648    12965.516    1637.4553    8363.4638    310.71234    14922 
265000000   -3165.3093    7019.5408    13011.186    1765.7764    8419.0736     311.8068    14867 
266000000   -2957.1042    7059.3151    12983.983    1759.8357    8256.5837    311.15487    14877 
267000000   -3115.0331    6861.6439    13021.901    1740.0671    8236.6099    312.06358    14911 
268000000   -3095.2762    7120.8177    12925.313    1842.6964    8373.3975     309.7489    14882 
269000000    -3058.427    7041.3253    13013.381    1854.7499    8245.0025     311.8594    14843 
270000000   -3221.2739    6605.4184    12924.892    1657.7135    8168.9788     309.7388    14897 
271000000   -3039.4436    6971.1229    12989.776    1727.2238    8283.3427    311.29372    14898 
272000000   -3195.2645    6760.9327    12883.989    1697.6497    8258.5475    308.75857    14909 
273000000   -3195.2318    6835.8409    12927.519    1872.7649    8158.3078    309.80175    14906 
274000000   -3150.6151    6642.9535    12784.324    1568.4646     8225.104    306.37014    14913 
275000000   -3229.4906     6592.174    12747.821    1676.5199    8145.1447    305.49538    14897 
276000000   -3197.9788    6771.7684    13046.397    1661.7115    8308.0358    312.65062    14924 
277000000   -3275.9412    6718.8008    12947.756     1734.615     8260.127    310.28673    14906 
278000000   -3249.0263     6853.149    12769.926    1720.6024    8381.5729    306.02512    14916 
279000000   -3230.7453      6947.16    12946.778    1801.8369    8376.0684    310.26329    14868 
280000000   -3137.6463    6956.9907    12930.077    1720.4606    8374.1763    309.86306    14882 
281000000   -3160.4355    7002.2758    12849.389    1772.2734    8390.4379     307.9294    14871 
282000000   -3032.3499    7156.9219    12906.879    1839.3568     8349.915    309.30713    14870 
283000000   -3182.4865    6893.0243    12966.425    1723.5822    8351.9286    310.73411    14889 
284000000   -3096.6906    6776.1932    12966.754     1676.384    8196.4998      310.742    14894 
285000000   -3041.0052    6977.8956    12951.441    1813.8762    8205.0246    310.37502    14892 
286000000   -3130.3099     7028.166    13027.975    1790.4401    8368.0358    312.20914    14872 
287000000   -3096.2377    6906.5529    12807.755    1697.4704    8305.3202    306.93166    14893 
288000000   -3091.3956    6976.3914    12740.807    1736.2294    8331.5576    305.32728    14904 
289000000   -3211.6102    6850.9256    12872.182    1784.3936    8278.1422    308.47563    14883 
290000000   -3066.2818    7118.6565    12812.998    1861.1157    8323.8226    307.05731    14877 
291000000   -3130.6497     6866.073    12863.486    1726.4133    8270.3095    308.26723    14900 
292000000   -3116.7827      6968.32    12832.504     1753.111    8331.9917    307.52476    14900 
293000000   -3190.8007    6849.6999    13024.522    1615.3086     8425.192    312.12638    14924 
294000000   -3064.1899    7116.8879    12852.061    1799.8164    8381.2614    307.99344    14875 
295000000   -3138.5825    7025.0218    12862.819    1777.4288    8386.1755    308.25126    14895 
296000000   -3141.6352    6971.4584    12826.969    1805.2681    8307.8255    307.39211    14897 
297000000   -3307.6066    6925.2795    12886.478    1830.8548    8402.0312    308.81822    14845 
298000000   -3041.4911    7081.1519    12921.187    1824.9422    8297.7008       309.65    14879 
299000000   -3190.0854    6887.7115    12866.354    1733.2521    8344.5449    308.33596    14885 
300000000   -3099.8788    6983.7424    12952.581    1786.7636    8296.8576    310.40234    14867 
301000000    -3137.327    7145.3249    12922.643    1919.5841    8363.0677    309.68491    14879 
302000000   -3111.4131    7016.0729    12812.486    1804.1947    8323.2913    307.04504    14895 
303000000   -3095.1153    6994.8356    12946.847    1824.6275    8265.3234    310.26495    14865 
304000000   -3076.9339    6945.0754    12951.304    1715.2626    8306.7467    310.37174    14881 
305000000   -3150.8646    6976.6029    12968.455    1726.6757    8400.7918    310.78276    14881 
306000000   -3100.5164    7028.0089    12927.491    1829.0563     8299.469    309.80109    14893 
307000000   -3180.5408    6965.3346    12935.787    1782.2926    8363.5828     309.9999    14892 
308000000   -3092.8427    7019.5236    12917.509    1789.9488    8322.4175    309.56188    14884 
309000000   -3119.2948    6938.8523    12897.019    1813.3043    8244.8428    309.07082    14883 
310000000   -3111.2643    7003.4608    12987.212    1744.6503    8370.0748    311.23226    14863 
311000000   -3107.7048     7135.816    12919.749    1978.8715    8264.6493    309.61554    14842 
312000000   -3114.5577    6935.3913    13009.781    1744.7951     8305.154    311.77312    14905 
313000000   -3147.1582    6934.2458    12878.802    1685.6557    8395.7482    308.63427    14928 
314000000   -3087.4497    7026.9731    13077.056    1791.1475    8323.2753    313.38533    14884 
315000000   -3134.6164    6950.5017    12861.077    1832.3365    8252.7816     308.2095    14855 
316000000   -3258.2717    6736.9515    12866.473    1681.6262    8313.5969    308.33882    14917 
317000000   -3069.9059    7087.1914    13056.235    1796.7465    8360.3507    312.88637    14862 
318000000   -3119.2036    6845.1453    13025.813    1686.3851    8277.9637    312.15733    14901 
319000000   -3069.2664    7187.4783    12810.491    1849.3092    8407.4354    306.99722    14861 
320000000   -3175.1951    6918.4287    12958.007     1820.895    8272.7287    310.53238    14895 
321000000   -3181.1122    6915.5517    13068.647    1682.9161    8413.7478    313.18382    14907 
322000000   -3096.2123    6952.9499    12893.171    1727.6061     8321.556    308.97861    14885 
323000000   -3036.9863    7047.5435    12889.081    1844.7061    8239.8237     308.8806    14867 
324000000   -3065.7634    7038.6337    13061.434    1858.9501     8245.447    313.01096    14869 
325000000   -3007.7337    7035.0456    12921.301    1773.6775    8269.1018    309.65275    14886 
326000000   -3174.6919    6939.6722    13113.114    1820.9269    8293.4371    314.24944    14895 
327000000   -3191.7849    7007.1424    12877.395    1772.9979    8425.9294    308.60056    14891 
328000000   -3121.0988    7120.6118    12992.236    1932.5443    8309.1663    311.35266    14890 
329000000   -3180.1325    6949.1451    12959.653    1862.2363    8267.0413    310.57183    14868 
330000000   -3154.3504    6991.5381    12966.101    1756.5237    8389.3648    310.72635    14902 
331000000   -3168.9959    6991.0253    12971.746    1813.9226    8346.0985    310.86164    14893 
332000000    -3074.335    7025.6505    12853.896     1701.607    8398.3785    308.03742    14893 
333000000   -3146.9866    6725.4217    12903.995    1656.3331    8216.0753    309.23801    14900 
334000000   -3089.0763    7009.6852    12978.488    1732.0795     8366.682    311.02321    14907 
335000000   -3273.3212    6847.2777    12945.032    1737.3609     8383.238    310.22144    14916 
336000000   -3131.7819    7006.8251    13105.478    1791.8322    8346.7748    314.06646    14892 
337000000   -3166.7512    6846.9045    13050.965    1649.2488    8364.4068    312.76008    14918 
338000000   -3026.9218     7202.912    13041.102    1926.8055    8303.0282    312.52372    14842 
339000000   -2932.0037    7190.1835    12676.941    1840.0861    8282.1012    303.79678    14846 
340000000   -3081.7417    7032.9909    13009.179    1790.3858    8324.3467    311.75871    14883 
341000000   -3090.5415    6884.8561    12950.722    1682.1666     8293.231     310.3578    14904 
342000000   -3192.5869    6779.6482     12944.65    1741.5275    8230.7076    310.21229    14909 
343000000   -3056.9529    7103.9722    13103.963    1755.0541    8405.8709    314.03015    14910 
344000000   -3068.3072    7130.7572    12811.896    1869.0915     8329.973    307.03091    14893 
345000000    -3141.496    6893.7698    12900.885    1757.0174    8278.2484    309.16348    14919 
346000000   -3161.7385    6680.9706    12912.425    1697.6178    8145.0912    309.44004    14898 
347000000    -3181.411    6871.3719    12822.485    1656.2609     8396.522    307.28466    14924 
348000000   -3102.8896    7007.7432    12936.767     1713.647    8396.9858    310.02337    14889 
349000000   -3137.2548    7147.3289    12979.662    1808.1607     8476.423    311.05134    14904 
350000000   -3024.7731    7187.7988    12864.332    1801.1441    8411.4277    308.28751    14859 
351000000   -3078.6188    6776.4607     12900.78    1761.4656    8093.6138    309.16098    14874 
352000000   -3081.9651    7033.6628    12819.976    1810.9026    8304.7253    307.22453    14869 
353000000   -3062.3699    7076.3704    13013.348    1859.0204    8279.7198    311.85861    14860 
354000000      -3002.2     7130.081    12996.977    1799.0235    8333.2575    311.46628    14857 
355000000   -3095.4292    6922.0609      12693.9    1707.6834    8309.8067    304.20318    14891 
356000000    -3099.298    7070.2395    12899.076    1800.7675      8368.77    309.12012    14884 
357000000   -3181.8714    6976.5317    13028.132    1763.3705    8395.0326    312.21289    14916 
358000000   -3072.3178    7123.7871    12931.432    1842.4731    8353.6318    309.89552    14851 
359000000    -3051.188     7089.917    12774.156    1809.3845    8331.7205    306.12647    14869 
360000000   -3094.2688    7090.7595    12880.376    1775.0559    8409.9723    308.67198    14894 
361000000   -3083.1102    6933.5199      12951.9    1858.3491    8158.2809    310.38602    14887 
362000000   -3171.7282    7052.7742     12826.94    1874.7872    8349.7153    307.39143    14864 
363000000   -3197.6093    6742.7947    12929.158    1639.9761    8300.4279    309.84104    14907 
364000000   -3115.9606    7001.0199    12947.622    1753.9227    8363.0578    310.28351    14876 
365000000   -3061.3674    7007.2379     12868.14    1789.3598    8279.2455    308.37876    14868 
366000000   -3252.0229    6822.7129    12997.591    1755.0369    8319.6989    311.48099    14907 
367000000   -3233.1175    6728.5055    12801.091    1671.9613    8289.6617    306.77196    14918 
368000000   -3146.3361    6905.6207    12942.168    1767.9941    8283.9627     310.1528    14887 
369000000   -3234.7653    6666.0387    12988.349    1737.6697    8163.1342    311.25951    14901 
370000000   -3025.5683    6959.7249    12739.167    1717.4391    8267.8542    305.28798    14899 
371000000   -3111.4364     6921.093    12981.333    1697.5616    8334.9678    311.09138    14900 
372000000   -3228.2762    6670.2967    12969.493    1723.7584    8174.8145    310.80765    14907 
373000000   -3179.8381    6855.6059    12947.083    1747.8788    8287.5651     310.2706    14904 
374000000   -3137.2605    6834.7171    13003.882    1717.3551    8254.6226    311.63174    14906 
375000000   -3183.2316    6910.3276    12935.089    1777.5971    8315.9621    309.98317    14911 
376000000   -3174.8707    6890.0544    12836.711    1753.0847    8311.8405    307.62559    14902 
377000000   -3035.9272    7157.8505    12988.984     1811.959    8381.8187    311.27473    14886 
378000000   -3208.2341    6984.5444    12868.751    1739.4138    8453.3648    308.39341    14895 
379000000   -3134.8508    6934.5532    12962.587    1755.1885    8314.2155    310.64215    14896 
380000000   -3052.3598    6972.9206    12976.921    1787.9608    8237.3196    310.98566    14882 
381000000   -3135.2608    6726.7046    12938.515    1707.8154      8154.15    310.06527    14911 
382000000   -3082.8866    6968.5992    12858.859    1798.8392    8252.6466    308.15634    14859 
383000000    -3042.945    6984.3714    13093.172    1736.8701    8290.4464    313.77155    14903 
384000000   -3101.5215    7005.8868    12963.064    1729.0355    8378.3729    310.65356    14905 
385000000   -3133.4032    7097.7278    12879.016    1843.8963    8387.2346    308.63941    14912 
386000000   -3145.2078    6809.0232    12902.211    1640.2058    8314.0252    309.19526    14930 
387000000   -3083.7057    6899.5255    12842.243    1745.0306    8238.2006    307.75816    14914 
388000000   -3078.0372    7138.4274    12864.134    1839.0204    8377.4442    308.28277    14893 
389000000   -3191.2527    6839.4749    12853.456    1732.5609    8298.1667    308.02687    14890 
390000000   -3164.7128    7028.3436    12979.055    1825.9805    8367.0758    311.03679    14889 
391000000   -3053.6701    7156.2545    12929.462    1816.0322    8393.8925    309.84832    14876 
392000000   -3068.4873    7080.9291     12849.64    1814.3339    8335.0825    307.93541    14878 
393000000   -3179.6395     6813.912    12933.228    1656.8154    8336.7362    309.93856    14886 
394000000   -3109.4887    6829.9845    12926.642    1657.5176    8281.9557    309.78075    14883 
395000000    -3216.923    6940.2612    12929.872    1792.8611    8364.3231    309.85813    14904 
396000000     -3114.02    7052.9153    12870.292    1720.4065    8446.5288    308.43034    14891 
397000000   -3178.4113    7019.5926    13005.846     1820.098    8377.9059    311.67881    14896 
398000000   -3087.2893    6913.7575    13005.576    1693.9894    8307.0574    311.67236    14916 
399000000   -3051.9543    6965.7745    12739.481    1733.1633    8284.5656    305.29551    14876 
400000000   -3125.9073    6958.2454    12881.807    1792.7547     8291.398     308.7063    14883 
401000000   -3146.7888    6729.2469    12910.205    1727.2478    8148.7879    309.38682    14898 
402000000   -3136.5752    6800.0754    12860.396    1701.7917    8234.8589    308.19318    14908 
403000000   -3157.9334    6727.6762     12822.07    1679.5616    8206.0479    307.27472    14899 
404000000   -3138.5227    6800.5332    13010.668     1706.232    8232.8239    311.79439    14917 
405000000   -3202.9062    6885.0127    12891.108      1708.43    8379.4889    308.92919    14929 
406000000   -3267.3863    6758.6093    12934.148    1734.7057      8291.29     309.9606    14926 
407000000   -3033.4189    6968.4895    12983.738    1774.8032    8227.1052    311.14902    14864 
408000000   -3254.4689    6696.2564    12876.779    1697.7573     8252.968    308.58579    14911 
409000000   -3100.4943     6999.459    12751.965    1820.0311    8279.9221     305.5947    14892 
410000000   -3124.0018    7118.9116    12790.558    1820.7607    8422.1527    306.51956    14883 
411000000   -3063.4371    7195.7435    12917.116    1856.5436    8402.6369    309.55244    14883 
412000000     -3150.01    6636.4572    12922.154    1583.3354    8203.1318    309.67318    14896 
413000000   -3152.8859    6983.6728    12920.006    1746.7717     8389.787     309.6217    14893 
414000000   -3105.7396    7040.8969    12927.448    1785.6052    8361.0313    309.80005    14900 
415000000   -3079.0523    6949.8031    12735.766    1838.2134     8190.642    305.20648    14891 
416000000   -3230.1699    6767.0158    12867.002     1831.494    8165.6917    308.35148    14880 
417000000   -3128.8203    6764.9384    12853.812    1689.5618    8204.1969     308.0354    14929 
418000000   -3260.8664    6936.4696    12984.706    1787.1419    8410.1941    311.17222    14916 
419000000   -3085.1686    7094.6074    12827.871    1827.0308    8352.7453    307.41372    14869 
420000000    -3122.804    7038.0905    12755.068    1807.6996    8353.1949    305.66905    14860 
421000000   -3096.1086    6954.4433    12874.042     1742.645    8307.9069    308.52021    14880 
422000000   -3148.4741    6841.2757    12774.386    1719.0296    8270.7202    306.13199    14918 
423000000   -3174.6323     6814.799    12896.418    1690.7309    8298.7004    309.05644    14901 
424000000   -3245.7361    6948.3113    12935.017    1771.5393    8422.5081    309.98144    14899 
425000000    -3029.244    7092.2634    13196.034    1852.3586    8269.1488    316.23659    14850 
426000000   -3070.9836    6986.3401    13071.091     1732.065    8325.2587    313.24238    14892 
427000000   -3099.0339    7037.7317    12982.279    1840.0335    8296.7322    311.11406    14889 
428000000    -3126.823    6832.8564    13022.898     1708.695    8250.9844    312.08747    14925 
429000000   -3108.9477    6992.3406    12947.717    1799.9309    8301.3575     310.2858    14856 
430000000   -3055.3794     7118.537     12984.43      1761.49    8412.4264    311.16559    14905 
431000000   -3033.0033    6876.9568     12820.49     1786.515    8123.4451    307.23686    14868 
432000000   -3178.5806    6835.3093    12955.377    1812.6377    8201.2521    310.46936    14877 
433000000   -3121.6038    6980.5933    12904.474    1762.0938    8340.1032     309.2495    14899 
434000000   -3145.2323     6885.628     12903.53    1743.0269    8287.8335    309.22686    14909 
435000000   -3127.3133    6976.8532    12905.269    1726.9487    8377.2177    309.26854    14896 
436000000   -3083.0866    6938.8428    12921.387    1698.9141    8323.0154     309.6548    14930 
437000000   -3153.7357    6989.7228    12885.027     1792.644    8350.8145    308.78345    14888 
438000000   -3104.5616    6993.2657    13055.489    1801.7016    8296.1257    312.86848    14870 
439000000   -3202.9365    6847.7504    12953.241    1785.2096    8265.4773    310.41817    14933 
440000000   -3159.4696    6861.5377    12834.769    1708.0449    8312.9624    307.57904    14904 
441000000   -3306.7054    6570.2117    12979.435     1682.378     8194.539    311.04589    14927 
442000000   -3201.8674    6882.9398    12810.409    1755.7913    8329.0159    306.99526    14882 
443000000   -3194.7896    6836.3154    13002.469    1716.1832    8314.9218     311.5979    14926 
444000000   -3185.8219    6862.6249    12826.975    1747.9039    8300.5428    307.39227    14914 
445000000   -3208.4967    6845.6386    13034.952    1677.3237    8376.8116    312.37632    14937 
446000000   -3123.2818    6972.1954    13003.215    1786.0221    8309.4552    311.61576    14899 
447000000   -3141.7573    7121.2689    12892.178    1824.6258    8438.4004    308.95482    14904 
448000000   -3110.9547    6974.4037    13016.444    1802.4767    8282.8818    311.93279    14885 
449000000   -3084.3396    6892.0411    12977.486    1764.5418    8211.8389    310.99919    14885 
450000000   -3125.4213    6905.8513    12954.897    1696.6915    8334.5811    310.45786    14897 
451000000    -3198.049    6821.2088    12901.576    1821.9757    8197.2821    309.18005    14894 
452000000   -3124.7825    6955.5146    12877.771    1810.4045    8269.8927    308.60956    14897 
453000000   -3205.6098    6937.5502    12901.806    1828.7554    8314.4045    309.18556    14879 
454000000   -3257.5441    6727.6236    12927.336    1715.1785    8269.9891    309.79737    14910 
455000000   -3285.9626    6738.4301     13012.61    1710.9047    8313.4879    311.84093    14925 
456000000   -3186.9913    6747.8176    12891.093    1714.0793    8220.7296    308.92881    14912 
457000000   -3064.5515    6960.3771    12782.883    1791.8461    8233.0826    306.33563    14857 
458000000   -3153.0975    6766.0157    12946.938    1707.2276    8211.8855    310.26712    14905 
459000000   -3150.1965    6750.4863    12990.318    1615.6511    8285.0316    311.30671    14914 
460000000   -3190.1104    6967.0981     12989.51    1819.1681    8338.0403    311.28733    14881 
461000000   -3157.0169    6935.7083    12952.439    1736.2844    8356.4408    310.39895    14886 
462000000   -3079.1579     6996.858    12915.547    1760.6699     8315.346    309.51485    14896 
463000000   -3089.8008    6981.2269    13048.484    1733.2352    8337.7925    312.70062    14917 
464000000   -3168.8706    6998.4661    13032.963    1806.5301    8360.8066    312.32867    14887 
465000000   -3215.4953    6879.0641     12797.12    1794.8752    8299.6842     306.6768    14899 
466000000   -3303.1619    6799.5408    12887.101    1709.9803    8392.7224    308.83317    14919 
467000000   -3222.0436    6734.6764    12909.435    1697.9711    8258.7489    309.36837    14944 
468000000   -3175.5048    6884.4254    12864.972     1806.524    8253.4061    308.30283    14901 
469000000   -3150.6679    6962.8253    12862.655    1728.2566    8385.2366    308.24731    14904 
470000000   -3088.5339    7081.4369    12873.878     1829.438    8340.5328    308.51627    14876 
471000000    -3082.028    7011.5289    12873.525    1789.1384    8304.4186    308.50781    14899 
472000000   -3124.7118    6844.2283     12988.08     1627.857    8341.0831    311.25306    14902 
473000000   -3218.1023    6796.4706    13056.906    1652.5724    8362.0005    312.90244    14919 
474000000   -3043.6154    7022.8414     12857.61    1876.8452    8189.6116    308.12641    14862 
475000000   -3136.8268    6934.5525    12911.776    1808.1606    8263.2187    309.42448    14886 
476000000   -3026.0503    6992.1241    13054.453    1779.8598    8238.3147    312.84367    14895 
477000000   -3129.6263     6897.904    12969.604    1749.8046    8277.7257    310.81029    14894 
478000000    -3061.125    6992.4128    12884.024    1806.2795    8247.2584    308.75942    14914 
479000000   -3214.1966    6843.9757     13070.05    1760.8175    8297.3547    313.21745    14933 
480000000   -3246.5031    6723.8287    13029.872    1701.5912    8268.7405     312.2546    14917 
481000000     -3178.17    6871.4364    12903.485    1771.0116    8278.5947    309.22579    14900 
482000000   -3192.9307    6773.8384     12819.83     1648.079    8318.6901    307.22104    14918 
483000000   -3157.4518    6876.3951    12921.365    1786.1473    8247.6995    309.65427    14925 
484000000   -3235.6977    6754.6314    12851.878    1666.6483    8323.6808    307.98905    14911 
485000000   -3219.4762    6916.0808    13117.848    1704.7913    8430.7657    314.36289    14938 
486000000   -3114.6526    6983.9843    13014.634    1781.9251    8316.7119    311.88942    14889 
487000000   -3114.6862    6860.3707    13049.972    1702.8223    8272.2346    312.73627    14931 
488000000   -3180.9355    6924.2853    13047.848    1743.7612    8361.4596    312.68538    14918 
489000000   -3147.6406    6887.7438    12852.228    1778.6265     8256.758    307.99745    14914 
490000000   -3121.2179    6898.8641    13054.839    1772.1853    8247.8968    312.85292    14881 
491000000    -3188.886    6900.2962    12874.438    1797.0017    8292.1805    308.52969    14875 
492000000   -3128.7328    7114.8052    12962.724    1883.3986    8360.1394    310.64543    14869 
493000000   -3233.5663    6925.5403    12972.792    1743.4152    8415.6915    310.88669    14941 
494000000   -3229.5402    6885.0516    12929.243     1723.806    8390.7858    309.84307    14935 
495000000   -3219.1581    6813.5684    12895.194    1729.2587    8303.4678    309.02709    14898 
496000000   -3205.4068    6909.6086    12889.456    1691.7627    8423.2527    308.88958    14929 
497000000   -3189.0743    6860.8556    13021.726    1747.8738    8302.0561    312.05937    14881 
498000000   -3113.8787     6998.844    13000.144    1729.4254    8383.2974    311.54217    14936 
499000000   -3157.4402    6899.4358     12850.37    1772.2514    8284.6246    307.95292    14910 
500000000   -3158.8329    6896.3522    13081.755    1748.9591     8306.226    313.49795    14889 
Loop time of 170365 on 28 procs for 500000000 steps with 14000 atoms

Performance: 6339.325 ns/day, 0.004 hours/ns, 2934.873 timesteps/s
99.5% CPU use with 28 MPI tasks x no OpenMP threads

MPI task timing breakdown:
Section |  min time  |  avg time  |  max time  |%varavg| %total
---------------------------------------------------------------
Pair    | 19689      | 23555      | 26473      |1069.2 | 13.83
Bond    | 6005.1     | 6379.5     | 9349.7     |1130.8 |  3.74
Neigh   | 59961      | 60422      | 61092      | 108.3 | 35.47
Comm    | 40392      | 47635      | 52689      |1056.3 | 27.96
Output  | 0.62029    | 0.6764     | 0.67928    |   1.3 |  0.00
Modify  | 24197      | 24342      | 24901      |  95.7 | 14.29
Other   |            | 8031       |            |       |  4.71

Nlocal:    500 ave 523 max 458 min
Histogram: 2 0 1 2 1 2 6 5 5 4
Nghost:    713.357 ave 1195 max 544 min
Histogram: 7 5 5 6 2 2 0 0 0 1
Neighs:    5944.61 ave 7678 max 3657 min
Histogram: 1 1 1 3 5 6 5 2 1 3

Total # of neighbors = 166449
Ave neighs/atom = 11.8892
Ave special neighs/atom = 7.83643
Neighbor list builds = 100017312
Dangerous builds = 0
System init for write_restart ...
Total wall time: 47:19:29
