LAMMPS (5 Jun 2019)
Reading data file ...
  orthogonal box = (-420 -420 -420) to (420 420 420)
  2 by 2 by 7 MPI processor grid
  reading atoms ...
  14000 atoms
  scanning bonds ...
  51 = max bonds/atom
  scanning angles ...
  1 = max angles/atom
  reading bonds ...
  13800 bonds
  reading angles ...
  13600 angles
Finding 1-2 1-3 1-4 neighbors ...
  special bond factors lj:   0          0          0         
  special bond factors coul: 0          0          0         
  2 = max # of 1-2 neighbors
  2 = max # of 1-3 neighbors
  4 = max # of 1-4 neighbors
  56 = max # of special neighbors
  special bonds CPU = 0.00179058 secs
  read_data CPU = 0.0610895 secs
Finding 1-2 1-3 1-4 neighbors ...
  special bond factors lj:   1          1          1         
  special bond factors coul: 0          0          0         
  2 = max # of 1-2 neighbors
  2 = max # of 1-3 neighbors
  4 = max # of 1-4 neighbors
  56 = max # of special neighbors
  special bonds CPU = 0.000667295 secs
WARNING: Using 'neigh_modify every 1 delay 0 check yes' setting during minimization (../min.cpp:168)
Neighbor list info ...
  update every 1 steps, delay 0 steps, check yes
  max neighbors/atom: 2000, page size: 100000
  master list distance cutoff = 26.9
  ghost atom cutoff = 26.9
  binsize = 13.45, bins = 63 63 63
  1 neighbor lists, perpetual/occasional/extra = 1 0 0
  (1) pair lj/cut, perpetual
      attributes: half, newton on
      pair build: half/bin/newton
      stencil: half/bin/3d/newton
      bin: standard
Setting up cg style minimization ...
  Unit style    : real
  Current step  : 0
Per MPI rank memory allocation (min/avg/max) = 1.164 | 13.81 | 17.68 Mbytes
Step Temp E_pair E_mol TotEng Press 
       0            0 2.4262116e+12      2649600 2.4262142e+12 1.1227655e+09 
    7035            0   -6144.0854    5742.4468   -401.63854  -0.02117856 
Loop time of 1.92129 on 28 procs for 7035 steps with 14000 atoms

99.5% CPU use with 28 MPI tasks x no OpenMP threads

Minimization stats:
  Stopping criterion = energy tolerance
  Energy initial, next-to-last, final = 
     2.42621421633e+12     -401.614938723     -401.638544729
  Force two-norm initial, final = 2.10957e+10 0.584999
  Force max component initial, final = 1.04817e+09 0.0848794
  Final line search alpha, max atom move = 0.948135 0.0804771
  Iterations, force evaluations = 7035 9919

MPI task timing breakdown:
Section |  min time  |  avg time  |  max time  |%varavg| %total
---------------------------------------------------------------
Pair    | 0.15388    | 0.50545    | 0.92014    |  32.0 | 26.31
Bond    | 0.044157   | 0.12549    | 0.20815    |  12.2 |  6.53
Neigh   | 0.25337    | 0.2569     | 0.26147    |   0.3 | 13.37
Comm    | 0.22954    | 0.65746    | 1.1193     |  31.3 | 34.22
Output  | 0          | 0          | 0          |   0.0 |  0.00
Modify  | 0          | 0          | 0          |   0.0 |  0.00
Other   |            | 0.376      |            |       | 19.57

Nlocal:    500 ave 824 max 176 min
Histogram: 2 2 4 3 3 2 5 4 0 3
Nghost:    338.464 ave 536 max 168 min
Histogram: 3 4 2 2 3 6 2 2 2 2
Neighs:    5465.89 ave 9884 max 1749 min
Histogram: 2 7 2 3 1 3 2 3 3 2

Total # of neighbors = 153045
Ave neighs/atom = 10.9318
Ave special neighs/atom = 5.82857
Neighbor list builds = 571
Dangerous builds = 0
Setting up Verlet run ...
  Unit style    : real
  Current step  : 7035
  Time step     : 0.1
Per MPI rank memory allocation (min/avg/max) = 1.128 | 14 | 16.55 Mbytes
Step Temp E_pair E_mol TotEng Press 
    7035            0   -6144.0854    5742.4468   -401.63854  -0.02117856 
   17035    214.03493   -4887.0872     9512.489    13556.729   -1.2563882 
Loop time of 1.4556 on 28 procs for 10000 steps with 14000 atoms

Performance: 59.357 ns/day, 0.404 hours/ns, 6870.030 timesteps/s
99.7% CPU use with 28 MPI tasks x no OpenMP threads

MPI task timing breakdown:
Section |  min time  |  avg time  |  max time  |%varavg| %total
---------------------------------------------------------------
Pair    | 0.086481   | 0.31221    | 0.63098    |  29.5 | 21.45
Bond    | 0.037365   | 0.10669    | 0.17496    |  11.5 |  7.33
Neigh   | 0.0020347  | 0.0021065  | 0.0022273  |   0.1 |  0.14
Comm    | 0.20474    | 0.52508    | 0.81659    |  25.6 | 36.07
Output  | 5.4769e-05 | 7.7672e-05 | 0.00010728 |   0.0 |  0.01
Modify  | 0.088397   | 0.24819    | 0.40875    |  17.3 | 17.05
Other   |            | 0.2612     |            |       | 17.95

Nlocal:    500 ave 826 max 176 min
Histogram: 2 2 4 3 3 2 5 4 0 3
Nghost:    339.679 ave 536 max 165 min
Histogram: 3 4 1 2 4 6 2 2 2 2
Neighs:    5456.18 ave 9708 max 1783 min
Histogram: 2 7 2 3 1 3 2 3 1 4

Total # of neighbors = 152773
Ave neighs/atom = 10.9124
Ave special neighs/atom = 5.82857
Neighbor list builds = 4
Dangerous builds = 0
4000 atoms in group rxnSites
Neighbor list info ...
  update every 1 steps, delay 1 steps, check yes
  max neighbors/atom: 2000, page size: 100000
  master list distance cutoff = 26.9
  ghost atom cutoff = 26.9
  binsize = 13.45, bins = 63 63 63
  2 neighbor lists, perpetual/occasional/extra = 1 1 0
  (1) pair lj/cut, perpetual
      attributes: half, newton on
      pair build: half/bin/newton
      stencil: half/bin/3d/newton
      bin: standard
  (2) fix bond/create/random, occasional, copy from (1)
      attributes: half, newton on
      pair build: copy
      stencil: none
      bin: none
Setting up Verlet run ...
  Unit style    : real
  Current step  : 0
  Time step     : 25
Per MPI rank memory allocation (min/avg/max) = 17.88 | 18.29 | 18.88 Mbytes
Step E_pair PotEng KinEng E_bond E_angle Temp Bonds 
       0   -4887.0872    4625.4017    8931.3268    3158.3254    6354.1636    214.03493    13800 
 1000000   -1435.5608      10000.3    12830.975    2866.2481    8569.6125    307.48812    14408 
 2000000   -1587.3589    9649.7737    12936.656    2715.7938    8521.3388    310.02071    14438 
 3000000   -1695.8719    9365.7914    12943.744    2628.2265    8433.4368    310.19057    14491 
 4000000   -1791.5892    9061.0708    12830.169    2505.8195    8346.8404    307.46882    14525 
 5000000   -1823.5436    9235.1835    12933.747    2586.6153    8472.1118    309.95099    14563 
 6000000   -1927.4853    9013.7215    13043.361    2470.1734    8471.0334    312.57785    14556 
 7000000   -1997.3638    8963.6626     12994.71    2428.0361    8532.9903    311.41195    14577 
 8000000   -1968.9322     9008.342    12967.194    2434.0114    8543.2629    310.75255    14594 
 9000000   -2072.1709    8593.1671    12953.984    2216.5698    8448.7682    310.43596    14646 
10000000   -2193.4655     8589.007    12935.076    2301.0137    8481.4588    309.98286    14668 
11000000   -2179.9012     8570.291      13032.1    2341.8213    8408.3709      312.308    14655 
12000000   -2164.0821    8578.0551    12836.637    2267.1095    8475.0277    307.62381    14657 
13000000   -2320.9596    8487.9304    12955.572    2248.8004    8560.0896    310.47402    14691 
14000000   -2293.4202    8392.8007    12999.101    2236.3122    8449.9086    311.51717    14668 
15000000   -2362.3282    8227.8138    13096.837      2229.88     8360.262    313.85936    14675 
16000000   -2453.1613    8048.8058    12854.584    2161.6275    8340.3396    308.05391    14730 
17000000   -2430.3716    8046.1973     12832.58    2053.9648     8422.604    307.52658    14734 
18000000   -2485.9215    8031.4593    12949.326    2033.9321    8483.4487    310.32434    14737 
19000000   -2413.2213    8135.5888    12896.203    2137.1465    8411.6636    309.05129    14724 
20000000   -2542.8769    7850.2465    12930.386     1962.435    8430.6883    309.87047    14757 
21000000    -2621.469    8043.8395    12901.193    2200.3421    8464.9664    309.17087    14759 
22000000   -2630.5095    7827.8232    13024.921     2024.436    8433.8967    312.13593    14751 
23000000   -2690.1104     7930.514    12801.858    2166.5755     8454.049    306.79035    14750 
24000000   -2581.7736    7866.5758     12896.71    2058.7795    8389.5699    309.06342    14762 
25000000   -2580.2594    7904.3991    12943.565    2067.2038    8417.4548    310.18628    14762 
26000000   -2632.8611    7977.6832    12920.313     2162.084    8448.4603    309.62906    14726 
27000000   -2789.8019    7651.9372    12951.244    1898.2884    8543.4507    310.37031    14813 
28000000   -2657.7086    7851.2159    12778.729    2023.3432    8485.5813    306.23607    14762 
29000000    -2710.733    7698.7612     12819.16    1948.5222    8460.9719    307.20498    14776 
30000000   -2646.6003    7788.0405    12893.502    2015.6585    8418.9822    308.98656    14746 
31000000   -2849.4279    7668.1152    12855.699    2099.4308    8418.1122    308.08062    14819 
32000000   -2795.2559    7494.8628    12961.266    1945.5035    8344.6152    310.61049    14816 
33000000   -2690.6403    7720.6769    12926.708    2036.7008    8374.6164    309.78233    14789 
34000000   -2650.0421    7743.7416    12944.086    1916.8351    8476.9485    310.19877    14818 
35000000   -2658.1785    7621.6607    12912.886    1952.8604    8326.9788    309.45108    14768 
36000000   -2747.3418    7457.8784    12882.564    1869.5502      8335.67    308.72442    14821 
37000000   -2801.7389    7584.0499    12920.445    1947.2389      8438.55    309.63222    14808 
38000000   -2781.1321    7534.5578    12963.228    1948.3526    8367.3373     310.6575    14786 
39000000   -2749.2993    7509.7806    12960.087    1978.5628    8280.5171    310.58223    14800 
40000000   -2831.2004    7506.4898    12918.684    1938.5144    8399.1757    309.59004    14797 
41000000   -2830.4606    7452.8113    13011.729     1968.355     8314.917     311.8198    14805 
42000000   -2860.2201    7425.5509    12991.188    1877.5653    8408.2057    311.32755    14808 
43000000   -2838.5448    7397.1519    13027.059    1958.6654    8277.0313    312.18719    14815 
44000000   -2893.7327    7408.4506      12635.7    1952.6738    8349.5095    302.80845    14856 
45000000   -2934.5975    7433.4245    12858.965    1952.0072    8416.0149    308.15889    14818 
46000000   -3008.4047    7244.8043    12874.049    1820.0928    8433.1162    308.52038    14893 
47000000   -2939.1436    7401.9972    13049.944    1906.1197    8435.0212    312.73561    14822 
48000000   -2796.2893    7325.7855    12950.591    1916.9983    8205.0764    310.35466    14793 
49000000   -2800.8871    7461.0896    12992.751    1910.9699    8351.0068    311.36499    14794 
50000000   -2912.1106    7307.7105    12733.689    1824.4594    8395.3617    305.15672    14836 
51000000   -2886.2117    7394.5881    12952.312    1934.7759    8346.0239    310.39591    14817 
52000000   -2844.6363    7203.3121    12670.092    1825.5484       8222.4    303.63265    14831 
53000000   -2797.8037    7451.8472    12919.688    1911.9645    8337.6864    309.61409    14806 
54000000   -2940.7016    7338.8883    12961.542    1878.9451    8400.6447     310.6171    14828 
55000000   -2928.7751    7412.7028    12837.127    1922.8828    8418.5951    307.63555    14842 
56000000    -2903.587    7290.2379    12902.702      1808.87    8384.9549    309.20702    14852 
57000000   -2907.2762    7126.7982     12790.68    1733.3886    8300.6858    306.52248    14853 
58000000    -3018.696    7336.9398    13053.921    1979.3556    8376.2802    312.83092    14830 
59000000   -3044.9991    7137.0223    13041.776    1837.2843    8344.7371    312.53987    14835 
60000000   -2972.2945     7256.273    12994.265    1929.2968    8299.2707     311.4013    14839 
61000000   -2980.6135    7201.2032    12879.752     1879.398    8302.4188    308.65704    14855 
62000000   -2955.8316    7228.0553    12971.803    1877.2229     8306.664      310.863    14838 
63000000   -3035.6617    7152.7017    12952.752    1821.3797    8366.9837    310.40645    14852 
64000000   -2845.6062    7362.8195    12838.255    1876.2378     8332.188    307.66258    14830 
65000000   -3031.5503    7029.2114    12993.664    1740.8181    8319.9436     311.3869    14866 
66000000   -2959.5809     7344.073    12937.381    1933.2064    8370.4475    310.03808    14850 
67000000   -2993.2962     7277.518    12884.694    1837.0055    8433.8087    308.77548    14861 
68000000   -3065.9419    7053.6509      12984.2    1703.6113    8415.9815    311.16008    14900 
69000000   -2885.1475    7178.7691    12859.982    1802.9834    8260.9332    308.18326    14855 
70000000   -3019.7351    7108.3042    12993.233    1747.9734     8380.066    311.37657    14891 
71000000   -2916.8765    7353.7628    12943.134    1928.2925    8342.3468    310.17595    14829 
72000000   -3016.4678    7102.0129    12731.953    1838.6537     8279.827    305.11511    14874 
73000000   -2998.0501    7030.8783     13176.96     1754.911    8274.0173    315.77947    14886 
74000000   -3047.2931    7237.3397    13078.395    1900.2548     8384.378    313.41742    14837 
75000000   -3016.2682    7229.6956    12687.314    1796.7326    8449.2312    304.04535    14893 
76000000   -2969.8911    7129.6532    12865.237    1711.9735    8387.5707    308.30919    14860 
77000000   -3059.4611    7138.9053    12886.151    1874.4132    8323.9532    308.81039    14840 
78000000   -2959.1701    7275.7739    12893.196    1863.6648    8371.2792    308.97923    14833 
79000000   -3023.9457    7226.0306    12848.607    1896.3469    8353.6294    307.91067    14854 
80000000   -3023.5847    7282.1757    12803.709    1935.3306    8370.4298     306.8347    14847 
81000000   -2918.6725    7420.2516    12993.593    1928.5324    8410.3917    311.38519    14812 
82000000   -2945.4786     7327.578    12823.354    1892.7265    8380.3302    307.30549    14836 
83000000   -2973.6068     7056.998    12761.193    1733.6818     8296.923    305.81584    14877 
84000000   -2915.5256    7315.9792    13021.416    1846.2832    8385.2215    312.05194    14846 
85000000    -3068.284     7242.129    12939.931    1891.3953    8419.0176     310.0992    14855 
86000000   -3002.0368    7031.4794    12908.527    1685.6462      8347.87    309.34661    14886 
87000000   -2945.2138    7196.8651    13118.387    1846.5622    8295.5167    314.37581    14874 
88000000   -3035.6769    7041.8563    12847.925    1853.9043     8223.629    307.89431    14875 
89000000   -3000.7855    7194.9279     13007.82    1846.2467    8349.4667    311.72612    14868 
90000000   -3018.6129    7140.7486    12876.262    1810.9239    8348.4376    308.57339    14861 
91000000   -3046.7968    7166.6852    12675.678    1793.2202    8420.2618    303.76651    14864 
92000000    -3111.275    7011.2028    12905.583    1870.1878    8252.2899    309.27606    14882 
93000000   -3024.9626    7242.3786    12877.756    1873.7887    8393.5525    308.60921    14851 
94000000   -2949.6777    7169.6014    12972.825    1866.0126    8253.2664     310.8875    14866 
95000000   -2975.7714    7336.0011    12848.068    1967.6613    8344.1112    307.89774    14853 
96000000   -2870.7219    7344.8254    12957.203    1815.6172    8399.9301    310.51312    14839 
97000000   -2835.8596    7508.0474    13062.531    2027.2607    8316.6463    313.03724    14807 
98000000   -2890.1484    7331.3174    12957.931    1784.3124    8437.1534    310.53056    14850 
99000000   -2956.3804    7255.6305    12845.314    1911.5097    8300.5012    307.83174    14852 
100000000   -2952.6974    7433.2902     12988.08    1909.6484    8476.3392    311.25307    14841 
101000000   -2895.0661    7355.2778    12897.709    1896.1254    8354.2185    309.08736    14842 
102000000   -2928.1013    7356.6518    12955.987    1994.5804    8290.1727    310.48397    14815 
103000000   -2974.2069    7169.2852    12852.646    1768.0865    8375.4056    308.00746    14852 
104000000   -2889.2252    7343.1845    12796.564     1859.157    8373.2526    306.66347    14847 
105000000   -2945.1643    7251.2138    12878.878    1857.5322    8338.8459    308.63609    14856 
106000000    -2931.698    7283.7634     12936.14    1882.6908    8332.7706    310.00835    14855 
107000000   -3007.7714    7305.8487      13012.5    1942.0005    8371.6197    311.83829    14832 
108000000   -2971.1287     7192.489    12911.674    1811.2941    8352.3237    309.42205    14825 
109000000   -3021.8821    7102.1318    12893.507    1859.1431    8264.8708    308.98668    14868 
110000000   -3123.5925     7183.549    12968.151    1895.1869    8411.9545    310.77548    14890 
111000000     -2973.67    7124.2957    13067.738     1760.321    8337.6447    313.16202    14871 
112000000   -3040.9107    6998.2786    12934.639    1748.0742    8291.1151    309.97238    14886 
113000000   -3043.4259    7196.1592     12999.37    1878.4898    8361.0952    311.52362    14870 
114000000   -3033.2828    7083.9305    12805.196    1809.2088    8308.0046    306.87035    14866 
115000000   -3084.3389    7008.1929    12981.939    1751.8427    8340.6891     311.1059    14890 
116000000   -3002.8028    7156.3152    12900.402     1871.599     8287.519    309.15191    14836 
117000000    -3118.279    7098.0886     12848.45    1829.4547     8386.913    307.90689    14849 
118000000   -3091.0514    7056.3648     12897.62     1822.849    8324.5672    309.08524    14907 
119000000   -2995.2463    7279.2093    13021.321    1886.5787    8387.8769    312.04968    14820 
120000000   -3063.4468    7076.9029    12914.413     1820.154    8320.1957    309.48767    14869 
121000000   -2991.6166    7243.2448    12991.472    1929.6908    8305.1706    311.33435    14845 
122000000   -2872.8629    7316.1787    12904.239    1910.0765    8278.9652    309.24385    14816 
123000000   -3073.2461    7032.4328    12965.362    1769.1056    8336.5733    310.70865    14873 
124000000    -2961.795    7074.7222    13069.757    1724.6367    8311.8805    313.21041    14891 
125000000   -3035.8276    6898.5721    12825.566    1727.9293    8206.4704     307.3585    14889 
126000000   -3021.5048    7117.8292    13006.212    1816.7882    8322.5458    311.68758    14866 
127000000    -3005.781    7133.9368    12848.665    1758.5557    8381.1621    307.91205    14872 
128000000    -3067.142    7068.6478    12917.103     1852.659    8283.1308    309.55214    14875 
129000000   -3039.4879       7124.9    12912.231     1803.132    8361.2559    309.43539    14868 
130000000   -3100.5091     7047.209    12838.936    1776.9495    8370.7686     307.6789    14886 
131000000   -3044.5185     7142.131     12798.45    1785.0187    8401.6307    306.70869    14847 
132000000   -3043.1578    7068.9007    12928.776    1864.9122    8247.1462    309.83187    14871 
133000000   -2966.2935    7074.6504    12886.349    1809.5055    8231.4383    308.81514    14855 
134000000   -3125.3802    6958.0056    12936.195    1676.7561    8406.6297    310.00967    14876 
135000000   -2933.4428    7409.2421    12956.092    1854.2319     8488.453     310.4865    14854 
136000000   -2959.9177    7338.4338    13059.271     1853.466    8444.8856    312.95913    14850 
137000000   -2980.8606    7137.2868    13082.549    1810.2616    8307.8858    313.51697    14831 
138000000   -3051.0407    7024.4225     13087.71     1737.111    8338.3523    313.64065    14878 
139000000   -3004.1337    7237.2721    12947.843    1881.7844    8359.6214     310.2888    14875 
140000000   -3093.1893    7103.9348    12988.005    1858.9296    8338.1945    311.25126    14840 
141000000   -2978.2041    7151.1913    12978.848    1815.8456    8313.5497    311.03184    14855 
142000000   -2942.0335    7373.5043    12985.025    1941.8203    8373.7176    311.17986    14832 
143000000   -2977.8368    7222.0803    12955.681    1807.3928    8392.5242    310.47663    14856 
144000000   -2986.1392    7166.3683    12960.087    1884.1826    8268.3249    310.58222    14854 
145000000   -3149.2683    6801.0931    12832.553    1713.2818    8237.0796    307.52594    14915 
146000000   -3078.5422    7013.7754    12974.741    1788.4187    8303.8989     310.9334    14863 
147000000   -3053.9188    7080.6087    12713.551    1845.8022    8288.7253    304.67412    14863 
148000000   -3041.4126     6995.494    13005.317    1767.1329    8269.7736    311.66613    14896 
149000000   -2924.9822    7393.4449    12862.612    1935.7532    8382.6739    308.24628    14850 
150000000   -2998.3015    7089.7998     12766.42    1771.6048    8316.4964    305.94108    14877 
151000000   -2950.9763    7288.1625    12911.359    1884.0338     8355.105    309.41448    14850 
152000000   -3061.4977    6943.7447     12929.79     1702.136    8303.1065    309.85617    14882 
153000000   -3004.4906    7119.4154    13143.167     1790.381    8333.5249    314.96966    14875 
154000000   -2995.9181    6928.1565    12830.797    1661.3077    8262.7669    307.48385    14878 
155000000   -3057.0295    7104.3941    12873.081     1839.829    8321.5945    308.49716    14854 
156000000   -2910.6279    7260.2325    12895.319    1791.2685    8379.5919    309.03009    14866 
157000000   -2994.4719    7084.8599    12885.904    1788.5945    8290.7373    308.80447    14901 
158000000   -3066.1054    7029.6241    12964.109    1816.9978    8278.7318    310.67862    14890 
159000000   -3104.4446    7011.3623    12849.617    1877.0398    8238.7671    307.93486    14868 
160000000   -3026.4952    6971.6267    13027.438    1679.5604    8318.5615    312.19626    14907 
161000000   -3063.7269    7147.0905    12985.362    1854.6382    8356.1792    311.18793    14874 
162000000   -2912.6023    7206.1191    13033.489    1777.8739    8340.8476    312.34127    14856 
163000000   -3010.5209    7116.5605    12929.621     1788.777    8338.3044    309.85211    14869 
164000000   -3148.9693    7062.6722    12841.122    1875.3403    8336.3012    307.73129    14865 
165000000   -3054.2109    7176.4571    12931.128    1899.3289    8331.3391    309.88823    14844 
166000000   -3049.5982    7020.5308    12853.083    1765.9555    8304.1735    308.01792    14897 
167000000   -2981.0366    7122.6152    12985.672    1858.4418      8245.21    311.19536    14895 
168000000   -2970.4289    7298.9541    12806.334    1833.8428    8435.5401    306.89761    14847 
169000000    -2969.723    7302.3822    12798.959    1897.6656    8374.4396    306.72086    14841 
170000000   -3094.3818    6911.0461    13006.962    1743.9667    8261.4613    311.70555    14880 
171000000    -3034.427    7304.3505    12889.555    1893.8371    8444.9404    308.89196    14846 
172000000   -3022.4474     7174.951    12821.986    1884.2681    8313.1303     307.2727    14882 
173000000   -3123.9461     7090.289     12898.78    1759.6555    8454.5795    309.11304    14870 
174000000   -3101.9157    6995.2703    12957.528     1767.539    8329.6469     310.5209    14892 
175000000   -3029.3491    7082.6922    12786.048     1853.668    8258.3733    306.41148    14873 
176000000   -3116.5495    6908.1344     12924.79    1719.6597    8305.0242    309.73636    14890 
177000000   -3047.3564    7105.0705    12892.734    1811.3117    8341.1152    308.96814    14900 
178000000   -2982.3605     7389.281    12854.756    1967.3528    8404.2887    308.05802    14861 
179000000   -3000.1054    7104.0235    12908.546    1831.2508    8272.8781    309.34706    14869 
180000000   -3015.4363    7179.1735    12758.596    1798.6913    8395.9185     305.7536    14860 
181000000   -2930.7069    7343.5949    13010.763     1927.901    8346.4008    311.79664    14841 
182000000   -2966.6956    7261.1065    12841.747    1882.6761     8345.126    307.74626    14844 
183000000   -3045.8603    7079.9417    13003.826    1783.4823    8342.3197    311.63042    14839 
184000000   -3016.6251    7254.1961    12890.881     1889.159    8381.6623    308.92374    14859 
185000000   -3096.7913    7052.6393    12999.183    1792.0046     8357.426    311.51914    14879 
186000000    -3049.452    7005.2677    12783.146    1754.2797      8300.44    306.34193    14901 
187000000   -3097.6061    6937.6738    12821.701    1769.1445    8266.1354    307.26588    14853 
188000000   -2953.2257    7171.7171    12931.146    1879.6552    8245.2876    309.88866    14882 
189000000   -3063.7499    7062.7247    12885.226    1786.2075    8340.2671    308.78823    14872 
190000000   -2980.1774    7233.2571    12996.765    1916.8427    8296.5918    311.46121    14836 
191000000   -3021.5135    7129.4621    13001.108    1769.9765     8380.999    311.56527    14865 
192000000   -2999.6774    7174.3938    12891.195    1836.1859    8337.8853    308.93126    14870 
193000000    -3030.348    7007.2042     12750.33    1688.9505    8348.6017    305.55551    14871 
194000000   -3112.5483    7026.9218    13053.817    1760.5282     8378.942    312.82843    14860 
195000000   -3105.5552    7128.0001    12899.315    1860.1432    8373.4121    309.12585    14854 
196000000    -3193.307     6828.669    12946.433    1736.5635    8285.4126    310.25501    14908 
197000000   -3123.7389    7061.3587    13015.685    1825.4968    8359.6008     311.9146    14899 
198000000   -3138.5096    6922.8678     12979.57    1762.8747    8298.5027    311.04912    14918 
199000000   -3079.5926    7181.8307    13057.764    1861.6261    8399.7971    312.92301    14858 
200000000   -3076.7305    7091.9622    12941.002    1879.9765    8288.7162    310.12487    14872 
201000000   -3044.5577    7039.5066    12985.269    1820.6625    8263.4019     311.1857    14888 
202000000   -3018.6969    7034.8574    12785.869    1734.6446    8318.9097    306.40718    14876 
203000000   -3124.8179    6963.3726    12920.192    1826.6181    8261.5724    309.62616    14885 
204000000   -3131.5103    7146.2382    13023.074    1824.3118    8453.4367    312.09167    14879 
205000000    -3096.989     7180.344    12986.427    1832.4825    8444.8505    311.21346    14862 
206000000   -3083.4535    7028.3728    12883.829    1832.3417    8279.4846    308.75474    14861 
207000000   -3226.3577    6751.8662    12979.853    1686.2231    8292.0008    311.05592    14903 
208000000   -3053.9579    6932.5014    12713.628    1788.0001    8198.4592    304.67597    14867 
209000000   -3026.1902    6777.4237    13008.069    1691.4313    8112.1826    311.73209    14909 
210000000   -3210.3239    6874.9191    12852.453     1739.987    8345.2559    308.00282    14914 
211000000    -3085.718    7035.6772    12977.137    1871.6933    8249.7019    310.99083    14859 
212000000   -3082.5471    6971.2903    13081.573     1735.552    8318.2854    313.49358    14907 
213000000   -3226.4123    6791.3494     12903.54    1788.9711    8228.7906    309.22712    14907 
214000000   -3204.4501     6825.984    12899.009    1715.4239    8315.0102    309.11853    14907 
215000000   -3157.1642     6837.143    12995.311    1669.9465    8324.3608    311.42635    14914 
216000000   -3069.6633    6851.0835    12756.435    1756.9657    8163.7811     305.7018    14895 
217000000     -3191.58    6941.3451    13129.757    1815.3202     8317.605    314.64828    14875 
218000000   -3117.5853    6765.1031    13002.709    1724.2168    8158.4716    311.60364    14893 
219000000   -3128.6846    7045.1984    12919.495    1825.4584    8348.4245    309.60946    14871 
220000000   -3205.0934    6807.1278    12972.867    1743.5564    8268.6648    310.88851    14892 
221000000   -3147.9069     7008.716    12908.275    1813.8394    8342.7835    309.34057    14873 
222000000   -3222.7228    6724.0378    12938.701    1674.4211    8272.3395    310.06972    14936 
223000000    -3123.893    6940.4677    12750.651    1759.6281    8304.7326    305.56319    14895 
224000000   -3129.7898    6903.4655    12957.814     1735.505    8297.7503    310.52776    14913 
225000000   -3173.9189    6887.0125    12821.548    1716.3492    8344.5822     307.2622    14909 
226000000   -3246.5173    6707.3503    12997.509    1783.4547     8170.413    311.47902    14897 
227000000   -3212.3858    6940.8948    12939.575    1809.6997    8343.5808    310.09066    14925 
228000000   -3281.3435     6772.353    13040.437    1758.6967    8294.9998    312.50779    14915 
229000000   -3053.4049    7019.2394    12885.858    1802.4004    8270.2438    308.80337    14890 
230000000   -2995.5526    7252.8234    12878.255    1839.2161    8409.1599    308.62117    14850 
231000000    -3055.087     7065.488    12960.381    1887.2738    8233.3012    310.58929    14860 
232000000   -3106.8781    6917.4958    13002.315    1801.4809    8222.8929     311.5942    14879 
233000000    -3104.198    6985.1239    13009.604    1773.1844    8316.1376    311.76888    14882 
234000000   -3029.0104    6929.0362    12987.095    1707.4461    8250.6005    311.22947    14885 
235000000   -3187.4643    6979.5781    12860.069    1791.8006    8375.2418    308.18535    14876 
236000000   -3126.1806    6861.7191    12869.786    1784.0317     8203.868     308.4182    14918 
237000000   -3127.5445     6885.475    12962.199    1784.3818    8228.6377    310.63284    14865 
238000000   -3117.5812    6816.7722    12974.299    1687.3157    8247.0376    310.92281    14905 
239000000   -3163.7983    6932.0218    12919.851    1862.2069    8233.6133    309.61799    14907 
240000000   -3219.4979    6931.8033    13059.266    1742.9608    8408.3405      312.959    14909 
241000000   -3117.0801    6997.3497    12953.744     1862.239    8252.1908    310.43023    14909 
242000000   -3161.8394    6916.7904     12844.81    1751.1978    8327.4321    307.81967    14900 
243000000   -3209.3943    6874.6704    12848.718    1750.1218     8333.943    307.91332    14903 
244000000   -3012.2514    7040.0339     12940.55    1752.8213     8299.464    310.11404    14904 
245000000   -3190.9431    6873.4764    12842.283    1715.3163    8349.1033    307.75911    14895 
246000000   -3198.6613    6970.4051    12915.182    1818.5896    8350.4768    309.50609    14883 
247000000   -3068.7223    6970.6165    13036.403    1795.9935    8243.3453    312.41111    14880 
248000000   -2982.9695    7226.8127    12963.541    1814.4986    8395.2836    310.66499    14871 
249000000   -3156.6704    6914.2104    12894.042    1791.0529     8279.828     308.9995    14876 
250000000   -3021.8406     7089.074    13082.454    1800.3846      8310.53     313.5147    14853 
251000000   -3102.8758    7080.1635    12951.048    1839.5337    8343.5056    310.36561    14873 
252000000   -3134.7209    6901.1576    13079.182    1712.0634    8323.8151    313.43629    14915 
253000000   -3136.7133     6967.002    13047.374     1804.751    8298.9642    312.67402    14876 
254000000   -3167.6914    6863.2089    12907.207    1774.6579    8256.2424    309.31498    14908 
255000000   -3269.9023    6674.7645    12919.505    1746.4672    8198.1997    309.60971    14912 
256000000   -3289.0712     6776.451    12959.959    1815.6377    8249.8844    310.57916    14905 
257000000   -3155.9985    6875.4442    12950.638    1742.2562    8289.1864     310.3558    14885 
258000000   -3170.0086    6907.9434    12975.626    1772.3354    8305.6166     310.9546    14910 
259000000   -3121.5339    6685.5782    12930.395    1590.1662    8216.9459    309.87067    14936 
260000000   -3221.6664     6811.429    12851.731    1686.4412    8346.6543    307.98552    14934 
261000000   -3210.0029    6836.3855    12873.426    1819.2179    8227.1706    308.50545    14898 
262000000    -3196.347    6789.4061     13008.18    1700.6296    8285.1236    311.73476    14873 
263000000   -3170.8381    6962.6569    12855.391    1755.6388    8377.8562    308.07324    14903 
264000000    -3246.236    6753.8489    12713.191    1693.5764    8306.5084     304.6655    14914 
265000000   -3200.3365    6768.7971    12840.432    1741.9304    8227.2032    307.71475    14878 
266000000   -3231.8628    6683.9587    12963.909    1692.0304    8223.7912    310.67383    14914 
267000000   -3196.4327     6876.438    12883.948    1758.5038     8314.367     308.7576    14902 
268000000   -3217.9857     6728.662    13138.342    1686.6588    8259.9889    314.85403    14928 
269000000   -3168.6802    6957.7726     12993.53    1810.1348     8316.318    311.38366    14921 
270000000   -3049.9589    7049.0565    12989.872    1792.3526    8306.6628    311.29601    14890 
271000000   -3159.1746    6866.9575    12937.463    1660.7946    8365.3375    310.04006    14921 
272000000   -3195.5991    6785.0723    12986.142    1656.6346    8324.0368    311.20664    14917 
273000000     -3249.43     6751.082    12954.902    1700.0286    8300.4834    310.45798    14926 
274000000   -3200.9391     6846.402    12885.641     1688.167    8359.1741    308.79817    14925 
275000000   -3305.3786    6572.3503    12904.922    1647.2445    8230.4843    309.26022    14946 
276000000   -3251.1794     6657.974     12848.37    1650.1457    8259.0077    307.90497    14948 
277000000   -3155.3221    6862.6092    12854.818    1727.3755    8290.5557    308.05951    14913 
278000000   -3207.3104    6753.0157     12991.19    1673.5167    8286.8094     311.3276    14920 
279000000   -3223.3177    6904.1161    13052.567    1846.7142    8280.7196    312.79846    14899 
280000000   -3259.9279    6679.4774    12842.715    1647.1121    8292.2932    307.76947    14918 
281000000    -3179.171    6850.9339    13029.839    1699.7587    8330.3462     312.2538    14923 
282000000   -3186.8674       6873.1    12952.873    1787.6127    8272.3547    310.40935    14926 
283000000   -3230.3352    6698.6642    12928.581    1643.1354     8285.864    309.82719    14924 
284000000   -3238.1415    6728.6125    13000.726    1526.9139    8439.8402    311.55613    14955 
285000000    -3198.791    6813.5651     12993.19    1631.6921     8380.664    311.37553    14957 
286000000   -3242.2648     6718.915    12964.922    1678.6562    8282.5236     310.6981    14911 
287000000   -3237.3842    6850.1037    12862.565    1721.7536    8365.7343    308.24517    14927 
288000000   -3264.8773     6696.229     12949.93    1618.2939    8342.8124    310.33882    14934 
289000000   -3175.2248    6850.5194    12841.273     1718.915    8306.8292    307.73491    14931 
290000000   -3275.6858    6902.9647    12838.868    1797.6899    8380.9607    307.67727    14920 
291000000   -3269.2575    6782.1472    13074.967    1678.6241    8372.7806    313.33527    14920 
292000000   -3387.3873    6749.8359    12978.654    1636.1745    8501.0486    311.02719    14936 
293000000   -3241.3586    6729.6464    12991.176     1704.585      8266.42    311.32727    14946 
294000000   -3308.8312    6650.7654    12989.645    1667.1204    8292.4762    311.29058    14915 
295000000   -3296.1122    6647.7374    12974.832    1703.2627    8240.5869    310.93559    14912 
296000000   -3285.0609    6760.8296    12941.115    1778.9816    8266.9089    310.12758    14940 
297000000   -3216.3054    6798.2738    12879.424    1697.5325    8317.0467    308.64917    14926 
298000000   -3252.0014    6839.6536    12974.866    1705.3342    8386.3208    310.93639    14934 
299000000   -3233.3959    6865.7739    12912.049    1657.6341    8441.5357    309.43101    14921 
300000000   -3191.6032    6861.4198    12917.614    1694.0402    8358.9828     309.5644    14946 
301000000    -3232.376    6849.4295    12818.456    1730.1752    8351.6304    307.18811    14909 
302000000   -3265.1723    6777.8033    12867.774    1627.6655    8415.3102       308.37    14927 
303000000   -3177.6431    6708.0311    12939.527    1716.6386    8169.0356    310.08951    14888 
304000000   -3195.5318    7038.3273    13017.073    1825.8234    8408.0357    311.94787    14913 
305000000   -3251.6837     6853.826     12892.56    1739.9714    8365.5382    308.96397    14946 
306000000   -3240.8718     6835.208    12845.057    1778.5121    8297.5678    307.82559    14883 
307000000   -3277.1851    6738.5903    12874.057    1744.3236    8271.4518    308.52056    14932 
308000000   -3220.7216    6726.4234    12977.867    1768.7036    8178.4414    311.00832    14902 
309000000   -3219.0179    6728.8981    12815.753    1629.8628    8318.0532    307.12333    14910 
310000000   -3174.4891    7028.7371     12981.03    1782.1002    8421.1261    311.08411    14880 
311000000   -3287.5317    6646.0521    12927.138    1596.3735    8337.2104    309.79261    14923 
312000000    -3230.145    6787.7865    12904.951    1726.7794    8291.1521    309.26091    14907 
313000000   -3216.0774    6933.7263     12975.53    1752.2456    8397.5581    310.95232    14920 
314000000   -3268.7466    6699.5047    12999.096    1702.3345    8265.9169    311.51706    14916 
315000000   -3304.2017     6757.795    12987.978     1667.626    8394.3708    311.25063    14945 
316000000   -3358.6511    6555.4218    12867.659    1682.2457    8231.8272    308.36722    14925 
317000000   -3293.6298    6681.0933    13048.642    1793.6723    8181.0507    312.70441    14911 
318000000   -3187.6559    6809.3324    13015.522     1743.005    8253.9833     311.9107    14907 
319000000    -3191.708    6767.2787    12827.009    1739.3944    8219.5923    307.39308    14898 
320000000   -3298.8154    6736.2411    12866.982    1769.6306    8265.4258    308.35102    14907 
321000000   -3192.5771     6904.324    13008.711    1811.9539    8284.9472    311.74747    14888 
322000000   -3238.1019    6795.3401     13012.51    1775.7793    8257.6627    311.83851    14916 
323000000   -3273.4511    6754.2503    12922.838    1731.0255    8296.6758    309.68957    14932 
324000000   -3216.7391    6827.0238    12950.893    1691.4428      8352.32    310.36189    14911 
325000000   -3281.7848    6667.5077    12809.132     1711.194    8238.0985    306.96466    14918 
326000000   -3198.3166    6777.7616    12885.621    1703.3147    8272.7635    308.79769    14912 
327000000   -3234.9566    6666.4856    13054.341    1680.1657    8221.2766    312.84097    14927 
328000000   -3311.2114    6720.2014    13134.037    1675.4412    8355.9716    314.75087    14939 
329000000   -3337.7186    6797.7302    13033.394    1774.9269    8360.5219    312.33899    14942 
330000000   -3344.2997    6568.7364    12921.579    1605.2416    8307.7946    309.65941    14932 
331000000   -3267.3594    6827.4111    12950.959    1690.8947    8403.8757    310.36348    14951 
332000000   -3238.8974    6752.6993    12873.234    1722.1307    8269.4661    308.50084    14904 
333000000   -3284.4285     6662.554    12957.807    1741.3897    8205.5928     310.5276    14937 
334000000   -3297.2145    6701.3611    12958.397    1742.4901    8256.0855    310.54172    14940 
335000000    -3276.015     6616.757    13035.878    1642.1351    8250.6369    312.39851    14925 
336000000   -3300.0378    6531.3186    13071.519      1585.05    8246.3064    313.25265    14931 
337000000    -3292.433    6646.1522     12806.11    1626.8882    8311.6971    306.89225    14930 
338000000   -3367.8981    6567.5108    13073.388    1686.6932    8248.7157    313.29742    14927 
339000000   -3404.2876    6593.4209    12923.763    1650.2183    8347.4903    309.71175    14948 
340000000   -3360.9591    6654.3646    12863.168    1689.1916    8326.1321     308.2596    14937 
341000000   -3233.7004    6847.4408    12931.854     1672.908    8408.2332    309.90564    14910 
342000000   -3341.0218     6691.488    12968.899     1678.256    8354.2539     310.7934    14940 
343000000   -3365.6409    6633.4369    12835.251    1699.4789    8299.5989    307.59059    14939 
344000000   -3236.3885    6728.3593    12939.639    1806.9533    8157.7945    310.09219    14898 
345000000    -3475.573    6521.7116    12873.247    1668.8695     8328.415    308.50115    14944 
346000000   -3348.4368    6404.8821    12914.873    1547.2141    8206.1048    309.49871    14970 
347000000   -3320.9823    6731.5026    13038.776    1733.3286    8319.1563    312.46796    14923 
348000000   -3359.9336    6661.8805    12969.743    1738.8117    8283.0024    310.81363    14937 
349000000   -3336.5394    6509.7282    12879.768    1618.4932    8227.7744    308.65742    14978 
350000000   -3178.4739    6782.6362    13026.691     1684.023    8277.0871    312.17837    14922 
351000000   -3264.5089    6687.7664    12926.891    1686.5551    8265.7202    309.78671    14927 
352000000   -3232.7169    6820.6416    12856.189    1714.5459    8338.8125    308.09236    14896 
353000000   -3160.1072    6940.8329    12921.397    1749.8386    8351.1016    309.65505    14927 
354000000   -3375.8216    6430.9269    12798.741     1567.239    8239.5094    306.71566    14968 
355000000   -3361.8284    6577.9676    12854.456    1594.9178    8344.8782    308.05084    14967 
356000000   -3224.5723     6748.408    12838.586    1754.1909    8218.7895    307.67052    14935 
357000000   -3188.9744    6907.2393    12939.899    1811.3682    8284.8455    310.09844    14919 
358000000   -3221.9336    6770.4628    12956.396    1722.2645     8270.132    310.49377    14916 
359000000   -3227.3178    6684.1475    12822.467    1701.5622    8209.9031    307.28424    14936 
360000000   -3195.6706    6939.6381    12801.176    1852.4879    8282.8209    306.77399    14878 
361000000   -3354.3503    6591.9666    13070.467    1581.1608    8365.1561    313.22743    14955 
362000000   -3345.3856    6728.4315    12803.498    1724.5753    8349.2419    306.82965    14951 
363000000   -3232.3337    6623.4308    13173.268    1570.6868    8285.0777    315.69101    14959 
364000000   -3341.9786    6686.4908    12957.702    1709.0486    8319.4208    310.52507    14955 
365000000     -3311.62    6718.6044    12832.215    1663.7953    8366.4292    307.51785    14959 
366000000   -3270.3173    6761.2962     12853.36    1772.7809    8258.8326    308.02456    14910 
367000000   -3238.4335    6793.0755     12999.71    1735.0869    8296.4221    311.53177    14911 
368000000   -3347.3361    6690.4637    12922.756    1658.5999    8379.1999     309.6876    14941 
369000000   -3335.9616    6696.9297    12861.664    1665.6442    8367.2471    308.22356    14946 
370000000   -3339.0428    6488.3477    12927.028    1587.6667    8239.7238    309.78999    14964 
371000000   -3293.6934    6668.2554    12938.836    1592.7871    8369.1617    310.07297    14942 
372000000   -3326.7766     6780.326     13070.11    1737.7004    8369.4022    313.21888    14917 
373000000   -3338.5319    6678.8218    12949.232    1651.5225    8365.8312    310.32211    14926 
374000000   -3296.0485    6766.5307    12832.022     1726.056    8336.5232     307.5132    14914 
375000000    -3181.282    6737.3098    12730.681    1643.3221    8275.2697    305.08462    14945 
376000000   -3284.2224    6574.9399    13063.864    1593.7102    8265.4521     313.0692    14944 
377000000    -3388.006    6452.7058     13002.04      1556.69    8284.0218    311.58761    14955 
378000000   -3243.9727    6719.3738    12851.955    1657.8438    8305.5026     307.9909    14930 
379000000   -3281.2068    6766.0696    12933.647    1756.9518    8290.3247     309.9486    14921 
380000000   -3299.7863    6654.4116     12806.88     1619.548    8334.6498     306.9107    14943 
381000000   -3164.3541    6923.6076    12922.635    1675.6738    8412.2879    309.68471    14940 
382000000   -3299.6045    6622.0632    12779.482    1654.3167     8267.351    306.25412    14944 
383000000   -3270.1391    6701.3277    12928.026    1693.7339    8277.7329     309.8139    14969 
384000000   -3204.8718    6793.8831    12903.621    1754.2885    8244.4664    309.22906    14885 
385000000   -3287.8592    6828.0851    12968.299     1738.276    8377.6684    310.77902    14923 
386000000    -3352.137    6494.0409    12886.851    1616.1359     8230.042    308.82717    14954 
387000000   -3293.3065     6547.628     12870.37    1673.3967    8167.5378     308.4322    14960 
388000000   -3228.4795    6750.9212     12919.79    1726.7083    8252.6924    309.61652    14924 
389000000   -3350.3284    6619.0723    12803.982    1661.0875    8308.3133    306.84125    14958 
390000000   -3299.0226    6783.6013    13047.638    1705.4373    8377.1866    312.68035    14950 
391000000   -3309.4263    6718.2109     13057.11     1749.179    8278.4582    312.90733    14924 
392000000   -3199.0474    6815.4771    12997.876    1752.9938    8261.5307    311.48783    14921 
393000000   -3200.1489    6899.2442    12877.729    1813.2118    8286.1813    308.60855    14915 
394000000   -3204.8219    6787.0981    12994.839    1654.0175    8337.9025    311.41503    14943 
395000000   -3159.3947    7001.4054    12877.132    1838.2509    8322.5492    308.59425    14870 
396000000   -3329.1665    6694.6114    12961.346    1671.7803    8351.9977    310.61241    14930 
397000000   -3095.9753    6892.5101    12819.132    1754.1897    8234.2956    307.20431    14889 
398000000   -3221.5167    6865.9514    12961.437    1776.3916    8311.0766    310.61458    14893 
399000000   -3302.9323    6746.4181    12809.329     1772.617    8276.7335    306.96938    14896 
400000000   -3331.1103    6581.3152    12948.328    1637.7881    8274.6374    310.30044    14932 
401000000   -3359.5281    6723.6555    12841.805    1742.8474    8340.3362    307.74765    14923 
402000000   -3373.4963    6582.4402    12970.227    1676.4743    8279.4623    310.82522    14929 
403000000   -3298.2918    6566.5669    12955.391    1597.3928    8267.4658    310.46968    14929 
404000000   -3359.3788    6550.7662     12844.07     1594.985      8315.16    307.80193    14935 
405000000   -3373.8645    6678.3127    12952.318    1705.6703    8346.5069    310.39605    14946 
406000000   -3247.8298    6576.1505    12989.146    1697.5575    8126.4228    311.27862    14913 
407000000   -3207.8289    6684.8915    13055.079    1678.3355    8214.3849    312.85866    14926 
408000000    -3377.559      6599.48    12960.421    1743.0526    8233.9864    310.59022    14952 
409000000   -3384.1282    6497.2311    12927.007    1652.7076    8228.6517    309.78949    14938 
410000000   -3375.5862    6545.1985    12774.227    1643.8715    8276.9132    306.12819    14934 
411000000    -3280.299    6740.4933    12962.225    1707.0105    8313.7818    310.63346    14923 
412000000   -3316.9472    6552.1174    13012.473    1634.8358    8234.2288    311.83763    14938 
413000000   -3285.3001    6657.2763     12971.96     1589.504    8353.0724    310.86675    14925 
414000000   -3335.7924    6573.0537    12861.809    1632.6241    8276.2221    308.22704    14934 
415000000   -3289.5309    6611.7482    13010.587    1542.3587    8358.9204    311.79243    14966 
416000000   -3304.3251     6729.686    12856.286    1708.4169    8325.5942    308.09468    14923 
417000000   -3343.7723    6741.8762    12957.221    1766.1264     8319.522    310.51355    14910 
418000000    -3235.943     6729.222    12912.049    1789.5303    8175.6346    309.43101    14883 
419000000    -3185.073    6858.2087    12881.488    1739.7001    8303.5815    308.69863    14899 
420000000   -3245.1785    6750.0516    12741.015    1722.3985    8272.8316    305.33227    14932 
421000000   -3276.4523    6773.0978    12873.299    1778.4652    8271.0849     308.5024    14919 
422000000    -3260.542    6722.4536    12948.255    1684.6225    8298.3731    310.29868    14945 
423000000   -3281.4311    6872.0996     12685.41    1769.1914    8384.3393    303.99973    14943 
424000000   -3314.9657    6665.5263    12935.676    1651.6282    8328.8639    309.99724    14951 
425000000   -3348.6341    6588.8162    12866.282    1701.8626    8235.5877    308.33423    14934 
426000000   -3308.5274    6673.3621    12855.434    1664.4025     8317.487    308.07428    14939 
427000000   -3305.8201    6526.1912     12856.81    1656.5622    8175.4491    308.10725    14940 
428000000    -3225.544    6901.2374    12752.726    1763.4248    8363.3567    305.61291    14926 
429000000   -3243.2308    6679.7416    12956.171     1693.967    8229.0054    310.48839    14925 
430000000   -3340.1258    6572.0835    13059.518    1645.0232    8267.1861    312.96504    14918 
431000000   -3247.6585    6545.0521    12876.526    1632.5178    8160.1927    308.57973    14947 
432000000   -3369.9138    6591.5295    13005.706    1665.7326    8295.7106    311.67546    14958 
433000000   -3333.3893    6706.1536     12930.49    1684.1827    8355.3602    309.87295    14918 
434000000     -3262.92    6654.3481     12715.34    1647.2623    8270.0059    304.71698    14943 
435000000   -3315.2688    6609.1487    12956.497    1691.3393    8233.0782     310.4962    14905 
436000000   -3325.8617    6624.6441    12943.761    1645.3063    8305.1995    310.19099    14928 
437000000   -3321.6303    6626.6189    12689.915    1642.2679    8305.9813    304.10769    14938 
438000000    -3296.015    6783.1659    12993.826    1721.4526    8357.7283    311.39077    14921 
439000000   -3320.1085    6607.0552    12964.142    1666.2724    8260.8914     310.6794    14947 
440000000   -3269.4059    6704.1945    12973.604     1687.486    8286.1144    310.90616    14963 
441000000   -3390.1909    6634.8669    12910.706    1680.7392    8344.3185    309.39884    14931 
442000000   -3382.5541    6506.6709    12936.046    1587.1665    8302.0585    310.00609    14949 
443000000   -3337.5536    6653.9124    12992.873    1715.7542    8275.7119    311.36792    14950 
444000000   -3370.5349    6591.2499    12853.711    1645.7884    8315.9964    308.03298    14950 
445000000   -3416.4492    6545.1108    12869.672    1724.4754    8237.0846    308.41546    14944 
446000000   -3253.4504    6881.1617    12818.797    1774.9919    8359.6202    307.19629    14922 
447000000   -3211.4644    6767.8551    13050.168    1755.8862    8223.4333    312.74097    14917 
448000000   -3246.8989     6637.893     13028.31    1561.6261    8323.1658    312.21716    14938 
449000000   -3186.3573    6771.8559    12833.868    1662.7886    8295.4246    307.55745    14945 
450000000   -3171.3267     6846.181    13037.044    1664.7093    8352.7984    312.42647    14911 
451000000   -3287.4116    6528.6671     12808.08    1615.3287      8200.75    306.93947    14946 
452000000   -3349.0776      6645.32    12965.438    1779.7615    8214.6361    310.71047    14911 
453000000   -3254.5995    6679.6932    12934.358    1644.1021    8290.1906    309.96564    14946 
454000000   -3266.0316    6692.3737    12882.955    1662.8301    8295.5752    308.73379    14926 
455000000   -3320.3327    6634.9202    12749.826    1626.3565    8328.8964    305.54343    14945 
456000000   -3402.3652    6444.1449    13021.862     1623.309    8223.2011    312.06265    14958 
457000000   -3235.6467    6772.1226     12902.22    1738.1429    8269.6264    309.19548    14946 
458000000   -3295.9085    6819.9695    12918.721    1773.0501     8342.828    309.59091    14917 
459000000   -3296.3931    6762.6236    12989.545    1724.3172    8334.6995    311.28817    14913 
460000000   -3283.1756    6495.4149    12936.391    1608.0847    8170.5059    310.01437    14945 
461000000   -3327.8813    6694.5402     12844.67    1701.3249    8321.0966    307.81631    14926 
462000000   -3313.6934    6539.1784    12904.863    1551.9026    8300.9691    309.25881    14984 
463000000     -3467.62    6376.4099    12902.712    1605.8161    8238.2138    309.20726    14948 
464000000   -3257.3103    6836.8164    12858.446    1847.5268    8246.5999    308.14645    14915 
465000000   -3119.9946    6994.5743    12890.266    1822.8148    8291.7541    308.90901    14849 
466000000   -3333.2763    6570.7442    12943.889    1685.7569    8218.2637    310.19404    14919 
467000000     -3301.13     6834.487    12915.414    1839.9574    8295.6596    309.51165    14872 
468000000   -3197.7687    6754.8144    12917.375    1691.3929    8261.1902    309.55864    14907 
469000000   -3325.6081    6648.1148    12716.732    1633.4963    8340.2266    304.75034    14931 
470000000   -3139.0587    6939.1913    12923.122    1725.6004    8352.6496    309.69637    14923 
471000000   -3281.1328    6595.6314    13046.904    1674.1494    8202.6149    312.66276    14903 
472000000   -3268.3804    6700.9503    13012.077    1686.5207    8282.8099    311.82813    14905 
473000000   -3375.1113    6526.6747    12889.991    1689.2736    8212.5124    308.90241    14972 
474000000    -3236.379    6635.7475    13032.745    1595.7487    8276.3778    312.32343    14959 
475000000   -3251.5923    6753.7269    12801.888    1628.8817    8376.4376    306.79106    14929 
476000000   -3246.0449    6824.9291     13034.92    1632.6851    8438.2888    312.37556    14937 
477000000   -3161.8158    6927.3734    13084.638    1794.2339    8294.9553    313.56704    14890 
478000000    -3305.565    6621.9826    12814.636    1745.1665    8182.3811    307.09656    14913 
479000000   -3327.8045    6571.9579    12908.866     1682.652    8217.1105    309.35473    14944 
480000000   -3289.2312    6665.1629    13001.791    1711.5826    8242.8114    311.58165    14947 
481000000   -3330.2062    6641.0942    12814.057    1675.4756    8295.8249    307.08269    14919 
482000000    -3350.953    6708.1021    12849.282    1810.2295    8248.8257    307.92685    14936 
483000000   -3314.2827    6823.5913      12942.6    1763.6999    8374.1741    310.16316    14932 
484000000   -3352.2158    6520.9534    12783.567    1643.2137    8229.9555      306.352    14954 
485000000   -3298.5429    6611.1012    12822.941    1749.7474    8159.8968     307.2956    14921 
486000000   -3230.8564    6633.5289    13032.169    1653.2936    8211.0917    312.30964    14938 
487000000   -3245.2887    6661.1354    12850.779    1703.5191    8202.9049    307.96271    14893 
488000000   -3276.3005    6867.4101    12946.719    1809.2969    8334.4137    310.26186    14910 
489000000    -3336.017     6707.419    12899.568    1621.0697    8422.3662    309.13191    14947 
490000000   -3220.2755    6779.0106    13080.557    1704.5245    8294.7616    313.46923    14932 
491000000   -3210.0477    6780.4334    13002.506    1747.3144    8243.1666    311.59878    14905 
492000000     -3325.93    6696.3198    12935.604    1654.1633    8368.0866    309.99551    14924 
493000000   -3335.0895    6685.7257    12950.709    1722.5016    8298.3136     310.3575    14965 
494000000   -3344.9806    6679.9444    12913.565    1686.2622    8338.6627    309.46735    14920 
495000000   -3330.2693    6570.2923    12948.938    1623.1168    8277.4448    310.31504    14925 
496000000   -3478.7713    6478.7035    12933.803    1658.0735    8299.4014    309.95234    14963 
497000000    -3327.588    6554.9746    12915.165    1666.7302    8215.8325     309.5057    14929 
498000000   -3391.6879    6602.9544    13014.567    1595.3053     8399.337    311.88782    14960 
499000000   -3264.2131     6799.036    13005.304    1713.6139    8349.6351    311.66584    14895 
500000000   -3306.6012     6487.472     12878.58    1613.6029    8180.4703    308.62896    14936 
Loop time of 174432 on 28 procs for 500000000 steps with 14000 atoms

Performance: 6191.527 ns/day, 0.004 hours/ns, 2866.448 timesteps/s
99.5% CPU use with 28 MPI tasks x no OpenMP threads

MPI task timing breakdown:
Section |  min time  |  avg time  |  max time  |%varavg| %total
---------------------------------------------------------------
Pair    | 19971      | 24050      | 26236      |1008.0 | 13.79
Bond    | 5991.7     | 6501.2     | 9448.5     |1116.5 |  3.73
Neigh   | 59920      | 60548      | 61277      | 128.7 | 34.71
Comm    | 44287      | 49886      | 55114      | 985.0 | 28.60
Output  | 0.61871    | 0.66977    | 0.6726     |   1.2 |  0.00
Modify  | 24988      | 25167      | 25404      |  56.5 | 14.43
Other   |            | 8278       |            |       |  4.75

Nlocal:    500 ave 528 max 471 min
Histogram: 2 3 1 2 3 6 5 3 2 1
Nghost:    771.143 ave 1078 max 503 min
Histogram: 3 3 5 3 1 4 1 2 3 3
Neighs:    6240.29 ave 7335 max 4756 min
Histogram: 3 1 1 2 4 2 4 2 7 2

Total # of neighbors = 174728
Ave neighs/atom = 12.4806
Ave special neighs/atom = 7.92386
Neighbor list builds = 100017017
Dangerous builds = 0
System init for write_restart ...
Total wall time: 48:27:15
