Current file is final_state_Run1.restart
final_state_Run1.DATA
LAMMPS (5 Jun 2019)
Reading restart file ...
  restart file = 5 Jun 2019, LAMMPS = 5 Jun 2019
WARNING: Restart file used different # of processors (../read_restart.cpp:740)
  restoring atom style full from restart
  orthogonal box = (-420 -420 -420) to (420 420 420)
  1 by 1 by 1 MPI processor grid
  restoring pair style lj/cut from restart
  restoring bond style hybrid from restart
  restoring angle style cosine from restart
  14000 atoms
  14889 bonds
  13600 angles
Finding 1-2 1-3 1-4 neighbors ...
  special bond factors lj:   1          1          1         
  special bond factors coul: 0          0          0         
  3 = max # of 1-2 neighbors
  4 = max # of 1-3 neighbors
  8 = max # of 1-4 neighbors
  56 = max # of special neighbors
  special bonds CPU = 0.0161652 secs
  read_restart CPU = 1.40472 secs
Current file is final_state_Run3.restart
final_state_Run3.DATA
LAMMPS (5 Jun 2019)
Reading restart file ...
  restart file = 5 Jun 2019, LAMMPS = 5 Jun 2019
WARNING: Restart file used different # of processors (../read_restart.cpp:740)
  restoring atom style full from restart
  orthogonal box = (-420 -420 -420) to (420 420 420)
  1 by 1 by 1 MPI processor grid
  restoring pair style lj/cut from restart
  restoring bond style hybrid from restart
  restoring angle style cosine from restart
  14000 atoms
  14936 bonds
  13600 angles
Finding 1-2 1-3 1-4 neighbors ...
  special bond factors lj:   1          1          1         
  special bond factors coul: 0          0          0         
  3 = max # of 1-2 neighbors
  4 = max # of 1-3 neighbors
  8 = max # of 1-4 neighbors
  56 = max # of special neighbors
  special bonds CPU = 0.0150978 secs
  read_restart CPU = 1.04764 secs
Current file is final_state_Run4.restart
final_state_Run4.DATA
LAMMPS (5 Jun 2019)
Reading restart file ...
  restart file = 5 Jun 2019, LAMMPS = 5 Jun 2019
WARNING: Restart file used different # of processors (../read_restart.cpp:740)
  restoring atom style full from restart
  orthogonal box = (-420 -420 -420) to (420 420 420)
  1 by 1 by 1 MPI processor grid
  restoring pair style lj/cut from restart
  restoring bond style hybrid from restart
  restoring angle style cosine from restart
  14000 atoms
  14918 bonds
  13600 angles
Finding 1-2 1-3 1-4 neighbors ...
  special bond factors lj:   1          1          1         
  special bond factors coul: 0          0          0         
  3 = max # of 1-2 neighbors
  4 = max # of 1-3 neighbors
  8 = max # of 1-4 neighbors
  56 = max # of special neighbors
  special bonds CPU = 0.0140822 secs
  read_restart CPU = 1.03722 secs
Current file is final_state_Run5.restart
final_state_Run5.DATA
srun: Step created for StepId=23537543.3
LAMMPS (5 Jun 2019)
Reading restart file ...
  restart file = 5 Jun 2019, LAMMPS = 5 Jun 2019
WARNING: Restart file used different # of processors (../read_restart.cpp:740)
  restoring atom style full from restart
  orthogonal box = (-420 -420 -420) to (420 420 420)
  1 by 1 by 1 MPI processor grid
  restoring pair style lj/cut from restart
  restoring bond style hybrid from restart
  restoring angle style cosine from restart
  14000 atoms
  14955 bonds
  13600 angles
Finding 1-2 1-3 1-4 neighbors ...
  special bond factors lj:   1          1          1         
  special bond factors coul: 0          0          0         
  3 = max # of 1-2 neighbors
  4 = max # of 1-3 neighbors
  8 = max # of 1-4 neighbors
  56 = max # of special neighbors
  special bonds CPU = 0.0143154 secs
  read_restart CPU = 1.58679 secs
Current file is Run1_tp_100000000.restart
Run1_tp_100000000.DATA
LAMMPS (5 Jun 2019)
Reading restart file ...
  restart file = 5 Jun 2019, LAMMPS = 5 Jun 2019
WARNING: Restart file used different # of processors (../read_restart.cpp:740)
  restoring atom style full from restart
  orthogonal box = (-420 -420 -420) to (420 420 420)
  1 by 1 by 1 MPI processor grid
  restoring pair style lj/cut from restart
  restoring bond style hybrid from restart
  restoring angle style cosine from restart
  14000 atoms
  14861 bonds
  13600 angles
Finding 1-2 1-3 1-4 neighbors ...
  special bond factors lj:   1          1          1         
  special bond factors coul: 0          0          0         
  3 = max # of 1-2 neighbors
  4 = max # of 1-3 neighbors
  8 = max # of 1-4 neighbors
  56 = max # of special neighbors
  special bonds CPU = 0.0156796 secs
  read_restart CPU = 1.22645 secs
Current file is Run1_tp_150000000.restart
Run1_tp_150000000.DATA
LAMMPS (5 Jun 2019)
Reading restart file ...
  restart file = 5 Jun 2019, LAMMPS = 5 Jun 2019
WARNING: Restart file used different # of processors (../read_restart.cpp:740)
  restoring atom style full from restart
  orthogonal box = (-420 -420 -420) to (420 420 420)
  1 by 1 by 1 MPI processor grid
  restoring pair style lj/cut from restart
  restoring bond style hybrid from restart
  restoring angle style cosine from restart
  14000 atoms
  14873 bonds
  13600 angles
Finding 1-2 1-3 1-4 neighbors ...
  special bond factors lj:   1          1          1         
  special bond factors coul: 0          0          0         
  3 = max # of 1-2 neighbors
  4 = max # of 1-3 neighbors
  8 = max # of 1-4 neighbors
  56 = max # of special neighbors
  special bonds CPU = 0.0144904 secs
  read_restart CPU = 0.830959 secs
Current file is Run1_tp_200000000.restart
Run1_tp_200000000.DATA
LAMMPS (5 Jun 2019)
Reading restart file ...
  restart file = 5 Jun 2019, LAMMPS = 5 Jun 2019
WARNING: Restart file used different # of processors (../read_restart.cpp:740)
  restoring atom style full from restart
  orthogonal box = (-420 -420 -420) to (420 420 420)
  1 by 1 by 1 MPI processor grid
  restoring pair style lj/cut from restart
  restoring bond style hybrid from restart
  restoring angle style cosine from restart
  14000 atoms
  14898 bonds
  13600 angles
Finding 1-2 1-3 1-4 neighbors ...
  special bond factors lj:   1          1          1         
  special bond factors coul: 0          0          0         
  3 = max # of 1-2 neighbors
  4 = max # of 1-3 neighbors
  8 = max # of 1-4 neighbors
  56 = max # of special neighbors
  special bonds CPU = 0.016447 secs
  read_restart CPU = 0.251541 secs
Current file is Run1_tp_250000000.restart
Run1_tp_250000000.DATA
LAMMPS (5 Jun 2019)
Reading restart file ...
  restart file = 5 Jun 2019, LAMMPS = 5 Jun 2019
WARNING: Restart file used different # of processors (../read_restart.cpp:740)
  restoring atom style full from restart
  orthogonal box = (-420 -420 -420) to (420 420 420)
  1 by 1 by 1 MPI processor grid
  restoring pair style lj/cut from restart
  restoring bond style hybrid from restart
  restoring angle style cosine from restart
  14000 atoms
  14903 bonds
  13600 angles
Finding 1-2 1-3 1-4 neighbors ...
  special bond factors lj:   1          1          1         
  special bond factors coul: 0          0          0         
  3 = max # of 1-2 neighbors
  4 = max # of 1-3 neighbors
  8 = max # of 1-4 neighbors
  56 = max # of special neighbors
  special bonds CPU = 0.0131789 secs
  read_restart CPU = 0.891092 secs
Current file is Run1_tp_300000000.restart
Run1_tp_300000000.DATA
LAMMPS (5 Jun 2019)
Reading restart file ...
  restart file = 5 Jun 2019, LAMMPS = 5 Jun 2019
WARNING: Restart file used different # of processors (../read_restart.cpp:740)
  restoring atom style full from restart
  orthogonal box = (-420 -420 -420) to (420 420 420)
  1 by 1 by 1 MPI processor grid
  restoring pair style lj/cut from restart
  restoring bond style hybrid from restart
  restoring angle style cosine from restart
  14000 atoms
  14867 bonds
  13600 angles
Finding 1-2 1-3 1-4 neighbors ...
  special bond factors lj:   1          1          1         
  special bond factors coul: 0          0          0         
  3 = max # of 1-2 neighbors
  4 = max # of 1-3 neighbors
  8 = max # of 1-4 neighbors
  56 = max # of special neighbors
  special bonds CPU = 0.0145762 secs
  read_restart CPU = 0.369336 secs
Current file is Run1_tp_350000000.restart
Run1_tp_350000000.DATA
LAMMPS (5 Jun 2019)
Reading restart file ...
  restart file = 5 Jun 2019, LAMMPS = 5 Jun 2019
WARNING: Restart file used different # of processors (../read_restart.cpp:740)
  restoring atom style full from restart
  orthogonal box = (-420 -420 -420) to (420 420 420)
  1 by 1 by 1 MPI processor grid
  restoring pair style lj/cut from restart
  restoring bond style hybrid from restart
  restoring angle style cosine from restart
  14000 atoms
  14859 bonds
  13600 angles
Finding 1-2 1-3 1-4 neighbors ...
  special bond factors lj:   1          1          1         
  special bond factors coul: 0          0          0         
  3 = max # of 1-2 neighbors
  4 = max # of 1-3 neighbors
  8 = max # of 1-4 neighbors
  56 = max # of special neighbors
  special bonds CPU = 0.0146452 secs
  read_restart CPU = 1.38724 secs
Current file is Run1_tp_400000000.restart
Run1_tp_400000000.DATA
LAMMPS (5 Jun 2019)
Reading restart file ...
  restart file = 5 Jun 2019, LAMMPS = 5 Jun 2019
WARNING: Restart file used different # of processors (../read_restart.cpp:740)
  restoring atom style full from restart
  orthogonal box = (-420 -420 -420) to (420 420 420)
  1 by 1 by 1 MPI processor grid
  restoring pair style lj/cut from restart
  restoring bond style hybrid from restart
  restoring angle style cosine from restart
  14000 atoms
  14883 bonds
  13600 angles
Finding 1-2 1-3 1-4 neighbors ...
  special bond factors lj:   1          1          1         
  special bond factors coul: 0          0          0         
  3 = max # of 1-2 neighbors
  4 = max # of 1-3 neighbors
  8 = max # of 1-4 neighbors
  56 = max # of special neighbors
  special bonds CPU = 0.0149599 secs
  read_restart CPU = 1.28503 secs
Current file is Run1_tp_450000000.restart
Run1_tp_450000000.DATA
srun: Step created for StepId=23537543.11
LAMMPS (5 Jun 2019)
Reading restart file ...
  restart file = 5 Jun 2019, LAMMPS = 5 Jun 2019
WARNING: Restart file used different # of processors (../read_restart.cpp:740)
  restoring atom style full from restart
  orthogonal box = (-420 -420 -420) to (420 420 420)
  1 by 1 by 1 MPI processor grid
  restoring pair style lj/cut from restart
  restoring bond style hybrid from restart
  restoring angle style cosine from restart
  14000 atoms
  14897 bonds
  13600 angles
Finding 1-2 1-3 1-4 neighbors ...
  special bond factors lj:   1          1          1         
  special bond factors coul: 0          0          0         
  3 = max # of 1-2 neighbors
  4 = max # of 1-3 neighbors
  8 = max # of 1-4 neighbors
  56 = max # of special neighbors
  special bonds CPU = 0.015824 secs
  read_restart CPU = 1.11695 secs
Current file is Run1_tp_500000000.restart
Run1_tp_500000000.DATA
LAMMPS (5 Jun 2019)
Reading restart file ...
  restart file = 5 Jun 2019, LAMMPS = 5 Jun 2019
WARNING: Restart file used different # of processors (../read_restart.cpp:740)
  restoring atom style full from restart
  orthogonal box = (-420 -420 -420) to (420 420 420)
  1 by 1 by 1 MPI processor grid
  restoring pair style lj/cut from restart
  restoring bond style hybrid from restart
  restoring angle style cosine from restart
  14000 atoms
  14889 bonds
  13600 angles
Finding 1-2 1-3 1-4 neighbors ...
  special bond factors lj:   1          1          1         
  special bond factors coul: 0          0          0         
  3 = max # of 1-2 neighbors
  4 = max # of 1-3 neighbors
  8 = max # of 1-4 neighbors
  56 = max # of special neighbors
  special bonds CPU = 0.0140797 secs
  read_restart CPU = 1.52486 secs
Current file is Run1_tp_50000000.restart
Run1_tp_50000000.DATA
srun: Step created for StepId=23537543.13
LAMMPS (5 Jun 2019)
Reading restart file ...
  restart file = 5 Jun 2019, LAMMPS = 5 Jun 2019
WARNING: Restart file used different # of processors (../read_restart.cpp:740)
  restoring atom style full from restart
  orthogonal box = (-420 -420 -420) to (420 420 420)
  1 by 1 by 1 MPI processor grid
  restoring pair style lj/cut from restart
  restoring bond style hybrid from restart
  restoring angle style cosine from restart
  14000 atoms
  14829 bonds
  13600 angles
Finding 1-2 1-3 1-4 neighbors ...
  special bond factors lj:   1          1          1         
  special bond factors coul: 0          0          0         
  3 = max # of 1-2 neighbors
  4 = max # of 1-3 neighbors
  8 = max # of 1-4 neighbors
  56 = max # of special neighbors
  special bonds CPU = 0.0157529 secs
  read_restart CPU = 0.954344 secs
Current file is Run2_tp_100000000.restart
Run2_tp_100000000.DATA
srun: Step created for StepId=23537543.14
LAMMPS (5 Jun 2019)
Reading restart file ...
  restart file = 5 Jun 2019, LAMMPS = 5 Jun 2019
WARNING: Restart file used different # of processors (../read_restart.cpp:740)
  restoring atom style full from restart
  orthogonal box = (-420 -420 -420) to (420 420 420)
  1 by 1 by 1 MPI processor grid
  restoring pair style lj/cut from restart
  restoring bond style hybrid from restart
  restoring angle style cosine from restart
  14000 atoms
  14866 bonds
  13600 angles
Finding 1-2 1-3 1-4 neighbors ...
  special bond factors lj:   1          1          1         
  special bond factors coul: 0          0          0         
  3 = max # of 1-2 neighbors
  4 = max # of 1-3 neighbors
  8 = max # of 1-4 neighbors
  56 = max # of special neighbors
  special bonds CPU = 0.0151426 secs
  read_restart CPU = 1.82511 secs
Current file is Run2_tp_150000000.restart
Run2_tp_150000000.DATA
LAMMPS (5 Jun 2019)
Reading restart file ...
  restart file = 5 Jun 2019, LAMMPS = 5 Jun 2019
WARNING: Restart file used different # of processors (../read_restart.cpp:740)
  restoring atom style full from restart
  orthogonal box = (-420 -420 -420) to (420 420 420)
  1 by 1 by 1 MPI processor grid
  restoring pair style lj/cut from restart
  restoring bond style hybrid from restart
  restoring angle style cosine from restart
  14000 atoms
  14901 bonds
  13600 angles
Finding 1-2 1-3 1-4 neighbors ...
  special bond factors lj:   1          1          1         
  special bond factors coul: 0          0          0         
  3 = max # of 1-2 neighbors
  4 = max # of 1-3 neighbors
  8 = max # of 1-4 neighbors
  56 = max # of special neighbors
  special bonds CPU = 0.014867 secs
  read_restart CPU = 0.199059 secs
Current file is Run2_tp_200000000.restart
Run2_tp_200000000.DATA
srun: Step created for StepId=23537543.16
LAMMPS (5 Jun 2019)
Reading restart file ...
  restart file = 5 Jun 2019, LAMMPS = 5 Jun 2019
WARNING: Restart file used different # of processors (../read_restart.cpp:740)
  restoring atom style full from restart
  orthogonal box = (-420 -420 -420) to (420 420 420)
  1 by 1 by 1 MPI processor grid
  restoring pair style lj/cut from restart
  restoring bond style hybrid from restart
  restoring angle style cosine from restart
  14000 atoms
  14899 bonds
  13600 angles
Finding 1-2 1-3 1-4 neighbors ...
  special bond factors lj:   1          1          1         
  special bond factors coul: 0          0          0         
  3 = max # of 1-2 neighbors
  4 = max # of 1-3 neighbors
  8 = max # of 1-4 neighbors
  56 = max # of special neighbors
  special bonds CPU = 0.0150203 secs
  read_restart CPU = 1.70137 secs
Current file is Run2_tp_250000000.restart
Run2_tp_250000000.DATA
LAMMPS (5 Jun 2019)
Reading restart file ...
  restart file = 5 Jun 2019, LAMMPS = 5 Jun 2019
WARNING: Restart file used different # of processors (../read_restart.cpp:740)
  restoring atom style full from restart
  orthogonal box = (-420 -420 -420) to (420 420 420)
  1 by 1 by 1 MPI processor grid
  restoring pair style lj/cut from restart
  restoring bond style hybrid from restart
  restoring angle style cosine from restart
  14000 atoms
  14887 bonds
  13600 angles
Finding 1-2 1-3 1-4 neighbors ...
  special bond factors lj:   1          1          1         
  special bond factors coul: 0          0          0         
  3 = max # of 1-2 neighbors
  4 = max # of 1-3 neighbors
  8 = max # of 1-4 neighbors
  56 = max # of special neighbors
  special bonds CPU = 0.0145555 secs
  read_restart CPU = 0.899165 secs
Current file is Run2_tp_300000000.restart
Run2_tp_300000000.DATA
srun: Step created for StepId=23537543.18
LAMMPS (5 Jun 2019)
Reading restart file ...
  restart file = 5 Jun 2019, LAMMPS = 5 Jun 2019
WARNING: Restart file used different # of processors (../read_restart.cpp:740)
  restoring atom style full from restart
  orthogonal box = (-420 -420 -420) to (420 420 420)
  1 by 1 by 1 MPI processor grid
  restoring pair style lj/cut from restart
  restoring bond style hybrid from restart
  restoring angle style cosine from restart
  14000 atoms
  14902 bonds
  13600 angles
Finding 1-2 1-3 1-4 neighbors ...
  special bond factors lj:   1          1          1         
  special bond factors coul: 0          0          0         
  3 = max # of 1-2 neighbors
  4 = max # of 1-3 neighbors
  8 = max # of 1-4 neighbors
  56 = max # of special neighbors
  special bonds CPU = 0.0167941 secs
  read_restart CPU = 1.75182 secs
Current file is Run2_tp_350000000.restart
Run2_tp_350000000.DATA
LAMMPS (5 Jun 2019)
Reading restart file ...
  restart file = 5 Jun 2019, LAMMPS = 5 Jun 2019
WARNING: Restart file used different # of processors (../read_restart.cpp:740)
  restoring atom style full from restart
  orthogonal box = (-420 -420 -420) to (420 420 420)
  1 by 1 by 1 MPI processor grid
  restoring pair style lj/cut from restart
  restoring bond style hybrid from restart
  restoring angle style cosine from restart
  14000 atoms
  14872 bonds
  13600 angles
Finding 1-2 1-3 1-4 neighbors ...
  special bond factors lj:   1          1          1         
  special bond factors coul: 0          0          0         
  3 = max # of 1-2 neighbors
  4 = max # of 1-3 neighbors
  8 = max # of 1-4 neighbors
  56 = max # of special neighbors
  special bonds CPU = 0.0157865 secs
  read_restart CPU = 0.626143 secs
Current file is Run2_tp_400000000.restart
Run2_tp_400000000.DATA
srun: Step created for StepId=23537543.20
LAMMPS (5 Jun 2019)
Reading restart file ...
  restart file = 5 Jun 2019, LAMMPS = 5 Jun 2019
WARNING: Restart file used different # of processors (../read_restart.cpp:740)
  restoring atom style full from restart
  orthogonal box = (-420 -420 -420) to (420 420 420)
  1 by 1 by 1 MPI processor grid
  restoring pair style lj/cut from restart
  restoring bond style hybrid from restart
  restoring angle style cosine from restart
  14000 atoms
  14922 bonds
  13600 angles
Finding 1-2 1-3 1-4 neighbors ...
  special bond factors lj:   1          1          1         
  special bond factors coul: 0          0          0         
  3 = max # of 1-2 neighbors
  4 = max # of 1-3 neighbors
  8 = max # of 1-4 neighbors
  56 = max # of special neighbors
  special bonds CPU = 0.0149097 secs
  read_restart CPU = 1.47395 secs
Current file is Run2_tp_450000000.restart
Run2_tp_450000000.DATA
srun: Step created for StepId=23537543.21
LAMMPS (5 Jun 2019)
Reading restart file ...
  restart file = 5 Jun 2019, LAMMPS = 5 Jun 2019
WARNING: Restart file used different # of processors (../read_restart.cpp:740)
  restoring atom style full from restart
  orthogonal box = (-420 -420 -420) to (420 420 420)
  1 by 1 by 1 MPI processor grid
  restoring pair style lj/cut from restart
  restoring bond style hybrid from restart
  restoring angle style cosine from restart
  14000 atoms
  14876 bonds
  13600 angles
Finding 1-2 1-3 1-4 neighbors ...
  special bond factors lj:   1          1          1         
  special bond factors coul: 0          0          0         
  3 = max # of 1-2 neighbors
  4 = max # of 1-3 neighbors
  8 = max # of 1-4 neighbors
  56 = max # of special neighbors
  special bonds CPU = 0.0146144 secs
  read_restart CPU = 1.78468 secs
Current file is Run2_tp_50000000.restart
Run2_tp_50000000.DATA
LAMMPS (5 Jun 2019)
Reading restart file ...
  restart file = 5 Jun 2019, LAMMPS = 5 Jun 2019
WARNING: Restart file used different # of processors (../read_restart.cpp:740)
  restoring atom style full from restart
  orthogonal box = (-420 -420 -420) to (420 420 420)
  1 by 1 by 1 MPI processor grid
  restoring pair style lj/cut from restart
  restoring bond style hybrid from restart
  restoring angle style cosine from restart
  14000 atoms
  14826 bonds
  13600 angles
Finding 1-2 1-3 1-4 neighbors ...
  special bond factors lj:   1          1          1         
  special bond factors coul: 0          0          0         
  3 = max # of 1-2 neighbors
  4 = max # of 1-3 neighbors
  8 = max # of 1-4 neighbors
  56 = max # of special neighbors
  special bonds CPU = 0.0159329 secs
  read_restart CPU = 0.270573 secs
Current file is Run3_tp_100000000.restart
Run3_tp_100000000.DATA
LAMMPS (5 Jun 2019)
Reading restart file ...
  restart file = 5 Jun 2019, LAMMPS = 5 Jun 2019
WARNING: Restart file used different # of processors (../read_restart.cpp:740)
  restoring atom style full from restart
  orthogonal box = (-420 -420 -420) to (420 420 420)
  1 by 1 by 1 MPI processor grid
  restoring pair style lj/cut from restart
  restoring bond style hybrid from restart
  restoring angle style cosine from restart
  14000 atoms
  14841 bonds
  13600 angles
Finding 1-2 1-3 1-4 neighbors ...
  special bond factors lj:   1          1          1         
  special bond factors coul: 0          0          0         
  3 = max # of 1-2 neighbors
  4 = max # of 1-3 neighbors
  8 = max # of 1-4 neighbors
  56 = max # of special neighbors
  special bonds CPU = 0.0159892 secs
  read_restart CPU = 1.87767 secs
Current file is Run3_tp_150000000.restart
Run3_tp_150000000.DATA
srun: Step created for StepId=23537543.24
LAMMPS (5 Jun 2019)
Reading restart file ...
  restart file = 5 Jun 2019, LAMMPS = 5 Jun 2019
WARNING: Restart file used different # of processors (../read_restart.cpp:740)
  restoring atom style full from restart
  orthogonal box = (-420 -420 -420) to (420 420 420)
  1 by 1 by 1 MPI processor grid
  restoring pair style lj/cut from restart
  restoring bond style hybrid from restart
  restoring angle style cosine from restart
  14000 atoms
  14877 bonds
  13600 angles
Finding 1-2 1-3 1-4 neighbors ...
  special bond factors lj:   1          1          1         
  special bond factors coul: 0          0          0         
  3 = max # of 1-2 neighbors
  4 = max # of 1-3 neighbors
  8 = max # of 1-4 neighbors
  56 = max # of special neighbors
  special bonds CPU = 0.0138437 secs
  read_restart CPU = 1.67442 secs
Current file is Run3_tp_200000000.restart
Run3_tp_200000000.DATA
LAMMPS (5 Jun 2019)
Reading restart file ...
  restart file = 5 Jun 2019, LAMMPS = 5 Jun 2019
WARNING: Restart file used different # of processors (../read_restart.cpp:740)
  restoring atom style full from restart
  orthogonal box = (-420 -420 -420) to (420 420 420)
  1 by 1 by 1 MPI processor grid
  restoring pair style lj/cut from restart
  restoring bond style hybrid from restart
  restoring angle style cosine from restart
  14000 atoms
  14872 bonds
  13600 angles
Finding 1-2 1-3 1-4 neighbors ...
  special bond factors lj:   1          1          1         
  special bond factors coul: 0          0          0         
  3 = max # of 1-2 neighbors
  4 = max # of 1-3 neighbors
  8 = max # of 1-4 neighbors
  56 = max # of special neighbors
  special bonds CPU = 0.014798 secs
  read_restart CPU = 0.137656 secs
Current file is Run3_tp_250000000.restart
Run3_tp_250000000.DATA
LAMMPS (5 Jun 2019)
Reading restart file ...
  restart file = 5 Jun 2019, LAMMPS = 5 Jun 2019
WARNING: Restart file used different # of processors (../read_restart.cpp:740)
  restoring atom style full from restart
  orthogonal box = (-420 -420 -420) to (420 420 420)
  1 by 1 by 1 MPI processor grid
  restoring pair style lj/cut from restart
  restoring bond style hybrid from restart
  restoring angle style cosine from restart
  14000 atoms
  14853 bonds
  13600 angles
Finding 1-2 1-3 1-4 neighbors ...
  special bond factors lj:   1          1          1         
  special bond factors coul: 0          0          0         
  3 = max # of 1-2 neighbors
  4 = max # of 1-3 neighbors
  8 = max # of 1-4 neighbors
  56 = max # of special neighbors
  special bonds CPU = 0.0137178 secs
  read_restart CPU = 1.21365 secs
Current file is Run3_tp_300000000.restart
Run3_tp_300000000.DATA
srun: Step created for StepId=23537543.27
LAMMPS (5 Jun 2019)
Reading restart file ...
  restart file = 5 Jun 2019, LAMMPS = 5 Jun 2019
WARNING: Restart file used different # of processors (../read_restart.cpp:740)
  restoring atom style full from restart
  orthogonal box = (-420 -420 -420) to (420 420 420)
  1 by 1 by 1 MPI processor grid
  restoring pair style lj/cut from restart
  restoring bond style hybrid from restart
  restoring angle style cosine from restart
  14000 atoms
  14946 bonds
  13600 angles
Finding 1-2 1-3 1-4 neighbors ...
  special bond factors lj:   1          1          1         
  special bond factors coul: 0          0          0         
  3 = max # of 1-2 neighbors
  4 = max # of 1-3 neighbors
  8 = max # of 1-4 neighbors
  56 = max # of special neighbors
  special bonds CPU = 0.0161882 secs
  read_restart CPU = 1.80691 secs
Current file is Run3_tp_350000000.restart
Run3_tp_350000000.DATA
srun: Step created for StepId=23537543.28
LAMMPS (5 Jun 2019)
Reading restart file ...
  restart file = 5 Jun 2019, LAMMPS = 5 Jun 2019
WARNING: Restart file used different # of processors (../read_restart.cpp:740)
  restoring atom style full from restart
  orthogonal box = (-420 -420 -420) to (420 420 420)
  1 by 1 by 1 MPI processor grid
  restoring pair style lj/cut from restart
  restoring bond style hybrid from restart
  restoring angle style cosine from restart
  14000 atoms
  14922 bonds
  13600 angles
Finding 1-2 1-3 1-4 neighbors ...
  special bond factors lj:   1          1          1         
  special bond factors coul: 0          0          0         
  3 = max # of 1-2 neighbors
  4 = max # of 1-3 neighbors
  8 = max # of 1-4 neighbors
  56 = max # of special neighbors
  special bonds CPU = 0.0154949 secs
  read_restart CPU = 0.283534 secs
Current file is Run3_tp_400000000.restart
Run3_tp_400000000.DATA
srun: Step created for StepId=23537543.29
LAMMPS (5 Jun 2019)
Reading restart file ...
  restart file = 5 Jun 2019, LAMMPS = 5 Jun 2019
WARNING: Restart file used different # of processors (../read_restart.cpp:740)
  restoring atom style full from restart
  orthogonal box = (-420 -420 -420) to (420 420 420)
  1 by 1 by 1 MPI processor grid
  restoring pair style lj/cut from restart
  restoring bond style hybrid from restart
  restoring angle style cosine from restart
  14000 atoms
  14932 bonds
  13600 angles
Finding 1-2 1-3 1-4 neighbors ...
  special bond factors lj:   1          1          1         
  special bond factors coul: 0          0          0         
  3 = max # of 1-2 neighbors
  4 = max # of 1-3 neighbors
  8 = max # of 1-4 neighbors
  56 = max # of special neighbors
  special bonds CPU = 0.0145362 secs
  read_restart CPU = 0.222528 secs
Current file is Run3_tp_450000000.restart
Run3_tp_450000000.DATA
LAMMPS (5 Jun 2019)
Reading restart file ...
  restart file = 5 Jun 2019, LAMMPS = 5 Jun 2019
WARNING: Restart file used different # of processors (../read_restart.cpp:740)
  restoring atom style full from restart
  orthogonal box = (-420 -420 -420) to (420 420 420)
  1 by 1 by 1 MPI processor grid
  restoring pair style lj/cut from restart
  restoring bond style hybrid from restart
  restoring angle style cosine from restart
  14000 atoms
  14911 bonds
  13600 angles
Finding 1-2 1-3 1-4 neighbors ...
  special bond factors lj:   1          1          1         
  special bond factors coul: 0          0          0         
  3 = max # of 1-2 neighbors
  4 = max # of 1-3 neighbors
  8 = max # of 1-4 neighbors
  56 = max # of special neighbors
  special bonds CPU = 0.0150788 secs
  read_restart CPU = 1.10107 secs
Current file is Run3_tp_500000000.restart
Run3_tp_500000000.DATA
srun: Step created for StepId=23537543.31
LAMMPS (5 Jun 2019)
Reading restart file ...
  restart file = 5 Jun 2019, LAMMPS = 5 Jun 2019
WARNING: Restart file used different # of processors (../read_restart.cpp:740)
  restoring atom style full from restart
  orthogonal box = (-420 -420 -420) to (420 420 420)
  1 by 1 by 1 MPI processor grid
  restoring pair style lj/cut from restart
  restoring bond style hybrid from restart
  restoring angle style cosine from restart
  14000 atoms
  14936 bonds
  13600 angles
Finding 1-2 1-3 1-4 neighbors ...
  special bond factors lj:   1          1          1         
  special bond factors coul: 0          0          0         
  3 = max # of 1-2 neighbors
  4 = max # of 1-3 neighbors
  8 = max # of 1-4 neighbors
  56 = max # of special neighbors
  special bonds CPU = 0.0140785 secs
  read_restart CPU = 1.71973 secs
Current file is Run3_tp_50000000.restart
Run3_tp_50000000.DATA
LAMMPS (5 Jun 2019)
Reading restart file ...
  restart file = 5 Jun 2019, LAMMPS = 5 Jun 2019
WARNING: Restart file used different # of processors (../read_restart.cpp:740)
  restoring atom style full from restart
  orthogonal box = (-420 -420 -420) to (420 420 420)
  1 by 1 by 1 MPI processor grid
  restoring pair style lj/cut from restart
  restoring bond style hybrid from restart
  restoring angle style cosine from restart
  14000 atoms
  14836 bonds
  13600 angles
Finding 1-2 1-3 1-4 neighbors ...
  special bond factors lj:   1          1          1         
  special bond factors coul: 0          0          0         
  3 = max # of 1-2 neighbors
  4 = max # of 1-3 neighbors
  8 = max # of 1-4 neighbors
  56 = max # of special neighbors
  special bonds CPU = 0.0138111 secs
  read_restart CPU = 0.284454 secs
Current file is Run4_tp_100000000.restart
Run4_tp_100000000.DATA
LAMMPS (5 Jun 2019)
Reading restart file ...
  restart file = 5 Jun 2019, LAMMPS = 5 Jun 2019
WARNING: Restart file used different # of processors (../read_restart.cpp:740)
  restoring atom style full from restart
  orthogonal box = (-420 -420 -420) to (420 420 420)
  1 by 1 by 1 MPI processor grid
  restoring pair style lj/cut from restart
  restoring bond style hybrid from restart
  restoring angle style cosine from restart
  14000 atoms
  14883 bonds
  13600 angles
Finding 1-2 1-3 1-4 neighbors ...
  special bond factors lj:   1          1          1         
  special bond factors coul: 0          0          0         
  3 = max # of 1-2 neighbors
  4 = max # of 1-3 neighbors
  8 = max # of 1-4 neighbors
  56 = max # of special neighbors
  special bonds CPU = 0.014075 secs
  read_restart CPU = 1.54173 secs
Current file is Run4_tp_150000000.restart
Run4_tp_150000000.DATA
LAMMPS (5 Jun 2019)
Reading restart file ...
  restart file = 5 Jun 2019, LAMMPS = 5 Jun 2019
WARNING: Restart file used different # of processors (../read_restart.cpp:740)
  restoring atom style full from restart
  orthogonal box = (-420 -420 -420) to (420 420 420)
  1 by 1 by 1 MPI processor grid
  restoring pair style lj/cut from restart
  restoring bond style hybrid from restart
  restoring angle style cosine from restart
  14000 atoms
  14925 bonds
  13600 angles
Finding 1-2 1-3 1-4 neighbors ...
  special bond factors lj:   1          1          1         
  special bond factors coul: 0          0          0         
  3 = max # of 1-2 neighbors
  4 = max # of 1-3 neighbors
  8 = max # of 1-4 neighbors
  56 = max # of special neighbors
  special bonds CPU = 0.0139832 secs
  read_restart CPU = 0.237357 secs
Current file is Run4_tp_200000000.restart
Run4_tp_200000000.DATA
srun: Step created for StepId=23537543.35
LAMMPS (5 Jun 2019)
Reading restart file ...
  restart file = 5 Jun 2019, LAMMPS = 5 Jun 2019
WARNING: Restart file used different # of processors (../read_restart.cpp:740)
  restoring atom style full from restart
  orthogonal box = (-420 -420 -420) to (420 420 420)
  1 by 1 by 1 MPI processor grid
  restoring pair style lj/cut from restart
  restoring bond style hybrid from restart
  restoring angle style cosine from restart
  14000 atoms
  14931 bonds
  13600 angles
Finding 1-2 1-3 1-4 neighbors ...
  special bond factors lj:   1          1          1         
  special bond factors coul: 0          0          0         
  3 = max # of 1-2 neighbors
  4 = max # of 1-3 neighbors
  8 = max # of 1-4 neighbors
  56 = max # of special neighbors
  special bonds CPU = 0.014272 secs
  read_restart CPU = 1.5355 secs
Current file is Run4_tp_250000000.restart
Run4_tp_250000000.DATA
LAMMPS (5 Jun 2019)
Reading restart file ...
  restart file = 5 Jun 2019, LAMMPS = 5 Jun 2019
WARNING: Restart file used different # of processors (../read_restart.cpp:740)
  restoring atom style full from restart
  orthogonal box = (-420 -420 -420) to (420 420 420)
  1 by 1 by 1 MPI processor grid
  restoring pair style lj/cut from restart
  restoring bond style hybrid from restart
  restoring angle style cosine from restart
  14000 atoms
  14894 bonds
  13600 angles
Finding 1-2 1-3 1-4 neighbors ...
  special bond factors lj:   1          1          1         
  special bond factors coul: 0          0          0         
  3 = max # of 1-2 neighbors
  4 = max # of 1-3 neighbors
  8 = max # of 1-4 neighbors
  56 = max # of special neighbors
  special bonds CPU = 0.0145537 secs
  read_restart CPU = 0.503526 secs
Current file is Run4_tp_300000000.restart
Run4_tp_300000000.DATA
LAMMPS (5 Jun 2019)
Reading restart file ...
  restart file = 5 Jun 2019, LAMMPS = 5 Jun 2019
WARNING: Restart file used different # of processors (../read_restart.cpp:740)
  restoring atom style full from restart
  orthogonal box = (-420 -420 -420) to (420 420 420)
  1 by 1 by 1 MPI processor grid
  restoring pair style lj/cut from restart
  restoring bond style hybrid from restart
  restoring angle style cosine from restart
  14000 atoms
  14900 bonds
  13600 angles
Finding 1-2 1-3 1-4 neighbors ...
  special bond factors lj:   1          1          1         
  special bond factors coul: 0          0          0         
  3 = max # of 1-2 neighbors
  4 = max # of 1-3 neighbors
  8 = max # of 1-4 neighbors
  56 = max # of special neighbors
  special bonds CPU = 0.0147218 secs
  read_restart CPU = 0.168121 secs
Current file is Run4_tp_350000000.restart
Run4_tp_350000000.DATA
srun: Step created for StepId=23537543.38
LAMMPS (5 Jun 2019)
Reading restart file ...
  restart file = 5 Jun 2019, LAMMPS = 5 Jun 2019
WARNING: Restart file used different # of processors (../read_restart.cpp:740)
  restoring atom style full from restart
  orthogonal box = (-420 -420 -420) to (420 420 420)
  1 by 1 by 1 MPI processor grid
  restoring pair style lj/cut from restart
  restoring bond style hybrid from restart
  restoring angle style cosine from restart
  14000 atoms
  14896 bonds
  13600 angles
Finding 1-2 1-3 1-4 neighbors ...
  special bond factors lj:   1          1          1         
  special bond factors coul: 0          0          0         
  3 = max # of 1-2 neighbors
  4 = max # of 1-3 neighbors
  8 = max # of 1-4 neighbors
  56 = max # of special neighbors
  special bonds CPU = 0.0143286 secs
  read_restart CPU = 0.13925 secs
Current file is Run4_tp_400000000.restart
Run4_tp_400000000.DATA
srun: Step created for StepId=23537543.39
LAMMPS (5 Jun 2019)
Reading restart file ...
  restart file = 5 Jun 2019, LAMMPS = 5 Jun 2019
WARNING: Restart file used different # of processors (../read_restart.cpp:740)
  restoring atom style full from restart
  orthogonal box = (-420 -420 -420) to (420 420 420)
  1 by 1 by 1 MPI processor grid
  restoring pair style lj/cut from restart
  restoring bond style hybrid from restart
  restoring angle style cosine from restart
  14000 atoms
  14923 bonds
  13600 angles
Finding 1-2 1-3 1-4 neighbors ...
  special bond factors lj:   1          1          1         
  special bond factors coul: 0          0          0         
  3 = max # of 1-2 neighbors
  4 = max # of 1-3 neighbors
  8 = max # of 1-4 neighbors
  56 = max # of special neighbors
  special bonds CPU = 0.0142193 secs
  read_restart CPU = 1.18775 secs
Current file is Run4_tp_450000000.restart
Run4_tp_450000000.DATA
LAMMPS (5 Jun 2019)
Reading restart file ...
  restart file = 5 Jun 2019, LAMMPS = 5 Jun 2019
WARNING: Restart file used different # of processors (../read_restart.cpp:740)
  restoring atom style full from restart
  orthogonal box = (-420 -420 -420) to (420 420 420)
  1 by 1 by 1 MPI processor grid
  restoring pair style lj/cut from restart
  restoring bond style hybrid from restart
  restoring angle style cosine from restart
  14000 atoms
  14931 bonds
  13600 angles
Finding 1-2 1-3 1-4 neighbors ...
  special bond factors lj:   1          1          1         
  special bond factors coul: 0          0          0         
  3 = max # of 1-2 neighbors
  4 = max # of 1-3 neighbors
  8 = max # of 1-4 neighbors
  56 = max # of special neighbors
  special bonds CPU = 0.0138247 secs
  read_restart CPU = 0.132128 secs
Current file is Run4_tp_500000000.restart
Run4_tp_500000000.DATA
srun: Step created for StepId=23537543.41
LAMMPS (5 Jun 2019)
Reading restart file ...
  restart file = 5 Jun 2019, LAMMPS = 5 Jun 2019
WARNING: Restart file used different # of processors (../read_restart.cpp:740)
  restoring atom style full from restart
  orthogonal box = (-420 -420 -420) to (420 420 420)
  1 by 1 by 1 MPI processor grid
  restoring pair style lj/cut from restart
  restoring bond style hybrid from restart
  restoring angle style cosine from restart
  14000 atoms
  14918 bonds
  13600 angles
Finding 1-2 1-3 1-4 neighbors ...
  special bond factors lj:   1          1          1         
  special bond factors coul: 0          0          0         
  3 = max # of 1-2 neighbors
  4 = max # of 1-3 neighbors
  8 = max # of 1-4 neighbors
  56 = max # of special neighbors
  special bonds CPU = 0.0148605 secs
  read_restart CPU = 1.41652 secs
Current file is Run4_tp_50000000.restart
Run4_tp_50000000.DATA
LAMMPS (5 Jun 2019)
Reading restart file ...
  restart file = 5 Jun 2019, LAMMPS = 5 Jun 2019
WARNING: Restart file used different # of processors (../read_restart.cpp:740)
  restoring atom style full from restart
  orthogonal box = (-420 -420 -420) to (420 420 420)
  1 by 1 by 1 MPI processor grid
  restoring pair style lj/cut from restart
  restoring bond style hybrid from restart
  restoring angle style cosine from restart
  14000 atoms
  14823 bonds
  13600 angles
Finding 1-2 1-3 1-4 neighbors ...
  special bond factors lj:   1          1          1         
  special bond factors coul: 0          0          0         
  3 = max # of 1-2 neighbors
  4 = max # of 1-3 neighbors
  8 = max # of 1-4 neighbors
  56 = max # of special neighbors
  special bonds CPU = 0.0154003 secs
  read_restart CPU = 0.237591 secs
Current file is Run5_tp_100000000.restart
Run5_tp_100000000.DATA
LAMMPS (5 Jun 2019)
Reading restart file ...
  restart file = 5 Jun 2019, LAMMPS = 5 Jun 2019
WARNING: Restart file used different # of processors (../read_restart.cpp:740)
  restoring atom style full from restart
  orthogonal box = (-420 -420 -420) to (420 420 420)
  1 by 1 by 1 MPI processor grid
  restoring pair style lj/cut from restart
  restoring bond style hybrid from restart
  restoring angle style cosine from restart
  14000 atoms
  14917 bonds
  13600 angles
Finding 1-2 1-3 1-4 neighbors ...
  special bond factors lj:   1          1          1         
  special bond factors coul: 0          0          0         
  3 = max # of 1-2 neighbors
  4 = max # of 1-3 neighbors
  8 = max # of 1-4 neighbors
  56 = max # of special neighbors
  special bonds CPU = 0.0134381 secs
  read_restart CPU = 0.215049 secs
Current file is Run5_tp_150000000.restart
Run5_tp_150000000.DATA
srun: Step created for StepId=23537543.44
LAMMPS (5 Jun 2019)
Reading restart file ...
  restart file = 5 Jun 2019, LAMMPS = 5 Jun 2019
WARNING: Restart file used different # of processors (../read_restart.cpp:740)
  restoring atom style full from restart
  orthogonal box = (-420 -420 -420) to (420 420 420)
  1 by 1 by 1 MPI processor grid
  restoring pair style lj/cut from restart
  restoring bond style hybrid from restart
  restoring angle style cosine from restart
  14000 atoms
  14910 bonds
  13600 angles
Finding 1-2 1-3 1-4 neighbors ...
  special bond factors lj:   1          1          1         
  special bond factors coul: 0          0          0         
  3 = max # of 1-2 neighbors
  4 = max # of 1-3 neighbors
  8 = max # of 1-4 neighbors
  56 = max # of special neighbors
  special bonds CPU = 0.0135375 secs
  read_restart CPU = 1.87706 secs
Current file is Run5_tp_200000000.restart
Run5_tp_200000000.DATA
LAMMPS (5 Jun 2019)
Reading restart file ...
  restart file = 5 Jun 2019, LAMMPS = 5 Jun 2019
WARNING: Restart file used different # of processors (../read_restart.cpp:740)
  restoring atom style full from restart
  orthogonal box = (-420 -420 -420) to (420 420 420)
  1 by 1 by 1 MPI processor grid
  restoring pair style lj/cut from restart
  restoring bond style hybrid from restart
  restoring angle style cosine from restart
  14000 atoms
  14927 bonds
  13600 angles
Finding 1-2 1-3 1-4 neighbors ...
  special bond factors lj:   1          1          1         
  special bond factors coul: 0          0          0         
  3 = max # of 1-2 neighbors
  4 = max # of 1-3 neighbors
  8 = max # of 1-4 neighbors
  56 = max # of special neighbors
  special bonds CPU = 0.0143698 secs
  read_restart CPU = 0.203322 secs
Current file is Run5_tp_250000000.restart
Run5_tp_250000000.DATA
srun: Step created for StepId=23537543.46
LAMMPS (5 Jun 2019)
Reading restart file ...
  restart file = 5 Jun 2019, LAMMPS = 5 Jun 2019
WARNING: Restart file used different # of processors (../read_restart.cpp:740)
  restoring atom style full from restart
  orthogonal box = (-420 -420 -420) to (420 420 420)
  1 by 1 by 1 MPI processor grid
  restoring pair style lj/cut from restart
  restoring bond style hybrid from restart
  restoring angle style cosine from restart
  14000 atoms
  14897 bonds
  13600 angles
Finding 1-2 1-3 1-4 neighbors ...
  special bond factors lj:   1          1          1         
  special bond factors coul: 0          0          0         
  3 = max # of 1-2 neighbors
  4 = max # of 1-3 neighbors
  8 = max # of 1-4 neighbors
  56 = max # of special neighbors
  special bonds CPU = 0.0148641 secs
  read_restart CPU = 0.906722 secs
Current file is Run5_tp_300000000.restart
Run5_tp_300000000.DATA
LAMMPS (5 Jun 2019)
Reading restart file ...
  restart file = 5 Jun 2019, LAMMPS = 5 Jun 2019
WARNING: Restart file used different # of processors (../read_restart.cpp:740)
  restoring atom style full from restart
  orthogonal box = (-420 -420 -420) to (420 420 420)
  1 by 1 by 1 MPI processor grid
  restoring pair style lj/cut from restart
  restoring bond style hybrid from restart
  restoring angle style cosine from restart
  14000 atoms
  14869 bonds
  13600 angles
Finding 1-2 1-3 1-4 neighbors ...
  special bond factors lj:   1          1          1         
  special bond factors coul: 0          0          0         
  3 = max # of 1-2 neighbors
  4 = max # of 1-3 neighbors
  8 = max # of 1-4 neighbors
  56 = max # of special neighbors
  special bonds CPU = 0.0160951 secs
  read_restart CPU = 0.165782 secs
Current file is Run5_tp_350000000.restart
Run5_tp_350000000.DATA
srun: Step created for StepId=23537543.48
LAMMPS (5 Jun 2019)
Reading restart file ...
  restart file = 5 Jun 2019, LAMMPS = 5 Jun 2019
WARNING: Restart file used different # of processors (../read_restart.cpp:740)
  restoring atom style full from restart
  orthogonal box = (-420 -420 -420) to (420 420 420)
  1 by 1 by 1 MPI processor grid
  restoring pair style lj/cut from restart
  restoring bond style hybrid from restart
  restoring angle style cosine from restart
  14000 atoms
  14924 bonds
  13600 angles
Finding 1-2 1-3 1-4 neighbors ...
  special bond factors lj:   1          1          1         
  special bond factors coul: 0          0          0         
  3 = max # of 1-2 neighbors
  4 = max # of 1-3 neighbors
  8 = max # of 1-4 neighbors
  56 = max # of special neighbors
  special bonds CPU = 0.0135998 secs
  read_restart CPU = 0.277681 secs
Current file is Run5_tp_400000000.restart
Run5_tp_400000000.DATA
srun: Step created for StepId=23537543.49
LAMMPS (5 Jun 2019)
Reading restart file ...
  restart file = 5 Jun 2019, LAMMPS = 5 Jun 2019
WARNING: Restart file used different # of processors (../read_restart.cpp:740)
  restoring atom style full from restart
  orthogonal box = (-420 -420 -420) to (420 420 420)
  1 by 1 by 1 MPI processor grid
  restoring pair style lj/cut from restart
  restoring bond style hybrid from restart
  restoring angle style cosine from restart
  14000 atoms
  14905 bonds
  13600 angles
Finding 1-2 1-3 1-4 neighbors ...
  special bond factors lj:   1          1          1         
  special bond factors coul: 0          0          0         
  3 = max # of 1-2 neighbors
  4 = max # of 1-3 neighbors
  8 = max # of 1-4 neighbors
  56 = max # of special neighbors
  special bonds CPU = 0.0164592 secs
  read_restart CPU = 0.49063 secs
Current file is Run5_tp_450000000.restart
Run5_tp_450000000.DATA
LAMMPS (5 Jun 2019)
Reading restart file ...
  restart file = 5 Jun 2019, LAMMPS = 5 Jun 2019
WARNING: Restart file used different # of processors (../read_restart.cpp:740)
  restoring atom style full from restart
  orthogonal box = (-420 -420 -420) to (420 420 420)
  1 by 1 by 1 MPI processor grid
  restoring pair style lj/cut from restart
  restoring bond style hybrid from restart
  restoring angle style cosine from restart
  14000 atoms
  14929 bonds
  13600 angles
Finding 1-2 1-3 1-4 neighbors ...
  special bond factors lj:   1          1          1         
  special bond factors coul: 0          0          0         
  3 = max # of 1-2 neighbors
  4 = max # of 1-3 neighbors
  8 = max # of 1-4 neighbors
  56 = max # of special neighbors
  special bonds CPU = 0.0144267 secs
  read_restart CPU = 0.153727 secs
Current file is Run5_tp_500000000.restart
Run5_tp_500000000.DATA
srun: Step created for StepId=23537543.51
LAMMPS (5 Jun 2019)
Reading restart file ...
  restart file = 5 Jun 2019, LAMMPS = 5 Jun 2019
WARNING: Restart file used different # of processors (../read_restart.cpp:740)
  restoring atom style full from restart
  orthogonal box = (-420 -420 -420) to (420 420 420)
  1 by 1 by 1 MPI processor grid
  restoring pair style lj/cut from restart
  restoring bond style hybrid from restart
  restoring angle style cosine from restart
  14000 atoms
  14955 bonds
  13600 angles
Finding 1-2 1-3 1-4 neighbors ...
  special bond factors lj:   1          1          1         
  special bond factors coul: 0          0          0         
  3 = max # of 1-2 neighbors
  4 = max # of 1-3 neighbors
  8 = max # of 1-4 neighbors
  56 = max # of special neighbors
  special bonds CPU = 0.0136211 secs
  read_restart CPU = 1.1231 secs
Current file is Run5_tp_50000000.restart
Run5_tp_50000000.DATA
srun: Step created for StepId=23537543.52
LAMMPS (5 Jun 2019)
Reading restart file ...
  restart file = 5 Jun 2019, LAMMPS = 5 Jun 2019
WARNING: Restart file used different # of processors (../read_restart.cpp:740)
  restoring atom style full from restart
  orthogonal box = (-420 -420 -420) to (420 420 420)
  1 by 1 by 1 MPI processor grid
  restoring pair style lj/cut from restart
  restoring bond style hybrid from restart
  restoring angle style cosine from restart
  14000 atoms
  14845 bonds
  13600 angles
Finding 1-2 1-3 1-4 neighbors ...
  special bond factors lj:   1          1          1         
  special bond factors coul: 0          0          0         
  3 = max # of 1-2 neighbors
  4 = max # of 1-3 neighbors
  8 = max # of 1-4 neighbors
  56 = max # of special neighbors
  special bonds CPU = 0.0154824 secs
  read_restart CPU = 0.92044 secs
