LAMMPS (5 Jun 2019)
Reading data file ...
  orthogonal box = (-420 -420 -420) to (420 420 420)
  2 by 2 by 7 MPI processor grid
  reading atoms ...
  14000 atoms
  scanning bonds ...
  51 = max bonds/atom
  scanning angles ...
  1 = max angles/atom
  reading bonds ...
  13800 bonds
  reading angles ...
  13600 angles
Finding 1-2 1-3 1-4 neighbors ...
  special bond factors lj:   0          0          0         
  special bond factors coul: 0          0          0         
  2 = max # of 1-2 neighbors
  2 = max # of 1-3 neighbors
  4 = max # of 1-4 neighbors
  56 = max # of special neighbors
  special bonds CPU = 0.00202121 secs
  read_data CPU = 0.0800441 secs
Finding 1-2 1-3 1-4 neighbors ...
  special bond factors lj:   1          1          1         
  special bond factors coul: 0          0          0         
  2 = max # of 1-2 neighbors
  2 = max # of 1-3 neighbors
  4 = max # of 1-4 neighbors
  56 = max # of special neighbors
  special bonds CPU = 0.000743123 secs
WARNING: Using 'neigh_modify every 1 delay 0 check yes' setting during minimization (../min.cpp:168)
Neighbor list info ...
  update every 1 steps, delay 0 steps, check yes
  max neighbors/atom: 2000, page size: 100000
  master list distance cutoff = 26.9
  ghost atom cutoff = 26.9
  binsize = 13.45, bins = 63 63 63
  1 neighbor lists, perpetual/occasional/extra = 1 0 0
  (1) pair lj/cut, perpetual
      attributes: half, newton on
      pair build: half/bin/newton
      stencil: half/bin/3d/newton
      bin: standard
Setting up cg style minimization ...
  Unit style    : real
  Current step  : 0
Per MPI rank memory allocation (min/avg/max) = 1.165 | 13.79 | 17.67 Mbytes
Step Temp E_pair E_mol TotEng Press 
       0            0 1.5959422e+12      2649600 1.5959449e+12 7.3854599e+08 
    2872            0   -1769.6168    5348.8369    3579.2201  0.031182827 
Loop time of 0.652295 on 28 procs for 2872 steps with 14000 atoms

98.8% CPU use with 28 MPI tasks x no OpenMP threads

Minimization stats:
  Stopping criterion = energy tolerance
  Energy initial, next-to-last, final = 
     1.59594489115e+12      3579.56365059      3579.22009235
  Force two-norm initial, final = 4.92929e+10 2.03587
  Force max component initial, final = 1.05441e+09 0.154693
  Final line search alpha, max atom move = 0.461827 0.0714414
  Iterations, force evaluations = 2872 3119

MPI task timing breakdown:
Section |  min time  |  avg time  |  max time  |%varavg| %total
---------------------------------------------------------------
Pair    | 0.043021   | 0.14604    | 0.26876    |  17.6 | 22.39
Bond    | 0.014432   | 0.039927   | 0.072119   |   8.4 |  6.12
Neigh   | 0.08995    | 0.091172   | 0.092415   |   0.2 | 13.98
Comm    | 0.09258    | 0.22951    | 0.37012    |  16.8 | 35.19
Output  | 0          | 0          | 0          |   0.0 |  0.00
Modify  | 0          | 0          | 0          |   0.0 |  0.00
Other   |            | 0.1456     |            |       | 22.33

Nlocal:    500 ave 911 max 179 min
Histogram: 3 3 4 4 5 0 2 3 2 2
Nghost:    314.393 ave 518 max 130 min
Histogram: 3 2 3 3 4 4 3 3 2 1
Neighs:    3173.18 ave 5987 max 902 min
Histogram: 3 2 6 3 5 0 1 3 3 2

Total # of neighbors = 88849
Ave neighs/atom = 6.34636
Ave special neighs/atom = 5.82857
Neighbor list builds = 199
Dangerous builds = 0
Setting up Verlet run ...
  Unit style    : real
  Current step  : 2872
  Time step     : 0.1
Per MPI rank memory allocation (min/avg/max) = 1.127 | 13.42 | 16.54 Mbytes
Step Temp E_pair E_mol TotEng Press 
    2872            0   -1769.6168    5348.8369    3579.2201  0.031182827 
   12872    221.37907   -1492.5675    9121.2709    16866.489   -1.7569462 
Loop time of 1.39342 on 28 procs for 10000 steps with 14000 atoms

Performance: 62.006 ns/day, 0.387 hours/ns, 7176.587 timesteps/s
99.4% CPU use with 28 MPI tasks x no OpenMP threads

MPI task timing breakdown:
Section |  min time  |  avg time  |  max time  |%varavg| %total
---------------------------------------------------------------
Pair    | 0.046442   | 0.17551    | 0.38489    |  21.8 | 12.60
Bond    | 0.037759   | 0.11076    | 0.20592    |  14.0 |  7.95
Neigh   | 0.001922   | 0.0019797  | 0.0020627  |   0.1 |  0.14
Comm    | 0.28112    | 0.5319     | 0.74561    |  18.2 | 38.17
Output  | 4.0132e-05 | 6.5413e-05 | 8.5707e-05 |   0.0 |  0.00
Modify  | 0.093976   | 0.25813    | 0.47327    |  20.6 | 18.52
Other   |            | 0.3151     |            |       | 22.61

Nlocal:    500 ave 913 max 179 min
Histogram: 3 3 4 4 5 0 2 3 2 2
Nghost:    314.786 ave 512 max 134 min
Histogram: 3 3 2 3 3 4 4 2 3 1
Neighs:    3182.82 ave 6017 max 898 min
Histogram: 3 2 5 4 5 1 0 3 3 2

Total # of neighbors = 89119
Ave neighs/atom = 6.36564
Ave special neighs/atom = 5.82857
Neighbor list builds = 4
Dangerous builds = 0
4000 atoms in group rxnSites
Neighbor list info ...
  update every 1 steps, delay 1 steps, check yes
  max neighbors/atom: 2000, page size: 100000
  master list distance cutoff = 26.9
  ghost atom cutoff = 26.9
  binsize = 13.45, bins = 63 63 63
  2 neighbor lists, perpetual/occasional/extra = 1 1 0
  (1) pair lj/cut, perpetual
      attributes: half, newton on
      pair build: half/bin/newton
      stencil: half/bin/3d/newton
      bin: standard
  (2) fix bond/create/random, occasional, copy from (1)
      attributes: half, newton on
      pair build: copy
      stencil: none
      bin: none
Setting up Verlet run ...
  Unit style    : real
  Current step  : 0
  Time step     : 25
Per MPI rank memory allocation (min/avg/max) = 17.76 | 18.29 | 18.84 Mbytes
Step E_pair PotEng KinEng E_bond E_angle Temp Bonds 
       0   -1492.5675    7628.7034    9237.7857    3041.2785    6079.9924    221.37907    13800 
 1000000   -287.65901    8399.4294    12936.892    685.27543     8001.813    310.02636    14869 
 2000000   -289.53463    7889.2584    12784.681    71.907153    8106.8859     306.3787    15034 
 3000000   -258.03131    7510.6958     12961.42   -302.17356    8070.9007    310.61418    15139 
 4000000   -285.53724    7256.2574    12928.397   -433.45232    7975.2469     309.8228    15206 
 5000000   -265.46539    7074.0165    12910.857   -642.03059    7981.5125    309.40245    15259 
 6000000   -258.75836    6943.4173    12935.355   -700.94569    7903.1214    309.98954    15294 
 7000000   -265.42062    6854.1151    12918.509    -921.1578    8040.6935    309.58583    15332 
 8000000   -268.32557    6814.1057     12917.14   -920.50468     8002.936    309.55303    15326 
 9000000   -285.35278    6748.0403    12991.833   -987.51816    8020.9113    311.34301    15368 
10000000    -288.1379    6670.6337    12905.207   -1096.9472    8055.7188    309.26706    15389 
11000000   -229.61862    6665.2655     12856.88   -1059.0001    7953.8842    308.10892    15379 
12000000   -286.79659    6577.4544    12893.394   -1122.2723    7986.5233    308.98396    15408 
13000000   -240.26797    6598.5663     12952.04   -1145.8387    7984.6729     310.3894    15417 
14000000   -268.29249    6548.7308    13192.337   -1108.1588    7925.1821      316.148    15409 
15000000   -253.95237    6780.9456    12923.406   -966.32447    8001.2224    309.70319    15384 
16000000   -272.62151    6422.5946    12873.208   -1186.4529    7881.6691    308.50022    15412 
17000000   -275.51897    6697.1474    13060.891   -1054.2216     8026.888    312.99795    15408 
18000000   -253.98235    6489.0114     12987.42   -1239.5076    7982.5013    311.23725    15422 
19000000   -262.45264    6341.5462    12902.083    -1319.013    7923.0119    309.19218    15443 
20000000   -274.34044    6534.5142    12833.535   -1165.6661    7974.5207    307.54948    15419 
21000000   -266.81611    6370.0898    13034.308   -1269.8673    7906.7733     312.3609    15429 
22000000   -245.50817      6439.15    12781.196   -1265.1633    7949.8215    306.29518    15474 
23000000   -240.12706    6394.6591    13090.335   -1335.3733    7970.1595    313.70356    15481 
24000000   -255.56431     6454.923    13002.268   -1261.4216     7971.909    311.59307    15464 
25000000   -243.51465      6393.16    12908.471   -1342.8803     7979.555    309.34527    15484 
26000000   -257.57735    6221.9876    12904.328   -1493.6214    7973.1863      309.246    15507 
27000000   -259.67299    6312.3096    13085.845   -1388.2433    7960.2259    313.59596    15488 
28000000   -270.22741    6387.0806    12976.326   -1411.2628    8068.5707    310.97139    15490 
29000000    -220.3639     6338.163    12976.554   -1389.2734    7947.8003    310.97686    15489 
30000000   -264.51792    6418.6173    12972.137    -1419.656    8102.7912    310.87099    15495 
31000000   -252.09242    6350.5054    12826.176   -1421.2663    8023.8641    307.37312    15505 
32000000   -258.75725    6427.1074    13039.333   -1325.5607    8011.4254    312.48131    15489 
33000000   -243.86504     6155.119    12861.339    -1578.702    7977.6861    308.21578    15516 
34000000   -245.09575    6167.0277    12923.152   -1545.4656     7957.589     309.6971    15526 
35000000   -248.68053    6147.1531    13004.217   -1504.2529    7900.0865    311.63979    15531 
36000000   -283.54119    6315.1261    13014.588   -1520.6109    8119.2783    311.88832    15547 
37000000   -214.28148    6146.3434    13001.101   -1571.8807    7932.5056    311.56511    15537 
38000000   -242.80678     5990.223    12906.561   -1657.0336    7890.0633    309.29951    15533 
39000000   -275.67011    6280.0435    12868.807   -1501.0083    8056.7219    308.39475    15528 
40000000   -275.82684    6234.0607    12837.965   -1592.6284    8102.5159    307.65563    15552 
41000000   -258.58521    6214.9455    12929.509   -1514.1786    7987.7093    309.84943    15536 
42000000   -271.18058    6171.8159    13046.288   -1553.5882    7996.5848    312.64798    15521 
43000000   -281.86642    6281.5816     13009.17   -1461.3837    8024.8317    311.75849    15530 
44000000   -278.87032     6285.381    12967.657   -1503.2689    8067.5202    310.76364    15537 
45000000   -263.53919    6059.1943    12971.009   -1567.4664    7890.1999    310.84397    15551 
46000000   -299.86893    5969.3629    12918.875   -1646.2735    7915.5053     309.5946    15557 
47000000   -272.87681    6019.5098    12870.741   -1586.9883    7879.3749    308.44109    15543 
48000000   -237.32868    6115.0404     13014.14    -1650.561    8002.9301    311.87758    15543 
49000000   -258.43394    6062.4582    12840.597   -1611.7601    7932.6523    307.71871    15531 
50000000   -266.32665    6275.9391     12949.63   -1474.6349    8016.9007    310.33162    15542 
51000000   -260.40264    5921.1925    13053.072   -1738.6495    7920.2446    312.81056    15575 
52000000   -267.56873    5998.0107    12925.201   -1722.9622    7988.5416    309.74621    15571 
53000000   -274.08968    6093.1493    13080.621   -1484.7164    7851.9554    313.47077    15555 
54000000   -231.82546    6066.0194    13040.933   -1689.8628    7987.7076    312.51965    15565 
55000000   -261.78604     5990.159     13016.91   -1678.0991    7930.0441    311.94397    15566 
56000000   -268.19625    6056.3523    12911.114     -1668.19    7992.7385    309.40862    15580 
57000000   -270.55468    6119.8836    12787.074   -1627.7419    8018.1802    306.43606    15550 
58000000   -269.61262    6129.2661    12878.694    -1656.764    8055.6428    308.63168    15563 
59000000   -245.15716    6232.0211    12829.902   -1578.5377     8055.716     307.4624    15562 
60000000    -252.1912    6093.1469    13024.254   -1587.0918    7932.4299    312.11997    15539 
61000000   -273.82098    6012.6903    12989.499   -1683.6536    7970.1649    311.28706    15578 
62000000   -275.78946    6026.3292    13107.567   -1690.4288    7992.5474    314.11651    15569 
63000000   -291.49832     6040.958      12943.1   -1715.5279    8047.9842    310.17513    15583 
64000000   -266.26676    6260.8467    13025.384   -1547.0042    8074.1177    312.14705    15548 
65000000   -282.68587    6128.5162    12793.536   -1668.7299     8079.932    306.59092    15546 
66000000   -259.70588    6062.0425    12953.585   -1665.0376     7986.786    310.42641    15558 
67000000   -268.53116     6077.622    12962.522   -1645.9205    7992.0736    310.64057    15581 
68000000   -287.30557    6183.7442     12923.93   -1566.7931    8037.8429    309.71575    15547 
69000000   -263.19405    6178.1194    12800.198   -1629.7368    8071.0503    306.75058    15567 
70000000   -260.12318    6111.5672    12912.995   -1589.8423    7961.5327    309.45368    15561 
71000000    -263.1253    6180.1386    12903.235     -1531.21    7974.4739    309.21979    15553 
72000000   -244.30505    5919.6003    12846.464   -1794.1274    7958.0328    307.85932    15584 
73000000   -272.90129     6198.161    12980.234   -1600.2056    8071.2679    311.06504    15562 
74000000   -282.17123    6120.8796    12820.551   -1631.2171    8034.2679    307.23832    15577 
75000000   -284.12965     6041.558    13034.789   -1717.0861    8042.7738    312.37242    15574 
76000000    -261.4926    6067.5903    12794.598    -1578.081    7907.1639    306.61635    15562 
77000000   -296.47606    6152.3985     12849.27   -1609.8195     8058.694    307.92654    15550 
78000000   -268.32233    6086.5584    13035.131   -1630.2386    7985.1193    312.38062    15555 
79000000   -271.17298     6112.155    12749.121   -1583.2647    7966.5927    305.52653    15569 
80000000   -252.14795    5936.2078    12993.759   -1701.0793     7889.435    311.38916    15577 
81000000   -293.97374    6002.6405    12936.585   -1562.0364    7858.6507      310.019    15586 
82000000   -241.92789    5951.0043    12875.325   -1789.6173    7982.5494    308.55095    15606 
83000000   -258.60528    6073.3346    12916.104   -1698.3311     8030.271     309.5282    15546 
84000000   -279.34831    5995.8474    12917.426   -1707.6424    7982.8382    309.55988    15564 
85000000     -288.955    6270.7751    12912.887   -1561.8738    8121.6038    309.45112    15566 
86000000   -284.46255    6137.6725    12839.509   -1546.6064    7968.7414    307.69263    15540 
87000000    -253.7088     6083.077    13082.823   -1601.0628    7937.8487    313.52354    15553 
88000000   -279.80307    6009.3618    12774.774   -1677.0629    7966.2277    306.14129    15577 
89000000   -271.57243    5978.0774    13171.503   -1660.4974    7910.1472    315.64872    15545 
90000000   -255.02012    6050.5032    12957.768   -1707.9869    8013.5102    310.52666    15541 
91000000   -289.19521    6050.3306    12912.091   -1659.9777    7999.5035    309.43202    15565 
92000000   -289.06208    6371.4613    12942.154   -1497.2275    8157.7509    310.15247    15538 
93000000   -278.60176     6187.762    13090.056   -1486.5303     7952.894    313.69686    15539 
94000000   -291.79429    6028.8625    12982.776   -1644.4561    7965.1129    311.12596    15576 
95000000   -259.28046    6226.2277    12878.174   -1643.2454    8128.7535    308.61923    15549 
96000000   -283.35644     6342.014    12971.326    -1436.492    8061.8624    310.85156    15540 
97000000   -277.31767    6218.5487    12851.732    -1559.714    8055.5804    307.98555    15540 
98000000   -238.22803     6162.305    12937.083   -1584.2669    7984.7999    310.03096    15533 
99000000   -288.11668     6182.101    12803.786   -1655.8066    8126.0243    306.83655    15560 
100000000    -279.1833    6058.5907    12925.356   -1552.8489    7890.6229    309.74991    15552 
101000000   -265.74704    6074.2726    12843.849   -1558.6037    7898.6233    307.79664    15550 
102000000    -265.3737    6081.2335    12863.516   -1653.2836    7999.8908    308.26796    15566 
103000000   -274.74196    6079.4478     13001.67   -1584.2913    7938.4811    311.57876    15554 
104000000   -243.66893    6038.2892    12902.622   -1700.8075    7982.7657     309.2051    15574 
105000000   -266.93099    6233.3418    12914.469   -1528.6488    8028.9216    309.48901    15539 
106000000   -266.19547    5892.4983    12923.549   -1826.9092    7985.6029    309.70661    15593 
107000000   -274.79938    6130.4631     12877.96   -1639.0754    8044.3379    308.61409    15577 
108000000   -270.54559     6037.964     12691.48   -1634.8921    7943.4017     304.1452    15548 
109000000   -265.85625    6118.4504    12983.934   -1570.8113    7955.1179    311.15372    15552 
110000000   -244.68295    6193.4686     12987.72   -1576.5695     8014.721    311.24443    15539 
111000000   -255.57433    5947.1543     12929.52   -1658.2389    7860.9676     309.8497    15561 
112000000   -266.62019    6000.2923    13111.364   -1627.4676    7894.3801     314.2075    15554 
113000000   -257.33749    5821.6631     12944.94   -1840.6465    7919.6471    310.21923    15565 
114000000   -264.04458    6034.4244    12846.437   -1645.8078    7944.2768    307.85865    15554 
115000000   -266.38683     6052.333    12950.777   -1593.4715    7912.1914    310.35913    15563 
116000000   -259.46087    5974.5448    12997.255   -1707.6601    7941.6658    311.47294    15575 
117000000   -264.99052    6030.4157    13044.515   -1687.4525    7982.8587    312.60551    15562 
118000000   -276.10428    5941.7688    12772.602   -1699.8102    7917.6833    306.08925    15559 
119000000   -252.40015    5981.5018    12942.993   -1711.1594    7945.0613    310.17258    15567 
120000000   -282.20803    6159.1112    12969.395   -1545.4797    7986.7989    310.80528    15560 
121000000   -272.95868    6087.8715    12991.594   -1674.5091    8035.3392    311.33727    15547 
122000000   -295.18322    6024.8603    12879.593   -1627.3647    7947.4083    308.65324    15533 
123000000   -267.72712    6271.4453    12959.721   -1488.4492    8027.6216    310.57347    15552 
124000000   -258.69522    6248.4117    12912.594   -1585.4574    8092.5643    309.44408    15553 
125000000   -253.87196    6248.4553    12947.557   -1605.0444    8107.3717    310.28195    15551 
126000000   -249.18719    6128.6878    12970.459   -1664.3136    8042.1887    310.83079    15582 
127000000    -257.8852    6151.8642    12923.408   -1651.6638    8061.4133    309.70323    15563 
128000000   -267.50931    6139.9575    13061.546   -1615.7397    8023.2065    313.01364    15573 
129000000   -294.00755    6183.5458    13052.129   -1563.2189    8040.7723    312.78798    15558 
130000000   -282.44784    6079.0466    13062.132   -1673.8982    8035.3927    313.02768    15572 
131000000   -303.19466    6129.9292    12878.461   -1560.6328    7993.7566    308.62611    15544 
132000000   -241.71725    6214.1883    12968.336   -1535.8257    7991.7313     310.7799    15565 
133000000   -269.81012    6044.3497    12880.768   -1755.1917    8069.3515    308.68138    15570 
134000000   -255.62114    6200.5703    12935.606    -1650.762    8106.9535    309.99554    15553 
135000000   -280.94078     5939.206    12970.248   -1818.6233    8038.7701    310.82573    15599 
136000000   -257.39039    6143.0563    12951.899   -1606.1479    8006.5946      310.386    15556 
137000000   -271.31391    6043.1788    12779.253   -1651.7725    7966.2652    306.24864    15555 
138000000   -261.39745    6153.6725    12874.117   -1574.9506    7990.0205      308.522    15565 
139000000    -237.0926    6173.7977    12992.748   -1643.4386    8054.3289    311.36494    15563 
140000000   -231.14372    6085.2657    12888.827   -1656.9166     7973.326    308.87452    15576 
141000000    -265.0831    5950.1949    12962.621   -1737.2914    7952.5695    310.64295    15576 
142000000   -255.89431     5956.688    12920.418   -1714.1047     7926.687    309.63158    15573 
143000000   -246.69473    5980.7309    13017.719   -1719.4813    7946.9069    311.96335    15588 
144000000   -292.86971    5993.7034    12829.989   -1761.8718    8048.4449     307.4645    15585 
145000000   -285.25263     6069.838    12985.653   -1693.1055    8048.1961    311.19491    15574 
146000000    -277.1904    6142.5844    12795.118   -1672.0083    8091.7831    306.62883    15587 
147000000   -273.66071     6165.011    12797.344    -1555.583    7994.2547    306.68216    15578 
148000000   -285.18091    5942.7073    13044.049   -1771.6568     7999.545    312.59435    15573 
149000000   -273.41837    6095.7834    13034.373   -1557.0273    7926.2292    312.36247    15576 
150000000   -267.92492    6088.7876    12798.029   -1701.1875    8057.9001    306.69859    15582 
151000000   -268.32568    6105.1599    12947.353   -1742.1869    8115.6725    310.27707    15598 
152000000   -251.23262    6011.4712    12966.029   -1675.0145    7937.7183    310.72463    15579 
153000000   -284.42577    6178.5633    12925.557   -1601.2733    8064.2624    309.75474    15567 
154000000   -270.80924    6099.4755    12905.551   -1611.5982    7981.8829    309.27531    15549 
155000000   -246.61171    6009.9814      12954.6   -1655.3241    7911.9172    310.45074    15572 
156000000   -260.90416    5821.1031    12832.092   -1831.3153    7913.3225    307.51488    15611 
157000000   -287.52553    6125.0956    13009.654   -1608.4598     8021.081    311.77007    15555 
158000000   -249.53061    6112.8582    12963.347   -1660.4608    8022.8496    310.66036    15582 
159000000   -299.36094    6059.0378    13060.966   -1732.4646    8090.8633    312.99974    15587 
160000000   -236.84626    6001.1875     12862.24   -1758.2437    7996.2775    308.23738    15586 
161000000   -293.87096    5939.5359    13080.891   -1691.0526    7924.4595    313.47724    15595 
162000000   -272.71078    6067.9025    12921.625    -1693.881    8034.4943    309.66051    15577 
163000000   -276.69553    6204.3831    12886.628   -1555.4325    8036.5112    308.82182    15560 
164000000    -245.1063    6037.8266    12910.039   -1612.8616    7895.7945    309.38285    15567 
165000000   -263.77016    5996.3232    13125.318   -1656.5169    7916.6102     314.5419    15569 
166000000   -281.33707    6096.7014    13087.186   -1606.9404    7984.9788    313.62809    15570 
167000000    -259.3889    6231.0844    12965.115   -1515.4924    8005.9658    310.70271    15549 
168000000   -263.34561    6236.6773    13029.763   -1530.1222    8030.1452    312.25198    15546 
169000000    -275.4892    6181.7343    12960.745   -1597.4007    8054.6242    310.59799    15550 
170000000   -261.38384    6105.8961    12800.176   -1764.0228    8131.3028    306.75005    15584 
171000000   -267.42497    6145.6006    12921.817   -1587.7938    8000.8194    309.66511    15546 
172000000   -265.88524    6161.0709    12980.154   -1582.5771    8009.5332    311.06312    15541 
173000000    -273.7158    6076.4951    12907.501   -1708.7928    8059.0037    309.32202    15566 
174000000   -264.67247     6089.194     13193.77   -1623.1556    7977.0221    316.18233    15571 
175000000   -273.58271    5926.0481    12831.098   -1730.2021    7929.8329    307.49106    15579 
176000000   -266.20014    6044.9995    12924.135   -1653.7232    7964.9228    309.72065    15568 
177000000   -251.70471    5973.9631    12983.874   -1818.8479    8044.5157    311.15228    15596 
178000000   -235.84627    5950.4544    12916.067   -1666.1881    7852.4888    309.52731    15581 
179000000   -301.72729    6143.0422     12931.24   -1621.8818    8066.6513    309.89091    15570 
180000000   -253.54412    6111.4741    13005.036   -1572.2103    7937.2286    311.65942    15578 
181000000   -276.80856     6015.661    12863.907   -1663.2441    7955.7136    308.27733    15577 
182000000   -272.54282    6096.5471    13076.447   -1696.6125    8065.7024    313.37073    15566 
183000000   -263.58504    6145.9049    12932.484   -1526.9407    7936.4306    309.92074    15556 
184000000   -261.71461    6193.0235    12934.486   -1649.7136    8104.4518    309.96871    15570 
185000000   -291.52395    5885.2488    12957.953   -1757.5381    7934.3108    310.53108    15580 
186000000   -278.70262    6107.8661    12978.572   -1684.3465    8070.9152    311.02521    15569 
187000000    -267.0362    5997.9405    13119.188   -1759.3751    8024.3518    314.39502    15579 
188000000   -276.35876    6034.0357    12884.429   -1754.8774    8065.2719    308.76912    15585 
189000000   -312.54686    5997.9195    12971.452    -1688.092    7998.5584    310.85458    15572 
190000000    -262.6688    6047.5654      13010.8   -1609.9405    7920.1748    311.79755    15569 
191000000   -262.04199    6082.0351    12969.081   -1664.9721    8009.0492    310.79776    15571 
192000000   -273.18469    5919.7456    12840.514   -1766.9903    7959.9206    307.71672    15587 
193000000   -275.04544    6105.5128    12898.122   -1683.4333    8063.9916    309.09726    15555 
194000000   -270.98747    6108.9868    12895.836   -1635.4344    8015.4087    309.04248    15560 
195000000   -281.92703    6085.3204    13024.486   -1612.4147    7979.6621    312.12551    15546 
196000000   -272.73541    5882.9557    13095.334   -1756.3106    7912.0017    313.82336    15582 
197000000    -251.8925    6011.0538    12832.629   -1695.6664    7958.6127    307.52775    15566 
198000000   -288.73766    6106.8779    12784.638   -1537.0733    7932.6888    306.37767    15548 
199000000    -291.4614    6120.8524    12785.191   -1534.8773     7947.191    306.39093    15526 
200000000   -266.58346    5907.0219     12985.68   -1746.1694    7919.7747    311.19554    15573 
201000000   -272.11278     5961.577    12888.283   -1691.3155    7925.0052    308.86148    15592 
202000000   -286.47108    5961.4635    13101.305   -1644.9447    7892.8793    313.96644    15577 
203000000   -249.51447    6087.3384    12942.265   -1660.4627    7997.3156    310.15514    15571 
204000000     -256.585    6235.2862    12809.677   -1557.1993    8049.0705    306.97773    15542 
205000000   -261.46488    5936.4146    13223.278   -1729.7787    7927.6581    316.88948    15566 
206000000   -258.07127    6106.1967    13025.904   -1707.7186    8071.9865     312.1595    15567 
207000000   -259.68318    5981.6598    13140.469   -1741.0137    7982.3567    314.90499    15561 
208000000   -262.25735    6142.5862    12972.073   -1527.8238    7932.6674    310.86947    15554 
209000000   -293.64794    6136.0563    12938.861   -1570.9079    8000.6122    310.07355    15556 
210000000   -303.16539    5996.3965    12937.454    -1706.345    8005.9069    310.03983    15569 
211000000   -256.48682    5891.0245    12766.652   -1720.4955    7868.0068    305.94665    15563 
212000000   -292.46533    5988.3743    12899.454    -1671.124    7951.9637    309.12918    15566 
213000000   -277.40055    6004.5611    12977.573    -1684.969    7966.9307    311.00128    15567 
214000000    -272.5438    6095.0503    12917.311   -1631.1162    7998.7103    309.55713    15592 
215000000    -251.6337    6214.3422    12876.548   -1620.3495    8086.3254    308.58025    15569 
216000000   -232.26331    6152.0705    12827.347   -1577.9223    7962.2561    307.40118    15544 
217000000   -317.54986    6105.4617    13018.663   -1514.8126    7937.8242    311.98597    15558 
218000000   -290.61764    6281.9991    13072.395   -1502.8774    8075.4942    313.27364    15555 
219000000   -262.46912    5974.2264    13063.639   -1697.5643    7934.2598    313.06381    15564 
220000000   -257.92082    6228.0386    12791.825    -1544.127    8030.0864    306.54992    15568 
221000000   -278.00858    5882.4702     13089.33   -1732.3492     7892.828    313.67947    15560 
222000000    -247.1963    6079.0039    13001.112   -1637.3828     7963.583    311.56538    15559 
223000000   -302.24264    6007.9715    12803.126   -1662.3077    7972.5218    306.82073    15557 
224000000   -272.27715    5963.5763    12927.769   -1624.9569    7860.8103    309.80774    15555 
225000000   -232.75369    5975.1444    12753.641   -1724.9241    7932.8222    305.63484    15572 
226000000   -283.39539    5967.6365    12837.918   -1782.8987    8033.9306     307.6545    15590 
227000000   -280.41358     6030.779    12897.428   -1695.3784     8006.571    309.08064    15580 
228000000   -281.92341    6105.9762     12912.03   -1600.0353    7987.9349    309.43057    15551 
229000000    -264.2955    6147.3893    13033.545   -1676.9671    8088.6519    312.34262    15574 
230000000   -271.36109    6064.2054    13144.798   -1663.9112    7999.4778    315.00875    15566 
231000000   -259.55596    6041.0259    12839.383   -1719.1315    8019.7133    307.68962    15564 
232000000   -280.22429    6138.8808    12810.972   -1641.3508    8060.4559    307.00877    15548 
233000000   -262.47767    6059.3296    13002.278   -1776.7589    8098.5661    311.59331    15575 
234000000   -274.15705    6074.5471    12996.724   -1643.0307    7991.7348     311.4602    15544 
235000000   -299.71111    6033.6495    12896.127   -1675.6566    8009.0173    309.04946    15589 
236000000   -274.65514     5970.768    12930.256   -1714.8975    7960.3206    309.86733    15581 
237000000   -266.06265    6024.1992    13137.113   -1666.4684    7956.7303    314.82458    15580 
238000000   -259.89291    5905.7941    13052.143   -1782.9932    7948.6802    312.78829    15584 
239000000   -253.31933    5959.1546    12867.761   -1740.2129    7952.6869    308.36968    15585 
240000000   -240.62332    6398.8287    12895.376   -1473.6326    8113.0846    309.03145    15556 
241000000   -246.01238    6099.0352    13009.449   -1634.2561    7979.3037    311.76517    15556 
242000000   -291.19202    6096.8341    13096.046    -1655.547    8043.5731    313.84042    15564 
243000000   -249.26216    6217.2018    12973.324   -1539.6181     8006.082    310.89944    15563 
244000000   -296.88267    6230.4801    12962.084   -1530.4204    8057.7832    310.63008    15558 
245000000   -304.59952    6057.8006    12958.834   -1686.7848    8049.1849     310.5522    15570 
246000000   -246.59603    6002.1775     13073.64   -1689.8769    7938.6505    313.30346    15578 
247000000   -228.16671    6107.9299    13075.769    -1554.861    7890.9576     313.3545    15555 
248000000   -285.11436      6129.82    13033.667   -1587.5376    8002.4719    312.34553    15556 
249000000    -289.4858    6221.1808    12951.348   -1567.0481    8077.7147    310.37281    15560 
250000000   -288.34752    5941.3474    12858.869   -1724.1753    7953.8701    308.15659    15578 
251000000   -267.91407    6141.7545    12973.048   -1699.9393    8109.6079    310.89283    15558 
252000000   -293.06388    6047.5097     12894.06   -1679.4119    8019.9854    308.99991    15559 
253000000   -263.97516     6265.692     12956.14   -1458.1975    7987.8647    310.48765    15526 
254000000   -291.58733    6192.7579    12986.149   -1526.6036    8010.9489     311.2068    15581 
255000000   -279.02615    6130.2734    12916.285   -1605.5191    8014.8186    309.53253    15556 
256000000   -276.30092    6215.3713    12877.055   -1623.8103    8115.4825    308.59241    15565 
257000000   -274.71663    6000.3312    13024.825   -1675.7415    7950.7893    312.13363    15566 
258000000   -281.68866    6072.5051     12949.09   -1636.5254    7990.7192    310.31869    15566 
259000000   -232.49034    6131.2774    12898.148   -1724.9704    8088.7381    309.09789    15579 
260000000   -283.42717    6049.6896    13050.817     -1626.86    7959.9767    312.75652    15555 
261000000     -262.329    5960.6198    13010.608   -1693.1413    7916.0901    311.79293    15584 
262000000   -279.35892    6034.3805    12854.738    -1709.198    8022.9375    308.05759    15576 
263000000   -256.35334    5926.5351    12894.881   -1689.2602    7872.1486    309.01959    15573 
264000000   -265.70552    6032.5524    12977.207   -1708.1502    8006.4081    310.99251    15566 
265000000    -266.5052    6173.8727    12876.122   -1572.0835    8012.4614    308.57005    15559 
266000000   -262.31364    5925.1923    13018.974   -1773.1723    7960.6782    311.99344    15576 
267000000   -291.47207    5999.8168    12785.292   -1721.8419    8013.1307    306.39335    15584 
268000000   -304.50682    6162.3396    12929.764   -1622.2605    8089.1069    309.85555    15570 
269000000   -241.81472    6107.1032     12870.16   -1713.2083    8062.1262    308.42718    15577 
270000000   -273.17755     5943.293    12811.207   -1656.0976    7872.5682    307.01438    15571 
271000000   -233.41894    5925.0137    13011.196   -1824.1367    7982.5694    311.80702    15590 
272000000   -294.14953    5916.5439    12987.272    -1721.956    7932.6495    311.23371    15587 
273000000   -282.71272    6185.1843     12863.28   -1600.2149    8068.1119    308.26229    15562 
274000000   -291.12866    6111.8257    12726.945    -1676.843    8079.7974    304.99508    15576 
275000000   -265.80609    5968.9346    12895.681   -1667.4577    7902.1984    309.03877    15577 
276000000   -234.47977    5985.4405    12933.437    -1769.361    7989.2813    309.94357    15581 
277000000   -266.82537    6202.7298    12903.099   -1713.4515    8183.0067    309.21653    15579 
278000000   -268.18804    5946.8183    12977.736   -1767.9159    7982.9223    311.00517    15581 
279000000    -284.8321    5992.2337    13044.106   -1726.4591    8003.5249     312.5957    15581 
280000000   -255.70521    5946.6273        12930   -1801.0824     8003.415    309.86121    15580 
281000000   -284.14448    5988.4646    13108.257   -1688.7936    7961.4027    314.13305    15584 
282000000   -301.69466     5959.674    12881.204   -1748.5802    8009.9489    308.69183    15582 
283000000   -277.09707    6112.3758    12911.646   -1561.8762     7951.349    309.42137    15567 
284000000   -257.63931    6141.0761    13064.256    -1755.653    8154.3684     313.0786    15579 
285000000   -273.72355    6136.9118    12894.851    -1697.257    8107.8924    309.01887    15573 
286000000   -267.51692     5970.366    12740.801    -1695.515    7933.3979    305.32714    15592 
287000000   -275.00529    6018.1988    12971.587    -1734.557     8027.761    310.85782    15571 
288000000   -232.50874     6121.726    12867.583   -1655.0888    8009.3236    308.36542    15558 
289000000   -258.76742    6157.6009    12938.563   -1598.2924    8014.6607    310.06642    15541 
290000000    -281.5778    6080.4649    12986.978   -1696.0976    8058.1402    311.22665    15561 
291000000   -266.39548    6004.4083    12933.058   -1751.0032     8021.807    309.93449    15570 
292000000   -266.95261    6146.4512    12786.959    -1586.125    7999.5288    306.43329    15544 
293000000   -281.27038    6216.8914    12947.159   -1482.7275    7980.8893    310.27242    15547 
294000000   -286.27928    6010.6768    13121.234   -1700.3399     7997.296    314.44404    15559 
295000000   -285.91339    6027.6486    12915.766   -1616.8901     7930.452    309.52011    15562 
296000000   -276.09463    6166.3692    12952.809   -1548.2153    7990.6792    310.40782    15543 
297000000   -277.12863    6084.3248    12885.404   -1658.0855    8019.5389    308.79248    15557 
298000000    -263.9725    5994.1249     12954.33   -1744.7008    8002.7981    310.44426    15576 
299000000   -280.33832    6110.2251    12798.268   -1618.2248    8008.7882    306.70431    15569 
300000000   -251.09032    6177.1658    12885.896   -1553.0157    7981.2719    308.80428    15537 
301000000   -275.91235    6162.9675    12760.759   -1558.1219    7997.0018    305.80544    15558 
302000000   -302.27277    6232.8938     13080.03    -1562.272    8097.4386     313.4566    15566 
303000000   -272.97522    6077.0477    12927.244   -1635.5852    7985.6082    309.79516    15557 
304000000   -288.36231      6037.83    13020.574   -1631.4274    7957.6197    312.03177    15576 
305000000   -250.64065    6098.6592    12874.408   -1705.8486    8055.1484    308.52898    15555 
306000000    -261.4376    6029.4086    12830.338   -1725.4846    8016.3308    307.47285    15590 
307000000   -305.02652    5920.7878    12973.131   -1717.3445    7943.1588    310.89482    15564 
308000000   -281.55156    6040.3679    12932.913   -1653.6778    7975.5973    309.93102    15569 
309000000   -270.38225    5979.4656    13032.848   -1650.5001     7900.348    312.32592    15575 
310000000   -248.90868    6139.0051    12929.675   -1584.7871     7972.701    309.85342    15556 
311000000   -290.39991    5881.7199    12994.305   -1771.0324    7943.1522    311.40225    15573 
312000000   -252.79588    6217.2359     13174.95   -1629.2842    8099.3159    315.73131    15548 
313000000   -304.63942    6155.1461    12887.264   -1597.7074    8057.4929    308.83705    15565 
314000000   -288.10508    6133.1724    12914.933   -1585.1149    8006.3924    309.50013    15566 
315000000   -293.31435    6076.8662    12964.326   -1663.4022    8033.5827    310.68382    15577 
316000000   -242.49879     6157.165    12936.439   -1628.0844    8027.7483    310.01552    15569 
317000000   -273.80474    6055.6312    12837.036   -1701.5235    8030.9594    307.63338    15573 
318000000   -283.12775    6030.6647    13082.694    -1639.328    7953.1204    313.52044    15572 
319000000   -249.05928    6022.5208    12900.047   -1726.0135    7997.5936     309.1434    15577 
320000000   -254.58518    6096.7707    12709.229   -1576.4782    7927.8341    304.57054    15565 
321000000   -271.64001    6071.7798    12880.352   -1677.6531     8021.073    308.67141    15566 
322000000   -280.03638    5914.3038    13007.594   -1641.6789    7836.0191    311.72071    15592 
323000000   -308.30206    6008.4569    12873.991   -1718.3974    8035.1563    308.51897    15567 
324000000   -275.83701    6084.9982    12888.643   -1660.8304    8021.6656    308.87011    15580 
325000000   -298.20761    5971.5523    12871.824   -1652.7228    7922.4827    308.46704    15578 
326000000   -289.52654    6019.5676    12896.999    -1611.353    7920.4472    309.07035    15571 
327000000   -266.43925    5935.6128    12803.428   -1673.7827    7875.8348    306.82797    15555 
328000000   -249.49002    6003.6401     12956.53   -1761.6863    8014.8165    310.49698    15584 
329000000   -299.68744    6095.2362    12813.321   -1721.9274     8116.851    307.06506    15570 
330000000   -304.57431    6131.5047    12930.358   -1546.1977    7982.2767    309.86978    15548 
331000000   -301.01319    6056.2115     12948.71   -1716.6345    8073.8592    310.30958    15573 
332000000   -272.00899     6208.286    13004.529   -1573.8069    8054.1018    311.64725    15554 
333000000   -301.20188    5935.4229    12975.977   -1797.3944    8034.0192    310.96302    15582 
334000000   -257.55167    6108.4405    13081.663   -1643.1371    8009.1293    313.49574    15559 
335000000   -269.19863    6124.9036    12851.501   -1706.5274    8100.6296    307.98001    15565 
336000000    -269.7422    5986.5866    12847.668   -1621.1961    7877.5248    307.88815    15552 
337000000   -268.21667    6001.3023    12902.698     -1791.63     8061.149    309.20692    15586 
338000000   -271.90769    6346.3081    13108.996   -1538.5642      8156.78    314.15076    15529 
339000000   -265.15512    5954.3076    12825.801   -1822.3619    8041.8246    307.36412    15570 
340000000   -264.35189    6057.8143     12738.63   -1546.9289    7869.0951    305.27511    15565 
341000000   -274.68152    5903.7718    12927.196    -1788.696    7967.1493      309.794    15581 
342000000   -273.04476    6087.4312    12988.907   -1636.3052    7996.7812    311.27289    15590 
343000000   -262.60411    5975.6347    12848.438   -1780.1041    8018.3429    307.90661    15576 
344000000   -277.45717    5946.4718    12915.592   -1755.4699    7979.3989    309.51593    15574 
345000000   -259.12056    6085.0124    12927.112   -1666.9152    8011.0482    309.79199    15573 
346000000   -267.06693    6112.2669    12956.735   -1620.1104    7999.4442     310.5019    15539 
347000000   -249.99263    5983.2825    12929.882   -1666.3268    7899.6019    309.85839    15572 
348000000   -258.50974    6036.3846    13033.648   -1705.6657      8000.56    312.34508    15562 
349000000   -297.01813    6107.9503    12945.118   -1640.1132    8045.0816    310.22351    15561 
350000000   -267.63594    6099.0232    12931.134   -1626.2729     7992.932    309.88838    15561 
351000000    -285.0652    6166.6052    12909.657    -1682.224    8133.8944     309.3737    15561 
352000000   -281.50785    6010.5336    12852.786    -1696.987    7989.0284     308.0108    15565 
353000000   -274.51529    6123.7072    12927.667   -1523.2332    7921.4557    309.80529    15545 
354000000   -304.98318    5993.1943    12981.679   -1672.3193    7970.4968    311.09967    15560 
355000000   -247.76184    6169.4521    12992.156   -1628.3822    8045.5961    311.35074    15574 
356000000   -282.36974    5920.2198    13025.379    -1735.326    7937.9156    312.14691    15596 
357000000   -269.20283     6193.531    12910.335   -1551.6955    8014.4293    309.38995    15559 
358000000   -225.32278    6122.9569    12902.417   -1674.0798    8022.3595     309.2002    15565 
359000000   -245.45847    6013.3275    12960.028   -1736.3461     7995.132     310.5808    15574 
360000000   -275.11205    6117.7614    12923.843   -1622.9645     8015.838    309.71367    15548 
361000000    -251.2401    6145.9389    12946.895   -1650.9837    8048.1626    310.26608    15543 
362000000   -283.53114    6046.0589    12944.121   -1635.0272    7964.6173    310.19962    15557 
363000000   -331.08265    6101.8211    12928.335   -1605.9987    8038.9024     309.8213    15548 
364000000   -244.71261     6136.537    12986.056   -1623.3792    8004.6288    311.20457    15559 
365000000    -248.7963    6062.3746     12797.29   -1600.3466    7911.5175    306.68088    15551 
366000000    -248.5668    6076.3276    12786.897   -1690.1829    8015.0774    306.43182    15564 
367000000   -282.00867    6010.7715    12897.879    -1660.405    7953.1851    309.09145    15565 
368000000   -255.72444    6103.2976    12916.301   -1692.2543    8051.2764    309.53292    15559 
369000000   -289.90957    6000.3651    12831.957   -1714.6059    8004.8805    307.51166    15584 
370000000    -259.0578    5969.6538    13038.822   -1716.1209    7944.8325    312.46908    15563 
371000000   -268.68947    6131.1884    13014.232   -1599.3741     7999.252    311.87978    15566 
372000000   -261.96545    6099.9028    12952.767    -1694.954    8056.8223     310.4068    15566 
373000000   -256.31373    6117.5836    12857.565   -1695.0079    8068.9053    308.12534    15564 
374000000   -279.46605    6113.7702    12995.614    -1691.476    8084.7123    311.43362    15558 
375000000   -263.63238    6051.7554    12854.075   -1600.1852     7915.573     308.0417    15559 
376000000   -262.64035     6179.633    12838.423   -1616.5792    8058.8526    307.66661    15566 
377000000   -263.96152    6078.5035    12879.638    -1578.465      7920.93    308.65431    15568 
378000000   -275.21751     5882.389    12936.514   -1772.4706    7930.0771    310.01731    15568 
379000000   -262.37571    6083.4431    12921.964   -1661.6546    8007.4734    309.66863    15580 
380000000   -260.76199    6083.6391    12899.718   -1684.2677    8028.6688    309.13552    15563 
381000000   -297.73482    6051.0325    12932.277   -1564.9491    7913.7164    309.91577    15545 
382000000   -258.66614    6117.1438    13022.321   -1621.1471    7996.9571    312.07363    15557 
383000000   -270.00191    6045.0244    13019.903   -1691.2994    8006.3258     312.0157    15573 
384000000   -305.39549    6093.7252    12847.439   -1605.4648    8004.5855    307.88268    15549 
385000000   -270.51564    6002.0526    12812.169   -1616.8599    7889.4281    307.03745    15568 
386000000   -305.02427    6049.3202    12836.175   -1602.4722    7956.8166    307.61274    15553 
387000000   -272.32589    6015.6885    12903.744   -1585.5634    7873.5778    309.23201    15545 
388000000   -268.25351    5948.9775    12843.775    -1719.921     7937.152    307.79487    15574 
389000000   -294.55796    6078.4176    13017.744   -1626.7525    7999.7281    311.96395    15569 
390000000   -279.00881    5938.6123    12966.937   -1724.0457    7941.6668    310.74638    15562 
391000000   -267.12233    6120.5694    13008.635   -1580.7454    7968.4371    311.74565    15568 
392000000   -284.96641    6040.2862    12942.127   -1566.3538    7891.6065    310.15183    15547 
393000000    -300.9716      6138.86    12816.069   -1515.0237    7954.8553    307.13092    15541 
394000000   -265.62375    6054.2045    13070.582   -1631.5292    7951.3574     313.2302    15565 
395000000   -293.59513    6170.4237     12906.56   -1618.5245    8082.5432    309.29948    15558 
396000000    -243.7162    6064.7923     12929.39   -1583.0631    7891.5715    309.84659    15557 
397000000   -289.80692    6218.7472    13029.566   -1546.7541    8055.3082    312.24726    15548 
398000000   -294.07871    6055.7136    13028.034   -1669.4139    8019.2062    312.21055    15579 
399000000   -272.44944    6132.0058    12901.793   -1706.1364    8110.5917    309.18523    15576 
400000000   -282.61598    5966.6376    12898.135   -1659.8492    7909.1028    309.09758    15572 
401000000   -289.76245    6031.5199    12859.177    -1643.034    7964.3164    308.16398    15560 
402000000   -290.85729    5972.5232    12981.149   -1649.0993    7912.4798    311.08697    15560 
403000000   -274.96918    6072.2989    12961.081   -1650.3773    7997.6453    310.60604    15551 
404000000   -252.74473    6014.1605    13041.739   -1691.3193    7958.2244    312.53898    15590 
405000000   -261.74189    6162.1566    12829.202   -1623.0244    8046.9229    307.44563    15563 
406000000   -287.78792    6238.3644    12866.866   -1574.7193    8100.8716    308.34823    15546 
407000000   -289.64361    6186.2501    12971.795   -1614.9679    8090.8616     310.8628    15546 
408000000   -267.08506    5992.7459    12896.345   -1668.5952    7928.4262    309.05469    15580 
409000000   -272.66991    6139.1452    12954.312   -1642.9467    8054.7618    310.44383    15562 
410000000   -285.99843    5911.8569    12947.328   -1739.6116    7937.4669    310.27647    15582 
411000000   -259.41016    5985.8733    12906.392   -1636.9192    7882.2027    309.29545    15561 
412000000   -278.70787     6179.409    13054.526   -1575.4563    8033.5732    312.84541    15543 
413000000   -304.98207    6010.7676    12956.003   -1631.3547    7947.1044    310.48435    15563 
414000000   -276.11992    6129.1729    12873.093   -1599.8191     8005.112    308.49745    15561 
415000000   -297.05705    6095.7859    13001.514   -1675.5467    8068.3896    311.57501    15570 
416000000    -231.0741    5989.7691    13072.309   -1721.8149     7942.658    313.27157    15572 
417000000   -288.72659    5993.1589    13092.052   -1657.9828    7939.8683     313.7447    15570 
418000000   -259.89707    6036.7242    13138.459    -1640.165    7936.7863    314.85683    15564 
419000000   -302.15861    6097.3277    12874.325   -1548.6331    7948.1194    308.52698    15553 
420000000   -268.03715    6001.6702    12919.863   -1645.5719    7915.2792    309.61827    15584 
421000000   -278.62785    6137.8333    12951.218   -1568.7533    7985.2144    310.36968    15538 
422000000   -248.22844    5962.8665    13030.061   -1709.7998    7920.8948    312.25912    15564 
423000000   -282.67629    6011.5859    12922.917   -1661.9798     7956.242    309.69147    15567 
424000000    -284.4365    6029.0555    12851.008   -1646.9849    7960.4769     307.9682    15557 
425000000   -292.63553    5984.7056    13124.325   -1689.9008     7967.242    314.51811    15568 
426000000   -256.46685    6135.6931    12918.658   -1634.4433    8026.6033    309.58941    15551 
427000000   -284.52796     6037.617    12991.654   -1661.8987    7984.0437    311.33873    15547 
428000000   -253.06896    6180.8487    12976.257   -1677.2278    8111.1454    310.96973    15561 
429000000    -274.8273    6090.1922    12901.667   -1578.9852    7944.0047    309.18222    15563 
430000000   -264.70247    6161.9252    13012.428   -1670.8773     8097.505    311.83656    15570 
431000000   -270.99899    5942.1289    13051.048   -1809.3638    8022.4917    312.76208    15611 
432000000   -297.89103    5988.5892    12970.398   -1666.9704    7953.4506    310.82933    15595 
433000000   -295.32465     5782.798    12878.253    -1761.089    7839.2116    308.62113    15593 
434000000   -312.59946    5996.7325    13030.587   -1689.1602    7998.4921    312.27173    15579 
435000000    -264.7445    6136.3247     12974.71   -1614.6563    8015.7255    310.93267    15570 
436000000   -249.88582    6019.6729    12863.076   -1655.9109    7925.4696    308.25742    15558 
437000000   -278.96401    6103.5474    12853.518   -1759.1855    8141.6969    308.02836    15573 
438000000   -263.47007    6102.8925    12900.572   -1652.6582    8019.0208    309.15598    15554 
439000000   -307.42451     6244.616    13026.837    -1482.714    8034.7546    312.18186    15546 
440000000   -287.14639    6130.3532    12897.683   -1675.7402    8093.2398    309.08674    15559 
441000000   -294.57374    6031.9428    12755.442   -1705.2527    8031.7693    305.67801    15572 
442000000    -262.6705     6128.849    13021.852   -1649.3473    8040.8668     312.0624    15546 
443000000    -268.3135    6013.0371    12911.216   -1774.1132    8055.4638    309.41105    15583 
444000000   -298.52335    6301.0256    12804.746   -1500.2183    8099.7672    306.85956    15556 
445000000   -308.72909    5968.4031     12887.06    -1738.639    8015.7712    308.83218    15573 
446000000   -291.87978    6115.2542    13132.001   -1640.7596    8047.8935    314.70206    15553 
447000000   -303.35518    5928.8174    13068.394   -1774.0397    8006.2123    313.17776    15565 
448000000   -284.65619    6240.6848    13008.667   -1598.6207    8123.9617    311.74643    15572 
449000000   -248.00036    6273.6277    12923.529   -1503.2435    8024.8715    309.70613    15539 
450000000   -291.82227     6058.257    12987.438   -1629.9336    7980.0128    311.23769    15539 
451000000   -279.18068    6189.9118    12886.054   -1602.0644    8071.1569    308.80807    15559 
452000000   -299.48512    5959.3687    13059.288   -1658.7913    7917.6451    312.95952    15560 
453000000   -285.66479     6227.809    13005.032   -1600.1149    8113.5886    311.65932    15543 
454000000   -305.87778    6102.6263    12823.232   -1490.1987    7898.7027    307.30257    15535 
455000000   -309.18158    5987.6064    12942.329   -1697.5626    7994.3506    310.15667    15559 
456000000   -297.21119    6151.9449     13022.34   -1616.4989     8065.655     312.0741    15541 
457000000   -312.09862    6035.9799    12803.955   -1602.9117    7950.9902     306.8406    15544 
458000000   -308.68644    6072.2402    12929.213    -1659.581    8040.5076    309.84234    15550 
459000000   -271.96281    6198.8531    12912.419   -1568.6792    8039.4951    309.43988    15554 
460000000   -299.67668    6108.9226    13022.136   -1595.1398    8003.7391    312.06921    15552 
461000000   -293.16987    6107.9861    12982.149   -1614.0665    8015.2225    311.11094    15551 
462000000   -300.31357    6105.0775    13006.527   -1626.0149    8031.4059    311.69514    15569 
463000000   -265.28828    5987.0604     12981.74   -1666.0939    7918.4425    311.10112    15553 
464000000   -290.95241    6072.7719     12986.71   -1616.7061    7980.4305    311.22023    15566 
465000000   -263.51549    6148.5174     12782.76   -1696.1987    8108.2316    306.33268    15580 
466000000   -297.19901    5937.7052    13097.749   -1743.4342    7978.3385    313.88124    15575 
467000000   -267.78028    6072.9614     12872.65   -1531.6165    7872.3582    308.48685    15567 
468000000   -286.01646    6020.9098     12775.18    -1641.425    7948.3512    306.15101    15561 
469000000   -264.42462    5860.8203    12820.148   -1752.6385    7877.8833    307.22867    15577 
470000000   -266.14053    6077.1093    12937.981   -1597.3635    7940.6133    310.05246    15563 
471000000    -279.5197      6164.83    13127.564    -1571.376    8015.7257    314.59574    15551 
472000000   -290.34396    6080.9685    12958.931   -1642.3868    8013.6993    310.55453    15575 
473000000   -259.16698    6009.3346    13051.989   -1743.7132    8012.2148    312.78463    15576 
474000000   -289.87409      6104.08    12894.338   -1665.2838    8059.2378    309.00658    15561 
475000000   -316.09823     6130.621    12887.595   -1566.4779    8013.1971    308.84498    15582 
476000000   -291.37178    6006.8652    12961.739   -1652.7522    7950.9893    310.62182    15564 
477000000   -291.47115    6128.7051    13005.847   -1558.1434    7978.3196    311.67884    15534 
478000000   -250.17369    6124.7412    13023.959   -1629.5703    8004.4852    312.11288    15554 
479000000   -273.58233     6061.018     13018.03   -1659.0424    7993.6427    311.97081    15546 
480000000   -285.59991     6049.176     12965.65   -1558.2523    7893.0282    310.71555    15534 
481000000    -299.7779    6018.1836     13014.53   -1680.8785      7998.84    311.88693    15595 
482000000   -306.64041      6015.89    12869.647   -1680.5005    8003.0309    308.41488    15560 
483000000   -293.90797    5935.1941    12979.099   -1697.3276    7926.4297    311.03784    15576 
484000000   -290.83735    6181.4937    13001.527   -1513.1993    7985.5303    311.57532    15551 
485000000     -279.208    6002.2047    12957.523   -1712.8623    7994.2749    310.52079    15584 
486000000    -286.1505    6098.0046    12853.909   -1634.5458    8018.7009    308.03771    15550 
487000000   -311.73117    6034.8533    12943.974   -1624.4942    7971.0787    310.19608    15568 
488000000   -327.13655    6005.9269    13086.086   -1683.0861    8016.1495    313.60172    15569 
489000000   -285.35279    6020.5666    12939.512   -1578.1643    7884.0836    310.08916    15551 
490000000   -305.54617    5988.0172    12879.331   -1662.6762    7956.2396    308.64695    15557 
491000000   -263.36199    6034.6136     12841.91   -1535.8518    7833.8274    307.75017    15563 
492000000   -287.12201    6142.3301    12989.536   -1685.1902    8114.6424    311.28796    15558 
493000000   -298.78049    6072.3278    12850.322   -1565.7162    7936.8246    307.95175    15557 
494000000   -327.42985    6036.4975    13012.203   -1547.2705    7911.1978    311.83116    15538 
495000000    -284.1417    5988.3878    12851.885   -1643.2744     7915.804    307.98923    15552 
496000000   -299.35308    6135.6062    12949.329   -1594.8194    8029.7787    310.32442    15547 
497000000   -292.34406    6131.0954    12820.087   -1644.8988    8068.3383     307.2272    15555 
498000000   -285.58461    5953.8476    12936.134   -1685.4745    7924.9066     310.0082    15562 
499000000   -285.97866    6154.1661    12951.991   -1614.9015    8055.0462    310.38822    15561 
500000000   -308.98992    6042.3956     12722.25   -1683.4475     8034.833    304.88257    15554 
Loop time of 116826 on 28 procs for 500000000 steps with 14000 atoms

Performance: 9244.479 ns/day, 0.003 hours/ns, 4279.851 timesteps/s
99.3% CPU use with 28 MPI tasks x no OpenMP threads

MPI task timing breakdown:
Section |  min time  |  avg time  |  max time  |%varavg| %total
---------------------------------------------------------------
Pair    | 10067      | 10873      | 11729      | 404.6 |  9.31
Bond    | 5951.1     | 6123.7     | 7266.6     | 311.7 |  5.24
Neigh   | 30951      | 31280      | 31742      | 103.4 | 26.77
Comm    | 36238      | 38499      | 40661      | 522.0 | 32.95
Output  | 0.64136    | 0.6427     | 0.64291    |   0.0 |  0.00
Modify  | 22559      | 22720      | 22902      |  74.0 | 19.45
Other   |            | 7330       |            |       |  6.27

Nlocal:    500 ave 534 max 446 min
Histogram: 1 0 2 2 6 4 0 5 4 4
Nghost:    453.964 ave 596 max 237 min
Histogram: 1 0 2 5 1 3 5 3 6 2
Neighs:    2968.93 ave 3761 max 2306 min
Histogram: 2 1 0 7 9 5 1 2 0 1

Total # of neighbors = 83130
Ave neighs/atom = 5.93786
Ave special neighs/atom = 7.79214
Neighbor list builds = 99901707
Dangerous builds = 0
System init for write_restart ...
Total wall time: 32:27:08
