LAMMPS (5 Jun 2019)
Reading data file ...
  orthogonal box = (-420 -420 -420) to (420 420 420)
  2 by 2 by 7 MPI processor grid
  reading atoms ...
  14000 atoms
  scanning bonds ...
  51 = max bonds/atom
  scanning angles ...
  1 = max angles/atom
  reading bonds ...
  13800 bonds
  reading angles ...
  13600 angles
Finding 1-2 1-3 1-4 neighbors ...
  special bond factors lj:   0          0          0         
  special bond factors coul: 0          0          0         
  2 = max # of 1-2 neighbors
  2 = max # of 1-3 neighbors
  4 = max # of 1-4 neighbors
  56 = max # of special neighbors
  special bonds CPU = 0.00344527 secs
  read_data CPU = 0.0643298 secs
Finding 1-2 1-3 1-4 neighbors ...
  special bond factors lj:   1          1          1         
  special bond factors coul: 0          0          0         
  2 = max # of 1-2 neighbors
  2 = max # of 1-3 neighbors
  4 = max # of 1-4 neighbors
  56 = max # of special neighbors
  special bonds CPU = 0.000732326 secs
WARNING: Using 'neigh_modify every 1 delay 0 check yes' setting during minimization (../min.cpp:168)
Neighbor list info ...
  update every 1 steps, delay 0 steps, check yes
  max neighbors/atom: 2000, page size: 100000
  master list distance cutoff = 26.9
  ghost atom cutoff = 26.9
  binsize = 13.45, bins = 63 63 63
  1 neighbor lists, perpetual/occasional/extra = 1 0 0
  (1) pair lj/cut, perpetual
      attributes: half, newton on
      pair build: half/bin/newton
      stencil: half/bin/3d/newton
      bin: standard
Setting up cg style minimization ...
  Unit style    : real
  Current step  : 0
Per MPI rank memory allocation (min/avg/max) = 1.165 | 13.79 | 17.67 Mbytes
Step Temp E_pair E_mol TotEng Press 
       0            0 1.5959422e+12      2649600 1.5959449e+12 7.3854599e+08 
    2872            0   -1769.6168    5348.8369    3579.2201  0.031182827 
Loop time of 0.643699 on 28 procs for 2872 steps with 14000 atoms

98.8% CPU use with 28 MPI tasks x no OpenMP threads

Minimization stats:
  Stopping criterion = energy tolerance
  Energy initial, next-to-last, final = 
     1.59594489115e+12      3579.56365059      3579.22009235
  Force two-norm initial, final = 4.92929e+10 2.03587
  Force max component initial, final = 1.05441e+09 0.154693
  Final line search alpha, max atom move = 0.461827 0.0714414
  Iterations, force evaluations = 2872 3119

MPI task timing breakdown:
Section |  min time  |  avg time  |  max time  |%varavg| %total
---------------------------------------------------------------
Pair    | 0.042265   | 0.14116    | 0.26477    |  17.5 | 21.93
Bond    | 0.013873   | 0.03959    | 0.070195   |   8.3 |  6.15
Neigh   | 0.087882   | 0.089116   | 0.090328   |   0.2 | 13.84
Comm    | 0.089474   | 0.22802    | 0.37046    |  16.5 | 35.42
Output  | 0          | 0          | 0          |   0.0 |  0.00
Modify  | 0          | 0          | 0          |   0.0 |  0.00
Other   |            | 0.1458     |            |       | 22.65

Nlocal:    500 ave 911 max 179 min
Histogram: 3 3 4 4 5 0 2 3 2 2
Nghost:    314.393 ave 518 max 130 min
Histogram: 3 2 3 3 4 4 3 3 2 1
Neighs:    3173.18 ave 5987 max 902 min
Histogram: 3 2 6 3 5 0 1 3 3 2

Total # of neighbors = 88849
Ave neighs/atom = 6.34636
Ave special neighs/atom = 5.82857
Neighbor list builds = 199
Dangerous builds = 0
Setting up Verlet run ...
  Unit style    : real
  Current step  : 2872
  Time step     : 0.1
Per MPI rank memory allocation (min/avg/max) = 1.127 | 13.42 | 16.54 Mbytes
Step Temp E_pair E_mol TotEng Press 
    2872            0   -1769.6168    5348.8369    3579.2201  0.031182827 
   12872    223.52386   -1524.8083    9184.0615    16986.537   -1.7638632 
Loop time of 1.35115 on 28 procs for 10000 steps with 14000 atoms

Performance: 63.945 ns/day, 0.375 hours/ns, 7401.099 timesteps/s
99.4% CPU use with 28 MPI tasks x no OpenMP threads

MPI task timing breakdown:
Section |  min time  |  avg time  |  max time  |%varavg| %total
---------------------------------------------------------------
Pair    | 0.043776   | 0.16755    | 0.36697    |  21.6 | 12.40
Bond    | 0.037053   | 0.10724    | 0.19563    |  13.7 |  7.94
Neigh   | 0.0018661  | 0.0019005  | 0.0019354  |   0.0 |  0.14
Comm    | 0.27726    | 0.51733    | 0.73013    |  18.0 | 38.29
Output  | 5.3973e-05 | 8.1389e-05 | 0.00010033 |   0.0 |  0.01
Modify  | 0.089288   | 0.24732    | 0.45712    |  20.3 | 18.30
Other   |            | 0.3097     |            |       | 22.92

Nlocal:    500 ave 910 max 178 min
Histogram: 3 2 5 3 6 0 2 3 2 2
Nghost:    315.071 ave 515 max 130 min
Histogram: 3 2 3 3 4 3 4 2 3 1
Neighs:    3181.46 ave 5997 max 883 min
Histogram: 3 2 5 4 5 0 1 3 3 2

Total # of neighbors = 89081
Ave neighs/atom = 6.36293
Ave special neighs/atom = 5.82857
Neighbor list builds = 4
Dangerous builds = 0
4000 atoms in group rxnSites
Neighbor list info ...
  update every 1 steps, delay 1 steps, check yes
  max neighbors/atom: 2000, page size: 100000
  master list distance cutoff = 26.9
  ghost atom cutoff = 26.9
  binsize = 13.45, bins = 63 63 63
  2 neighbor lists, perpetual/occasional/extra = 1 1 0
  (1) pair lj/cut, perpetual
      attributes: half, newton on
      pair build: half/bin/newton
      stencil: half/bin/3d/newton
      bin: standard
  (2) fix bond/create/random, occasional, copy from (1)
      attributes: half, newton on
      pair build: copy
      stencil: none
      bin: none
Setting up Verlet run ...
  Unit style    : real
  Current step  : 0
  Time step     : 25
Per MPI rank memory allocation (min/avg/max) = 17.76 | 18.29 | 18.84 Mbytes
Step E_pair PotEng KinEng E_bond E_angle Temp Bonds 
       0   -1524.8083    7659.2532     9327.284    3096.4133    6087.6481    223.52386    13800 
 1000000   -275.69061    8541.1012    12911.282    652.76018    8164.0316    309.41265    14845 
 2000000   -272.54639    7991.2928    12971.912    183.00243    8080.8367     310.8656    15004 
 3000000   -255.76972     7593.229    12944.181   -141.36624    7990.3649    310.20106    15104 
 4000000   -270.51454    7407.9984     12779.11   -341.58926    8020.1022    306.24519    15162 
 5000000   -265.26067    7413.4644    12937.523   -505.47067    8184.1957    310.04149    15202 
 6000000   -251.44954    7106.4328    13009.638   -671.62644    8029.5087     311.7697    15235 
 7000000   -259.96385    6991.9597    13065.618   -685.45298    7937.3765    313.11123    15283 
 8000000   -275.49879    7049.9914    13003.927   -715.77476    8041.2649    311.63284    15281 
 9000000    -269.7608    7050.0171    12774.223   -688.54821    8008.3262    306.12808    15305 
10000000   -253.01028    6962.7718    12920.107   -757.69048    7973.4726    309.62413    15322 
11000000   -251.25596    6803.9552    12854.598   -950.46343    8005.6746    308.05425    15368 
12000000   -269.01503    6498.2875    12905.305   -1206.1755    7973.4781     309.2694    15408 
13000000   -281.17782    6619.5124    12920.557   -1183.1893    8083.8796    309.63491    15429 
14000000   -264.57411    6702.7252     12864.68   -1065.3506    8032.6499    308.29584    15417 
15000000   -255.38622    6382.7947    12789.232   -1314.0085    7952.1895    306.48777    15438 
16000000   -257.08414     6655.683    12996.117    -1150.935    8063.7022    311.44567    15415 
17000000    -251.3755     6499.367    13140.665   -1251.0846     8001.827     314.9097    15430 
18000000   -228.50424    6345.5711    12887.975   -1328.4475    7902.5229    308.85409    15468 
19000000   -245.66114    6409.6175    12920.252   -1383.9075    8039.1861    309.62761    15472 
20000000   -269.72474    6521.1808    12911.635    -1221.827    8012.7325    309.42109    15449 
21000000   -271.09952    6419.7643    12889.094   -1284.3805    7975.2444     308.8809    15455 
22000000   -278.93724    6434.6884    12922.277   -1373.8664     8087.492    309.67612    15471 
23000000   -279.38067    6366.5966    13043.287   -1345.9977    7991.9749    312.57609    15476 
24000000   -263.74022    6607.2984    12915.589   -1245.0787    8116.1173    309.51586    15482 
25000000   -257.90317    6287.9036     12904.69   -1485.1518    8030.9585    309.25466    15501 
26000000   -270.18498    6414.2444    12712.882   -1370.8191    8055.2485    304.65808    15486 
27000000   -241.12534    6314.5217    12989.075   -1442.8078    7998.4548    311.27692    15490 
28000000   -313.19275    6021.8273    12905.387   -1638.0269     7973.047    309.27137    15529 
29000000   -246.08032    6241.0398    12968.907    -1503.376    7990.4961     310.7936    15500 
30000000   -241.64957    6033.3081     12905.03   -1513.4984    7788.4561    309.26282    15539 
31000000   -281.33712     6188.256    12965.133   -1527.9445    7997.5376    310.70315    15532 
32000000   -232.20709    6154.0755    12979.092   -1521.3382    7907.6207    311.03766    15520 
33000000   -251.65551    6242.3474    12900.188   -1560.2704    8054.2733    309.14679    15520 
34000000   -266.40052    6300.2115    12853.883   -1445.9203    8012.5323    308.03711    15516 
35000000     -276.796      6332.77     12946.85   -1442.5454    8052.1113    310.26501    15506 
36000000     -294.176    6196.0783    12981.732   -1516.3924    8006.6468    311.10093    15526 
37000000   -263.31601    6126.1642    12950.332   -1536.2949    7925.7751    310.34846    15519 
38000000   -313.60098    6169.6006    12887.565   -1511.6369    7994.8385    308.84427    15535 
39000000   -241.67116    6206.7274    13023.266   -1501.8184     7950.217    312.09629    15547 
40000000   -268.32448    6305.0047    12890.928   -1484.9238     8058.253    308.92488    15516 
41000000   -252.75738    6287.7448    12868.795   -1488.7787    8029.2809    308.39447    15534 
42000000   -273.97261    6291.3017    12804.524   -1502.9165    8068.1908    306.85423    15520 
43000000   -304.34532    6098.1822    12833.106   -1571.3107    7973.8382    307.53919    15548 
44000000   -283.71631    6073.6096    12981.628   -1563.1248    7920.4508    311.09844    15534 
45000000   -283.98272    6133.6015    12978.817   -1585.3439    8002.9281    311.03108    15550 
46000000   -255.10465    6122.4639    12919.687    -1542.343    7919.9116    309.61406    15540 
47000000   -252.04569    6071.8492    12767.863   -1654.4263    7978.3212    305.97568    15563 
48000000   -259.40804    6186.6772    12994.287   -1497.4836    7943.5688     311.4018    15555 
49000000   -263.20465    6001.8177     13032.48   -1767.1618    8032.1841    312.31709    15570 
50000000   -266.29972    5870.4385    12926.461   -1835.4801    7972.2183    309.77639    15591 
51000000   -309.35892    6028.1352    12977.104   -1659.8378     7997.332    310.99002    15579 
52000000   -287.25332    5941.2125    12889.275   -1728.3067    7956.7725    308.88526    15578 
53000000   -284.67247     5946.504    12710.709   -1681.2074    7912.3838      304.606    15576 
54000000   -278.35772    6242.7602    12914.472   -1506.7245    8027.8424    309.48909    15552 
55000000   -257.32365    6110.3469    13116.456   -1675.1662    8042.8368    314.32953    15568 
56000000   -300.32951    6206.3048    12893.202   -1644.1435    8150.7779    308.97935    15585 
57000000   -253.40897    6164.8307    12994.976   -1620.1298    8038.3695    311.41831    15560 
58000000   -275.94469    6153.2002    12954.752   -1648.6561     8077.801    310.45438    15566 
59000000   -257.35064    5964.4896    12975.051   -1743.5617    7965.4019    310.94083    15584 
60000000   -252.90309    6065.8446    12706.065   -1752.1406    8070.8883    304.49472    15571 
61000000   -299.00365     5997.161    12977.361   -1693.1941    7989.3587    310.99618    15574 
62000000   -270.19295    5826.4511    12989.685    -1801.437     7898.081    311.29153    15579 
63000000   -281.75365    6039.1625    12953.039   -1668.3301    7989.2463    310.41332    15570 
64000000   -257.62208    6069.2388    13015.332   -1635.6294    7962.4904    311.90615    15554 
65000000   -266.33955    6263.5568    12971.982   -1627.5456    8157.4419    310.86729    15568 
66000000   -268.82661    6060.1318    13078.192   -1774.9876     8103.946    313.41257    15577 
67000000   -243.66837    6094.1908    12899.868   -1658.5773    7996.4365    309.13911    15566 
68000000    -286.6851    6028.7858    13101.712   -1649.4771    7964.9481    313.97621    15560 
69000000   -253.72057    6027.9519    12873.802   -1715.8846    7997.5571    308.51445    15577 
70000000   -263.04217    6230.6676    12978.067   -1530.0018    8023.7116     311.0131    15541 
71000000   -285.77338    6076.4468    12924.464   -1695.3065    8057.5267    309.72855    15582 
72000000   -274.83022    6109.2295    12806.186   -1640.4587    8024.5185    306.89408    15567 
73000000   -240.96772     6114.737    13040.922   -1518.6098    7874.3146     312.5194    15552 
74000000   -263.66465    6073.4363    12995.949   -1730.8599    8067.9609    311.44165    15593 
75000000   -267.45615    6058.8633     13049.47   -1703.0039    8029.3234    312.72426    15561 
76000000   -280.77964    6162.0941    12997.459   -1562.9343    8005.8081    311.47783    15554 
77000000   -270.79629    6227.5227    12916.586   -1605.4135    8103.7326    309.53974    15563 
78000000   -310.59366    6107.1043    12842.382   -1559.1828    7976.8807    307.76149    15565 
79000000    -232.7951     6054.873    12867.837   -1664.3535    7952.0216     308.3715    15570 
80000000   -264.74129    6157.4261    13008.149   -1597.9536     8020.121    311.73401    15548 
81000000   -267.29006    5967.7989    12901.441   -1750.5359    7985.6249    309.17681    15560 
82000000   -252.37118    6088.8177     12977.53   -1653.9193    7995.1082    311.00023    15564 
83000000   -304.59574    6137.9222    12937.337   -1586.5524    8029.0703    310.03703    15564 
84000000   -259.78481    5976.6176    12944.326   -1707.8591    7944.2616    310.20451    15578 
85000000   -255.17409    6116.8389    12920.742   -1576.6072    7948.6202    309.63935    15544 
86000000   -290.73928    6142.6765    12873.761   -1580.4846    8013.9004    308.51347    15538 
87000000   -281.37691    6087.7618    12907.535   -1662.8793     8032.018    309.32284    15573 
88000000   -273.82975    6293.8993    13017.095   -1439.1569     8006.886     311.9484    15512 
89000000   -265.45709    6168.8073    12790.407   -1516.0656    7950.3299    306.51592    15546 
90000000   -305.16103    5948.2512    12758.486    -1678.634    7932.0462    305.75096    15570 
91000000    -286.5887     6339.742    12740.074   -1544.6234     8170.954    305.30973    15549 
92000000   -260.09723    6094.2085    12789.216   -1538.9485    7893.2542    306.48739    15539 
93000000   -318.95537    6127.8414    13049.398   -1664.1283     8110.925    312.72253    15552 
94000000   -272.24262    6063.8031    12728.276    -1595.789    7931.8347    305.02699    15548 
95000000   -254.43629     6060.861    13188.707   -1599.0118    7914.3091    316.06099    15536 
96000000   -275.96375    6211.0277    12996.788   -1562.6429    8049.6343    311.46176    15532 
97000000   -276.70502    6029.5921    12889.142   -1644.8076    7951.1047    308.88207    15554 
98000000   -278.88007    6184.0811    12857.612   -1580.1972    8043.1583    308.12646    15545 
99000000   -312.78813      6224.22    13079.092   -1503.7655    8040.7736    313.43412    15519 
100000000   -303.30855    6220.6158    13049.077   -1506.6382    8030.5625    312.71482    15530 
101000000   -258.64297     6192.653    12818.146   -1461.3498    7912.6458    307.18068    15513 
102000000   -301.12074    6186.3721     12972.01   -1609.5519    8097.0448    310.86797    15555 
103000000   -308.69249    5906.4803    13013.972   -1692.5143    7907.6871    311.87355    15567 
104000000   -274.18423     6110.279    13056.289   -1626.0648    8010.5281    312.88766    15571 
105000000   -296.89458    5967.9889    12848.535   -1691.4371    7956.3205    307.90895    15573 
106000000   -277.38002    6050.1088    12923.177   -1596.8923    7924.3811    309.69769    15543 
107000000   -281.77734    6172.4475    12853.782   -1533.9763    7988.2011    308.03469    15562 
108000000   -272.66094    5966.3177    12921.034   -1738.4599    7977.4385    309.64634    15586 
109000000   -308.16628    6132.2205    12866.439   -1526.0449    7966.4317    308.33799    15560 
110000000   -297.56122    5883.5855    12950.424   -1713.1387    7894.2854    310.35067    15586 
111000000   -271.58225    6177.8374    13043.583   -1598.7882    8048.2078    312.58317    15550 
112000000   -289.36759    5988.8793    12969.984   -1613.6595    7891.9063     310.8194    15557 
113000000   -255.39302    6151.5523    12963.801   -1586.1418    7993.0871    310.67124    15555 
114000000   -277.79398    6120.3626    12906.095   -1670.4142    8068.5708    309.28834    15559 
115000000   -259.65514    5996.2415    12762.781   -1689.3649    7945.2615    305.85388    15566 
116000000   -263.63778    6018.1901    13006.277   -1726.7823    8008.6102    311.68914    15559 
117000000   -301.32068    6001.7247    12830.118   -1740.9204    8043.9658    307.46758    15571 
118000000   -288.62211    6128.9392    12832.333    -1561.226    7978.7873    307.52066    15548 
119000000     -282.191    5978.6702    12915.801   -1707.2033    7968.0646    309.52095    15573 
120000000     -295.716    6113.1506    12996.968   -1614.3847    8023.2513    311.46606    15557 
121000000   -240.53195    6110.8098    13039.925   -1533.8275    7885.1692    312.49552    15556 
122000000   -312.40689    5959.6662    12945.922   -1659.2044    7931.2774    310.24277    15584 
123000000   -289.22318    5950.6618    13044.942   -1703.0812    7942.9661    312.61573    15575 
124000000   -291.43409    6170.2667    12935.439   -1579.6599    8041.3607    309.99156    15560 
125000000   -287.87469    6061.7858    12908.702   -1728.7386    8078.3991    309.35082    15564 
126000000   -289.92268    6093.3625    12969.371   -1621.0351    8004.3202    310.80471    15564 
127000000   -289.23516    6132.4658    12738.957   -1501.7399    7923.4408    305.28296    15557 
128000000   -279.87793     6140.517    12924.535   -1597.4061    8017.8011    309.73024    15569 
129000000   -275.36855    6077.6621    12893.736   -1642.1511    7995.1818    308.99216    15566 
130000000   -281.49366    5935.1056    12996.165   -1768.1691    7984.7684    311.44682    15592 
131000000   -263.14705     6097.554    12897.785   -1648.3741    8009.0752    309.08919    15570 
132000000   -292.04296    6190.3157    12764.394    -1616.444    8098.8026    305.89254    15562 
133000000   -297.34661    6290.2456    12957.713   -1497.9933    8085.5855    310.52533    15542 
134000000   -268.20458    6101.7613    13016.452    -1593.627    7963.5928      311.933    15558 
135000000    -288.4046    6004.9555    12941.951   -1644.9682    7938.3282    310.14762    15558 
136000000   -284.79355    6132.7321    12882.747   -1583.9597    8001.4854    308.72881    15564 
137000000   -269.14125    6113.3577    12892.389   -1697.7281    8080.2271    308.95988    15575 
138000000   -303.16929     5943.268        13037   -1732.7819    7979.2191    312.42542    15576 
139000000   -262.67678    5839.3748    12991.914   -1812.1987    7914.2503    311.34494    15586 
140000000   -281.34461    6133.6964    12854.812   -1685.2075    8100.2485    308.05936    15587 
141000000   -252.77772    6141.6363    12847.929   -1537.7812    7932.1952    307.89441    15559 
142000000   -304.21913    5953.4855    12911.368    -1732.859    7990.5637    309.41469    15583 
143000000   -260.04504     6027.349     12954.81   -1682.2968    7969.6908    310.45576    15558 
144000000   -292.23777    6070.6398    12973.724   -1750.2939    8113.1715    310.90903    15567 
145000000   -270.26657    5940.4582    13084.377   -1736.2515    7946.9763    313.56078    15591 
146000000   -292.10407    5932.1967    13074.709   -1687.0932     7911.394    313.32908    15562 
147000000   -280.33492    5914.5683    12870.807   -1787.4424    7982.3456    308.44268    15618 
148000000   -309.27367    6035.0294    12986.902    -1729.975    8074.2781    311.22485    15586 
149000000   -280.30681    5918.1107    12963.667   -1773.4525      7971.87    310.66803    15574 
150000000   -274.75984    6048.9535    12872.608   -1597.5269    7921.2402    308.48584    15559 
151000000   -246.52824    6092.6868     12936.78   -1618.3816    7957.5967    310.02369    15581 
152000000   -275.97377    6096.7789    13056.276   -1686.7952    8059.5479    312.88735    15566 
153000000   -265.73035    6146.0419    12946.774   -1625.4075    8037.1797     310.2632    15559 
154000000    -260.6866    6182.2079     12875.53   -1568.2157    8011.1102    308.55585    15554 
155000000    -282.3005    6093.7123    12929.889   -1624.8424    8000.8552    309.85856    15574 
156000000   -288.95713    6227.4034    13085.528   -1519.7081    8036.0687    313.58835    15555 
157000000   -292.65542    6073.1375    12866.072   -1665.6223    8031.4152    308.32919    15569 
158000000   -264.45655    6127.7065    12998.186   -1621.8835    8014.0466    311.49526    15552 
159000000   -291.19455    5910.9986    12944.681   -1703.2025    7905.3956    310.21304    15570 
160000000   -309.83901    5912.2131    13120.667   -1707.6657    7929.7178    314.43046    15574 
161000000    -264.8047    6130.6924    12869.738   -1624.8997    8020.3968    308.41705    15560 
162000000    -277.5247    6036.2937    12987.821   -1655.3933    7969.2117    311.24686    15576 
163000000   -281.15041    6080.0601     12995.06   -1695.1804    8056.3909    311.42033    15583 
164000000   -277.53342    6331.2409    12939.109   -1474.6212    8083.3955    310.07949    15568 
165000000   -272.40994    6040.4242    12965.002   -1691.3004    8004.1345    310.70002    15562 
166000000   -275.46745     6189.874    12778.805   -1523.0396    7988.3811    306.23788    15538 
167000000    -316.8481    5869.1399    12968.649   -1834.4829    8020.4709    310.78742    15600 
168000000   -303.41531    5954.2725    12891.249   -1715.5048    7973.1926    308.93255    15583 
169000000     -270.598    6062.0446     12922.59   -1638.8707    7971.5134    309.68363    15557 
170000000   -310.88505    5979.1648    13034.088   -1680.4864    7970.5363    312.35563    15588 
171000000   -307.56125    5983.2363    12983.595   -1708.7035     7999.501     311.1456    15585 
172000000   -272.86027    5927.5705    12842.716   -1793.2776    7993.7084    307.76949    15597 
173000000   -268.36546    5944.9436    13021.293   -1766.4746    7979.7837    312.04899    15552 
174000000   -283.36675    6039.8957    12939.023    -1612.582    7935.8445    310.07744    15556 
175000000   -275.89325    6072.8845     12978.45   -1668.9775    8017.7552     311.0223    15568 
176000000   -288.94493    5945.0277    12975.201   -1658.6318    7892.6045    310.94443    15552 
177000000   -316.43351    5998.2379    13017.718   -1599.0757    7913.7471    311.96334    15555 
178000000   -299.14884    6274.3796    12860.519   -1560.2709    8133.7994    308.19612    15552 
179000000   -307.71749     6048.585    12789.617    -1616.903    7973.2055    306.49699    15540 
180000000     -308.707    6078.3922    13065.177   -1628.0665    8015.1657    313.10067    15543 
181000000    -270.9154    6110.2949    12855.617   -1589.3568     7970.567    308.07865    15556 
182000000   -276.11471    6061.3936    12942.461    -1616.047    7953.5552    310.15984    15554 
183000000   -290.98842    5992.8177    12924.241   -1713.8977    7997.7039    309.72321    15551 
184000000     -286.053     6164.676    13029.407   -1573.0135    8023.7425    312.24344    15551 
185000000   -283.76443    6220.8682    12837.096   -1639.9951    8144.6278     307.6348    15557 
186000000   -319.23478    6072.8658    12884.443   -1653.4247    8045.5253    308.76945    15566 
187000000   -280.26381    6217.8239    12921.825   -1655.6073     8153.695     309.6653    15556 
188000000   -306.90175     5932.383     12960.82   -1740.2753      7979.56     310.5998    15574 
189000000   -269.13937    6278.0731    12954.114   -1528.0259    8075.2384    310.43909    15528 
190000000    -285.4006    6104.0395    13020.724   -1586.2132    7975.6533    312.03537    15532 
191000000   -310.94905    6081.4151     12937.58   -1677.2909    8069.6551    310.04287    15572 
192000000   -304.13309    6205.3158    13076.681   -1594.5425    8103.9914    313.37635    15540 
193000000   -258.81161    6089.1671    12923.574   -1611.0599    7959.0385    309.70721    15554 
194000000   -273.01671    6155.7633    12864.841   -1583.7107    8012.4908    308.29971    15560 
195000000   -284.89399    6026.2552    12999.843   -1738.5257    8049.6749    311.53496    15574 
196000000   -280.80492    5913.9391    13018.891   -1713.1422    7907.8862    311.99144    15553 
197000000   -301.35435    6088.4904    12880.502   -1602.3841    7992.2288    308.67501    15566 
198000000    -313.6458    6110.5655    12988.539   -1625.0816    8049.2929    311.26406    15549 
199000000   -318.98664    6002.3583    13128.777   -1675.5052    7996.8501    314.62481    15567 
200000000   -302.07648    6123.6465    12999.392   -1569.0004    7994.7234    311.52416    15548 
201000000   -276.46812    6153.6155    12771.262   -1673.3323    8103.4158    306.05713    15551 
202000000   -270.45897    6030.6708    12934.324   -1645.3877    7946.5175    309.96483    15588 
203000000    -274.7704    6054.6789    12858.208   -1621.7074    7951.1568    308.14075    15576 
204000000   -302.80532    5976.2384    12919.264    -1713.954    7992.9977    309.60391    15588 
205000000   -286.28137    5917.0776    12974.085   -1737.8983    7941.2572    310.91768    15589 
206000000   -282.38039    6118.5999    12952.992   -1644.7522    8045.7325     310.4122    15591 
207000000   -276.93253    6077.6459    12922.094   -1712.9671    8067.5455    309.67175    15586 
208000000   -281.02512    6036.8268    12948.428   -1674.7568    7992.6087    310.30283    15559 
209000000   -287.72874    6103.5427    12903.915   -1608.9864    8000.2578     309.2361    15548 
210000000   -289.50899    6102.1293    12887.276   -1616.3832    8008.0215    308.83734    15579 
211000000   -289.98043    5968.2736    13008.181   -1708.6813    7966.9353    311.73477    15567 
212000000   -300.12533    5956.8847     12915.57   -1767.8331    8024.8431    309.51541    15587 
213000000   -307.55834    6222.8093    12976.357   -1524.9216    8055.2892    310.97212    15567 
214000000   -303.82197    5905.2605    12951.812   -1729.7387    7938.8211    310.38393    15584 
215000000   -302.56813    6111.1615    12979.488    -1611.191    8024.9206    311.04717    15572 
216000000   -286.66212    5942.8827    13025.176   -1676.1009    7905.6457    312.14206    15554 
217000000   -270.46953    6073.0783    12935.667    -1601.487    7945.0348    309.99702    15538 
218000000    -305.3951    6078.9154      12804.6   -1634.5472    8018.8577    306.85607    15557 
219000000   -295.20627    6077.1425    12978.073   -1601.5455    7973.8942    311.01326    15571 
220000000   -280.77383    6055.4716    12935.932   -1641.7193    7977.9647    310.00337    15573 
221000000   -271.79039    6220.7927    12886.508   -1606.4114    8098.9945    308.81895    15570 
222000000   -314.52683    6084.4052    12871.545   -1678.2244    8077.1564    308.46037    15563 
223000000   -301.75504    5888.5764     13048.26   -1759.2285    7949.5599    312.69526    15571 
224000000   -309.77366    6144.3912    12979.092   -1614.7326    8068.8975    311.03768    15565 
225000000   -275.37876    6114.8987    12923.398   -1635.4762    8025.7537    309.70299    15565 
226000000   -291.62165     6069.248    12935.185   -1662.4538    8023.3235    309.98545    15549 
227000000   -289.76231    6298.8055    13035.456   -1516.0903    8104.6581    312.38842    15549 
228000000   -275.54251    6124.0713    12898.561   -1605.8464    8005.4602     309.1078    15585 
229000000   -258.24643     6137.286    12898.843    -1559.186    7954.7184    309.11456    15550 
230000000   -281.57127     5827.899    12925.456   -1763.2246    7872.6948    309.75232    15599 
231000000   -283.04022    5862.2371    12895.211   -1743.5633    7888.8406    309.02751    15572 
232000000   -297.22439    6119.7153    12989.683    -1580.892    7997.8318    311.29148    15565 
233000000   -294.23126    6007.1096    12906.996   -1612.9306    7914.2714    309.30992    15550 
234000000   -292.09318    6063.6996    12959.594   -1571.5744    7927.3672    310.57041    15554 
235000000   -282.35871    6079.9497    12905.717   -1697.2901    8059.5985    309.27928    15570 
236000000   -305.17811    6161.3055    12982.714   -1622.7838    8089.2674    311.12448    15552 
237000000   -298.14613    5933.4824    12882.913   -1719.5638    7951.1923     308.7328    15583 
238000000   -281.81219    5919.6104    13012.695   -1747.4286    7948.8512    311.84295    15576 
239000000   -278.84942    6182.6571    13154.379   -1660.0547    8121.5611    315.23833    15590 
240000000   -289.19413    5900.6403    12963.707    -1743.005    7932.8394    310.66898    15582 
241000000   -255.93936    6093.7292    12937.789   -1667.9838    8017.6523    310.04787    15599 
242000000    -276.2108    6112.4006    12983.889   -1611.5982    8000.2096    311.15262    15562 
243000000    -280.9651    6093.2613    12972.234   -1637.6671    8011.8936    310.87333    15555 
244000000   -300.56816    6040.8732    12952.539   -1628.8081    7970.2495    310.40136    15555 
245000000   -303.63561    6103.7712    12984.178   -1573.9062     7981.313    311.15957    15554 
246000000   -298.28981    6140.7353    12876.341   -1504.8027    7943.8278    308.57529    15543 
247000000   -288.56586    6049.0237    13010.737   -1673.4577    8011.0472    311.79604    15555 
248000000   -285.70533    6059.6077    12995.309    -1649.709     7995.022     311.4263    15563 
249000000   -262.98071    6080.8357    12957.702   -1693.3718    8037.1882    310.52507    15567 
250000000   -271.59686    6056.5254    12987.421   -1691.8946    8020.0168    311.23728    15577 
251000000    -290.0258    5993.7631    13017.073   -1716.4164    8000.2052    311.94788    15566 
252000000   -294.75668    6196.9837    12981.763    -1542.245    8033.9854    311.10167    15559 
253000000   -289.10405    6202.3015    12990.012   -1523.5564    8014.9619    311.29936    15544 
254000000   -271.25262    6394.0392     13010.79   -1451.3535    8116.6453     311.7973    15538 
255000000   -301.22707    6049.4039    12955.062   -1587.2285    7937.8594     310.4618    15541 
256000000   -301.22431    6063.4963     12903.05   -1645.6481    8010.3687    309.21537    15572 
257000000   -271.35394    6135.9445    13021.301   -1613.1987    8020.4972    312.04918    15563 
258000000   -278.79396     5870.775    12965.015   -1786.9571    7936.5261    310.70032    15588 
259000000   -252.02549    6021.6442    12967.403   -1666.2806    7939.9503    310.75756    15574 
260000000   -284.52139    5919.7632    12868.741   -1772.5871    7976.8716    308.39317    15573 
261000000   -283.40693    6113.2981    12906.726   -1578.2238    7974.9288    309.30345    15578 
262000000   -299.25798    6078.2374    12908.095   -1580.8173    7958.3127    309.33626    15568 
263000000   -308.83533    5956.7542    12843.122   -1737.9002    8003.4897    307.77923    15570 
264000000   -281.44768    6105.2175    12776.792    -1622.902    8009.5672    306.18966    15563 
265000000   -274.48867     6130.256     12874.94   -1584.0728    7988.8175    308.54173    15559 
266000000   -318.23801     6008.672    12875.502   -1686.8658    8013.7758    308.55519    15563 
267000000   -260.76144    6101.2596    13011.068   -1614.6792    7976.7002    311.80396    15556 
268000000   -324.09007    6160.1615    12968.801   -1523.7354     8007.987    310.79105    15544 
269000000   -282.51583    6238.0505    12853.697   -1495.1601    8015.7264    308.03265    15531 
270000000   -289.12881    6118.9101     12898.15    -1732.837    8140.8759    309.09794    15578 
271000000   -271.87671    6049.7796    12818.732     -1632.54    7954.1964    307.19473    15568 
272000000   -264.73985    5911.4157    13021.488   -1680.6413    7856.7968    312.05367    15566 
273000000   -256.99949    6049.3775    13239.517   -1741.5194    8047.8964    317.27863    15573 
274000000    -299.0617    6155.0378    12948.259   -1560.8692    8014.9686    310.29877    15540 
275000000   -271.20272    5875.2452    12867.674   -1826.2732    7972.7212     308.3676    15585 
276000000   -251.95234    5907.8286    12862.656   -1755.5812    7915.3621    308.24734    15585 
277000000   -267.34207    5900.7632    12940.666   -1704.9893    7873.0946    310.11681    15561 
278000000   -265.60948    5973.2305    12795.513   -1682.0633    7920.9032    306.63828    15566 
279000000   -271.73208    6027.4783    12790.609   -1794.1032    8093.3135    306.52076    15583 
280000000   -263.79281    6185.4383    12927.329   -1652.9081    8102.1393    309.79719    15548 
281000000   -298.73747    6131.5367    12833.674    -1593.765    8024.0391     307.5528    15533 
282000000   -319.70543    6198.8731    12762.599   -1538.0405     8056.619    305.84952    15552 
283000000   -296.86899    6189.5812    13033.576   -1619.3258     8105.776    312.34337    15548 
284000000   -259.76123    6231.6689     13054.11   -1533.4905    8024.9206    312.83546    15528 
285000000   -296.21616    6036.1439    12926.975    -1646.584    7978.9441    309.78873    15561 
286000000   -292.75508    6118.9505    12868.669   -1568.8654     7980.571    308.39145    15544 
287000000   -300.99207    6027.8387    12834.448   -1664.7582    7993.5889    307.57134    15580 
288000000   -281.39062    6068.2063    12815.493   -1640.9829    7990.5799    307.11711    15577 
289000000   -284.76841    5895.3854    13123.626   -1740.0776    7920.2314    314.50136    15573 
290000000    -259.5735    6115.3525    12981.436   -1616.1146    7991.0406    311.09385    15558 
291000000   -260.57664    6244.9744    12800.546   -1648.6305    8154.1816    306.75891    15548 
292000000    -280.8788    6164.8875    13002.196   -1580.2177     8025.984    311.59134    15542 
293000000   -264.31564    6097.8528    12826.252   -1610.7773    7972.9457    307.37495    15552 
294000000   -300.31546    6186.7457    12832.209   -1545.3553    8032.4164    307.51769    15551 
295000000   -291.77887    6097.6605    12976.067   -1642.5157    8031.9551    310.96518    15542 
296000000   -289.01205    5986.2954     12901.72   -1676.1093    7951.4168    309.18348    15589 
297000000   -292.84578     6161.519    13059.934   -1616.5155    8070.8802    312.97502    15560 
298000000   -284.47692    5971.2213    12816.155   -1731.6172    7987.3155    307.13296    15577 
299000000   -267.81404    6032.4899    12962.261   -1658.3927    7958.6966    310.63433    15580 
300000000   -304.38392    6065.9748    12948.184   -1698.2457    8068.6044    310.29697    15586 
301000000   -298.07953    5986.8997    12953.152   -1725.7006    8010.6798    310.41603    15574 
302000000    -261.8765    6002.2923     12929.62     -1786.53    8050.6988    309.85211    15585 
303000000   -305.19376    5929.4776    12958.512   -1708.5148    7943.1862    310.54448    15577 
304000000    -306.6814    5870.6901    12983.167   -1781.3429    7958.7144    311.13532    15599 
305000000   -285.11682     5799.002    12906.562   -1821.4333    7905.5521    309.29952    15608 
306000000   -287.58494    5917.7076    13045.882   -1734.0801    7939.3726    312.63827    15591 
307000000   -325.79723    5882.4637    13054.481   -1774.8365    7983.0974    312.84433    15590 
308000000   -264.34309     5921.529    13025.771    -1775.195    7961.0671     312.1563    15586 
309000000   -284.18871    6056.7942    12918.596   -1639.4664    7980.4493    309.58792    15574 
310000000   -270.20232    5968.5706    12895.504   -1673.3566    7912.1296    309.03454    15559 
311000000   -259.99257    5963.6902    13108.322   -1746.5762     7970.259    314.13462    15566 
312000000    -271.5043    6143.2335    12871.395   -1597.7183     8012.456    308.45678    15553 
313000000   -278.32558    6023.7158    12853.061   -1669.7756    7971.8169    308.01741    15561 
314000000   -288.76294    6038.7215    12956.751   -1679.3353    8006.8198    310.50228    15579 
315000000   -253.52371    6083.7936    12849.919   -1652.7583    7990.0755    307.94209    15570 
316000000   -312.80716    6188.9422    12831.568   -1584.2557     8086.005    307.50234    15559 
317000000   -290.91908    5991.5617     12908.03   -1659.5584    7942.0392     309.3347    15565 
318000000   -283.12429    5967.5784    12865.218    -1733.888    7984.5907    308.30874    15558 
319000000   -262.73316    5972.9326    12979.908   -1694.8121    7930.4778    311.05722    15574 
320000000   -308.21636    6101.1572    13067.174   -1531.2729    7940.6465    313.14851    15538 
321000000    -255.3432    6118.6316     13038.27    -1695.618    8069.5928    312.45585    15581 
322000000   -246.79028    6082.1485    12763.124   -1622.8639    7951.8027    305.86211    15556 
323000000   -299.15361    6006.2069    12887.259   -1641.4594    7946.8199    308.83694    15556 
324000000   -285.75242    6218.1866    13092.849     -1488.64     7992.579     313.7638    15531 
325000000   -283.46708    6087.7776    12998.661   -1631.5189    8002.7636    311.50663    15568 
326000000   -269.43213     6140.034    13033.572   -1622.4744    8031.9406    312.34325    15551 
327000000   -301.11445    6071.4025    13157.903   -1683.6689    8056.1858     315.3228    15563 
328000000   -322.50345    5974.9858    12840.247   -1638.3377    7935.8269    307.71031    15561 
329000000    -267.4016    6088.3748    12905.749   -1588.9058    7944.6821    309.28004    15551 
330000000   -286.54475      6063.08    12756.367   -1688.9284    8038.5531    305.70017    15571 
331000000   -280.05882    6236.0522    12962.834   -1519.6599    8035.7709    310.64805    15550 
332000000    -293.4973    6145.6798    13044.138   -1590.7917    8029.9689    312.59647    15564 
333000000   -291.77227    6245.6062    12713.195   -1514.8873    8052.2657    304.66558    15551 
334000000   -242.98539    6136.1651    12943.137   -1698.7542    8077.9047    310.17604    15574 
335000000   -268.71443    6134.6041    12928.761   -1628.0747    8031.3932    309.83151    15550 
336000000   -294.46479    6137.1534    12738.972   -1584.0956    8015.7138     305.2833    15562 
337000000   -285.07704    6234.6901     13036.41   -1610.1915    8129.9586    312.41128    15558 
338000000   -286.74933    5950.0805    12977.516   -1703.6558    7940.4856     310.9999    15582 
339000000   -280.78914    6115.4093      12836.5   -1669.8133    8066.0117    307.62053    15563 
340000000   -269.32662     6136.796     13035.38   -1635.5633    8041.6859    312.38658    15579 
341000000   -269.67711    6138.2679    12880.398   -1620.6077    8028.5527    308.67253    15576 
342000000   -251.17698    5954.3141    12916.236   -1682.6746    7888.1657    309.53136    15575 
343000000   -292.69949    6058.0773    12944.774   -1645.2609    7996.0377    310.21525    15540 
344000000   -269.01178    6230.5803    12847.862   -1602.6795    8102.2715    307.89281    15549 
345000000   -284.85027     5979.452    12902.456   -1680.7611    7945.0634    309.20113    15554 
346000000   -289.36827    6336.2388    12973.052   -1419.9032    8045.5103    310.89293    15532 
347000000   -287.26999    6252.2246    12902.749   -1544.6181    8084.1126    309.20815    15553 
348000000   -276.79007    5888.7941    12809.139   -1844.7024    8010.2866    306.96483    15594 
349000000    -280.0638    6062.6171    13077.187   -1710.0866    8052.7675    313.38847    15597 
350000000    -265.5144    6153.2197    12847.008   -1643.0247    8061.7587    307.87235    15572 
351000000   -310.84482    5982.7303    12872.774   -1656.3254    7949.9005     308.4898    15565 
352000000   -274.33188    6042.6602    13016.385   -1686.0225    8003.0145    311.93139    15568 
353000000   -275.96368     6135.873    12901.925   -1624.6545    8036.4912     309.1884    15569 
354000000   -265.03502    6043.0484    12771.516   -1589.1018    7897.1853    306.06321    15545 
355000000   -288.66826     6071.855    12820.921   -1664.1847    8024.7079    307.24719    15561 
356000000   -299.36924    6178.3774    12975.352   -1643.6559    8121.4025    310.94805    15550 
357000000   -256.38086    6136.6289    13050.042   -1606.2514    7999.2611    312.73795    15561 
358000000   -297.81812    6050.4157    13092.746   -1673.8874    8022.1212    313.76134    15583 
359000000   -266.81389    6018.1546    13019.315     -1755.12    8040.0884    312.00161    15583 
360000000   -270.03056    5876.0866    12901.228    -1865.859    8011.9761    309.17171    15581 
361000000   -285.73384    5914.8312    12894.853   -1717.6189    7918.1839    309.01893    15574 
362000000   -267.35582    5969.0349    13046.758    -1718.867    7955.2578    312.65926    15575 
363000000   -290.16898    6090.6668    12988.467   -1621.3932     8002.229    311.26235    15575 
364000000   -269.53786    5960.3702    13029.176   -1747.0768    7976.9849    312.23792    15566 
365000000   -292.95251    6036.5016    12868.234   -1672.8265    8002.2807    308.38101    15566 
366000000   -313.42251    5898.6853    12989.182   -1790.7369    8002.8447    311.27947    15590 
367000000   -282.86091    5938.7361    12884.421   -1757.9142    7979.5112    308.76894    15589 
368000000   -305.89759    5954.1938    12898.603   -1711.3466    7971.4381    309.10879    15585 
369000000   -302.86241    5899.6561    12820.277   -1726.7029    7929.2213    307.23176    15578 
370000000    -285.5217    6034.4017    13012.921   -1674.8745    7994.7979    311.84837    15561 
371000000   -317.16281    6060.3188    12889.987   -1699.9197    8077.4012    308.90233    15588 
372000000   -272.79999    5996.3881    12888.762   -1742.7319    8011.9201    308.87296    15586 
373000000   -266.80298    6042.3532    12823.483   -1711.9425    8021.0987    307.30858    15576 
374000000   -290.91741    5945.7673    12853.823   -1761.5265    7998.2112    308.03566    15574 
375000000   -274.04924    6057.0826    12889.225   -1711.5223    8042.6542    308.88406    15576 
376000000   -271.26792    6041.7673     12867.92   -1646.7577    7959.7929     308.3735    15550 
377000000   -295.91435    6025.4462    12906.963   -1672.2033    7993.5638    309.30914    15570 
378000000   -295.50417    6034.8713    12930.316   -1748.9968    8079.3722    309.86878    15578 
379000000   -290.12589    5928.2431     12814.98    -1731.534    7949.9029     307.1048    15579 
380000000    -272.3498    5983.8109    12800.153   -1675.5601    7931.7208    306.74948    15574 
381000000   -273.25541    6033.2037    12918.834   -1646.8067    7953.2658    309.59361    15552 
382000000   -285.37189    5931.9261    12735.744   -1735.0821    7952.3801    305.20595    15583 
383000000   -264.61376    6209.9436    13021.871   -1605.7643    8080.3216    312.06285    15573 
384000000   -296.44147    6141.5978    12979.725   -1528.1134    7966.1527    311.05284    15544 
385000000   -280.86968    5957.1077    12762.196   -1686.9189    7924.8963    305.83987    15577 
386000000   -244.58245    5831.4085    13087.908   -1800.7041     7876.695    313.64539    15585 
387000000   -297.69057    5965.6775    12859.016   -1694.2385    7957.6065    308.16012    15577 
388000000   -287.74181    5992.8673    12958.964   -1667.2101    7947.8192    310.55531    15563 
389000000   -251.30071    5955.1243    13178.084    -1749.381    7955.8061    315.80643    15580 
390000000   -300.29218    5918.4877    13010.367   -1722.3436    7941.1235    311.78716    15585 
391000000   -211.48615    6150.5592    12963.369   -1674.5837     8036.629    310.66089    15570 
392000000   -266.59594    6125.3735    12884.768   -1516.4382    7908.4077    308.77724    15550 
393000000   -297.06134     6127.551    12932.305   -1604.1928    8028.8051    309.91645    15540 
394000000   -293.54045    6041.5623    12999.841   -1553.9558    7889.0585    311.53492    15557 
395000000   -297.12216    6101.5251    12954.178   -1617.6238     8016.271    310.44063    15554 
396000000   -287.11829    6027.9212    12860.971   -1683.5256    7998.5651    308.20697    15576 
397000000   -268.19458    5961.7269    12935.094   -1680.7739    7910.6954    309.98328    15579 
398000000   -276.30726    5923.4821    12830.583   -1769.6238    7969.4132    307.47872    15594 
399000000   -288.49578    5956.7168    12999.891   -1788.5698    8033.7824    311.53611    15591 
400000000   -247.68398    5898.5961    12928.448   -1781.2307    7927.5109    309.82401    15607 
401000000   -257.19904    6098.5908    13071.558    -1614.554    7970.3439    313.25358    15589 
402000000   -306.41977    5999.4609    12870.155   -1711.0982    8016.9789    308.42706    15569 
403000000   -260.34438    6041.1592    12887.326   -1559.8391    7861.3427    308.83854    15548 
404000000   -259.22661    6190.1969    13018.201   -1655.6299    8105.0534    311.97491    15562 
405000000   -307.77035    5887.3804    12917.581   -1781.7063     7976.857    309.56358    15573 
406000000   -294.66467    6045.3302    12986.413   -1598.5342    7938.5291    311.21311    15552 
407000000   -279.17456    5777.5712    13146.608   -1767.2901    7824.0358    315.05213    15567 
408000000   -293.06786    6115.5736     13027.11   -1632.8654     8041.507     312.1884    15554 
409000000   -291.34965    6125.3212    13113.788   -1581.3505    7998.0213     314.2656    15549 
410000000   -281.74495    6063.6554    12821.877   -1625.4532    7970.8535    307.27008    15548 
411000000    -290.9978    6045.0431    12942.881   -1656.9299    7992.9708     310.1699    15573 
412000000   -268.78517    6115.3117    12823.223   -1563.7157    7947.8125    307.30234    15542 
413000000   -280.91904    6147.1993    12941.366   -1577.6162    8005.7345    310.13358    15564 
414000000   -291.00067    5982.8642    13055.331   -1654.8074    7928.6722    312.86469    15549 
415000000   -280.55539    6064.2492     12989.64   -1676.2358    8021.0403    311.29044    15573 
416000000   -270.18528    6143.9535     13141.08   -1598.2298    8012.3685    314.91965    15565 
417000000   -271.25675     6051.892    13007.123   -1628.9518    7952.1006    311.70942    15553 
418000000   -318.58789    6115.0687    12864.124   -1642.6679    8076.3245    308.28253    15570 
419000000   -306.73918    6066.0164    13009.662   -1668.2552    8041.0108    311.77027    15571 
420000000   -311.51106    6017.0648    13031.398   -1709.1017    8037.6775    312.29115    15569 
421000000   -279.42418    6106.3168    12817.099   -1647.6241     8033.365     307.1556    15576 
422000000   -290.52232    6015.2367    12989.227   -1619.9207    7925.6798    311.28055    15556 
423000000   -284.19839    6083.6623    13024.555   -1546.1348    7913.9955    312.12717    15541 
424000000   -296.84202    5916.6668     12957.83   -1711.8284    7925.3373    310.52815    15568 
425000000   -270.50159    5980.6772     12861.53   -1726.3601    7977.5388    308.22035    15567 
426000000   -299.36007    5965.7488    13045.831   -1642.7519    7907.8607    312.63704    15569 
427000000    -289.8832    6066.1305    12904.973   -1549.9846    7905.9983    309.26144    15557 
428000000   -281.91044    6096.8705    12915.327   -1597.9762    7976.7572    309.50958    15550 
429000000   -296.74649    5825.2291    13157.323   -1705.6841    7827.6598    315.30888    15584 
430000000   -264.89481    6121.9548    12923.222   -1634.5434     8021.393    309.69878    15561 
431000000   -305.06093     6158.812    12950.671   -1548.9963    8012.8692    310.35658    15549 
432000000   -257.16502    6008.4802    12812.894   -1738.8676    8004.5128    307.05482    15569 
433000000   -281.62789    6090.2424    12712.451   -1685.8491    8057.7194    304.64774    15566 
434000000   -286.82458    5980.8558    12763.573   -1659.2881    7926.9685    305.87286    15564 
435000000   -287.61606    6041.8113     13021.51   -1642.6312    7972.0586    312.05421    15565 
436000000   -283.90608    6180.9187    12986.095   -1626.9273    8091.7521    311.20551    15559 
437000000   -277.84014    6113.9846    12799.213   -1598.2463     7990.071    306.72697    15561 
438000000   -291.90384    5984.6807    12854.211   -1629.6824    7906.2669    308.04495    15560 
439000000   -281.53593    6195.3961    12799.779   -1590.2942    8067.2263    306.74053    15540 
440000000   -285.66174    5947.6431    13029.867   -1656.0258    7889.3307    312.25448    15567 
441000000   -245.74094    6040.6161    13028.107   -1661.7972    7948.1542    312.21229    15553 
442000000   -266.95025    5961.2401    12958.761   -1734.9055    7963.0958    310.55044    15572 
443000000   -260.23567    6076.6326    12961.766   -1585.1051    7921.9734    310.62247    15550 
444000000   -292.13891    6028.7035    13007.269   -1658.3137     7979.156    311.71292    15578 
445000000   -263.01362    5973.3578    12947.979   -1664.4131    7900.7846    310.29205    15557 
446000000   -316.70378    6229.5099     12986.21    -1513.766    8059.9798    311.20825    15547 
447000000   -260.42717    6088.3087    13012.628   -1696.8422     8045.578    311.84135    15597 
448000000   -278.16955    6213.0232    12908.231   -1569.5829    8060.7756    309.33953    15566 
449000000   -300.10333    6160.8525    12833.044   -1593.2926    8054.2484    307.53771    15561 
450000000   -264.42808    6084.1443    13060.584   -1591.6379    7940.2103     312.9906    15563 
451000000   -325.19087    6055.4154    12860.342   -1637.4757     8018.082     308.1919    15574 
452000000   -293.17812    6132.8683     13051.16   -1608.6894    8034.7358    312.76474    15551 
453000000   -273.67332    6073.1678    12975.833    -1721.014    8067.8551    310.95957    15575 
454000000   -250.00362    5988.0283     12939.65   -1706.9004    7944.9324    310.09246    15589 
455000000   -280.28299    6155.3799    12935.169   -1649.4098    8085.0727    309.98508    15571 
456000000   -263.23704    6015.1092    12938.671   -1622.1265    7900.4728    310.06901    15559 
457000000   -243.70776    6072.2679    13036.272   -1603.8742    7919.8498    312.40797    15542 
458000000   -293.97631    5952.0846    12877.593   -1727.1176    7973.1785     308.6053    15568 
459000000   -323.65205    5927.9109    12991.032   -1764.3033    8015.8662    311.32382    15571 
460000000   -264.91139    6026.6235    12770.064    -1597.506    7889.0409    306.02842    15558 
461000000   -282.60395    6027.9422    13026.627   -1585.7592    7896.3054    312.17682    15547 
462000000    -291.9041    6112.8506    12984.378   -1563.5619    7968.3166    311.16434    15553 
463000000   -305.54766    6193.3677     12971.17   -1561.3684    8060.2838    310.84782    15545 
464000000   -280.75014    5891.3321    12935.068   -1703.8976    7875.9798    309.98266    15591 
465000000   -286.85162    6180.7752    12985.107   -1504.7987    7972.4255    311.18183    15538 
466000000   -282.64896    6126.8337    13040.465   -1635.0839    8044.5666    312.50846    15548 
467000000   -289.10475    6095.9354    12951.956   -1578.1926    7963.2327    310.38738    15523 
468000000   -307.52831    6141.3908    12990.881   -1598.8087    8047.7278     311.3202    15543 
469000000   -264.87539    5995.2577    12945.307   -1726.4174    7986.5504    310.22802    15585 
470000000   -268.91695    5918.9413    13006.666   -1762.1836    7950.0418    311.69847    15585 
471000000   -270.42842    6124.6549    12896.528   -1605.4405    8000.5239    309.05907    15553 
472000000   -279.94839    6139.6596    12995.639   -1637.1131    8056.7211    311.43421    15572 
473000000   -259.16531    6079.5451    12868.478   -1591.1418    7929.8522    308.38687    15567 
474000000   -276.02236    5979.4082    12962.377   -1687.7895    7943.2201    310.63712    15556 
475000000    -297.0274    6072.5516    12926.916   -1640.2539    8009.8329    309.78729    15552 
476000000   -326.27799    5962.8873    12836.726   -1739.5949    8028.7602    307.62594    15580 
477000000   -254.55723    6247.6625    12929.117    -1522.642    8024.8618    309.84004    15561 
478000000   -273.67795    5894.7776    12688.684   -1743.0691    7911.5247    304.07819    15557 
479000000   -292.75345    6285.0079    12804.674   -1437.1916    8014.9529    306.85782    15548 
480000000   -295.13109     6106.713    12901.565   -1641.6844    8043.5285    309.17977    15569 
481000000   -229.06203     6155.939    12957.986   -1639.2451    8024.2461    310.53187    15575 
482000000   -264.39402    6006.7191    13005.785    -1712.241    7983.3541    311.67736    15567 
483000000   -269.31912    6160.9772    12934.724   -1564.1015    7994.3978    309.97441    15555 
484000000   -267.64188    6227.8635    12898.374   -1576.1987    8071.7041     309.1033    15566 
485000000   -269.09771    5912.0752    13047.177   -1737.5846    7918.7576     312.6693    15561 
486000000   -254.20976     6120.841    12996.564   -1664.2373    8039.2881    311.45639    15578 
487000000   -266.85306    6145.1957    12930.084   -1675.4305    8087.4792    309.86321    15552 
488000000   -270.43625    6236.0285     13009.17   -1521.1773    8027.6421    311.75847    15531 
489000000   -262.00225    6090.6124    12969.806   -1604.1214     7956.736    310.81513    15546 
490000000   -257.41281    6052.0431     13007.97   -1718.1431     8027.599    311.72971    15581 
491000000   -262.11385    6116.0055    13015.636   -1606.6481    7984.7675    311.91344    15557 
492000000   -265.07311     6033.335    12907.197   -1620.2781    7918.6862    309.31475    15573 
493000000    -272.2167    6092.8174    13018.628   -1663.6586    8028.6928    311.98514    15556 
494000000   -278.98809    6080.1213    12790.013   -1671.6502    8030.7596    306.50649    15586 
495000000   -274.93726    6130.9254    12773.525   -1601.4689    8007.3316    306.11136    15550 
496000000   -274.58985    6213.2518    12951.886   -1610.5357    8098.3774    310.38569    15546 
497000000   -253.79283     6218.869    12946.008   -1550.1526    8022.8144    310.24483    15546 
498000000   -256.36148    6043.7567     12981.88   -1659.8295    7959.9477    311.10448    15549 
499000000   -277.77106    6233.4444    12864.535   -1510.2197    8021.4352    308.29236    15527 
500000000    -267.3879    6117.4475    12806.744   -1575.0036     7959.839    306.90744    15546 
Loop time of 117641 on 28 procs for 500000000 steps with 14000 atoms

Performance: 9180.491 ns/day, 0.003 hours/ns, 4250.227 timesteps/s
99.3% CPU use with 28 MPI tasks x no OpenMP threads

MPI task timing breakdown:
Section |  min time  |  avg time  |  max time  |%varavg| %total
---------------------------------------------------------------
Pair    | 10025      | 11016      | 12348      | 457.5 |  9.36
Bond    | 5728.1     | 6158.8     | 8745.3     | 876.7 |  5.24
Neigh   | 31327      | 32135      | 32902      | 311.7 | 27.32
Comm    | 33507      | 38235      | 40907      | 807.6 | 32.50
Output  | 0.65673    | 0.65757    | 0.65804    |   0.0 |  0.00
Modify  | 21998      | 22444      | 23520      | 280.6 | 19.08
Other   |            | 7652       |            |       |  6.50

Nlocal:    500 ave 540 max 459 min
Histogram: 2 0 2 3 8 2 8 1 1 1
Nghost:    462 ave 680 max 196 min
Histogram: 1 2 0 5 3 6 2 5 3 1
Neighs:    2724.71 ave 3205 max 2092 min
Histogram: 1 0 3 1 4 5 7 4 2 1

Total # of neighbors = 76292
Ave neighs/atom = 5.44943
Ave special neighs/atom = 7.75786
Neighbor list builds = 99901681
Dangerous builds = 0
System init for write_restart ...
Total wall time: 32:40:43
