LAMMPS (5 Jun 2019)
Reading data file ...
  orthogonal box = (-420 -420 -420) to (420 420 420)
  2 by 2 by 7 MPI processor grid
  reading atoms ...
  14000 atoms
  scanning bonds ...
  51 = max bonds/atom
  scanning angles ...
  1 = max angles/atom
  reading bonds ...
  13800 bonds
  reading angles ...
  13600 angles
Finding 1-2 1-3 1-4 neighbors ...
  special bond factors lj:   0          0          0         
  special bond factors coul: 0          0          0         
  2 = max # of 1-2 neighbors
  2 = max # of 1-3 neighbors
  4 = max # of 1-4 neighbors
  56 = max # of special neighbors
  special bonds CPU = 0.00336712 secs
  read_data CPU = 0.0585549 secs
Finding 1-2 1-3 1-4 neighbors ...
  special bond factors lj:   1          1          1         
  special bond factors coul: 0          0          0         
  2 = max # of 1-2 neighbors
  2 = max # of 1-3 neighbors
  4 = max # of 1-4 neighbors
  56 = max # of special neighbors
  special bonds CPU = 0.000742789 secs
WARNING: Using 'neigh_modify every 1 delay 0 check yes' setting during minimization (../min.cpp:168)
Neighbor list info ...
  update every 1 steps, delay 0 steps, check yes
  max neighbors/atom: 2000, page size: 100000
  master list distance cutoff = 26.9
  ghost atom cutoff = 26.9
  binsize = 13.45, bins = 63 63 63
  1 neighbor lists, perpetual/occasional/extra = 1 0 0
  (1) pair lj/cut, perpetual
      attributes: half, newton on
      pair build: half/bin/newton
      stencil: half/bin/3d/newton
      bin: standard
Setting up cg style minimization ...
  Unit style    : real
  Current step  : 0
Per MPI rank memory allocation (min/avg/max) = 1.165 | 13.79 | 17.67 Mbytes
Step Temp E_pair E_mol TotEng Press 
       0            0 1.5959422e+12      2649600 1.5959449e+12 7.3854599e+08 
    2872            0   -1769.6168    5348.8369    3579.2201  0.031182827 
Loop time of 0.652398 on 28 procs for 2872 steps with 14000 atoms

99.0% CPU use with 28 MPI tasks x no OpenMP threads

Minimization stats:
  Stopping criterion = energy tolerance
  Energy initial, next-to-last, final = 
     1.59594489115e+12      3579.56365059      3579.22009235
  Force two-norm initial, final = 4.92929e+10 2.03587
  Force max component initial, final = 1.05441e+09 0.154693
  Final line search alpha, max atom move = 0.461827 0.0714414
  Iterations, force evaluations = 2872 3119

MPI task timing breakdown:
Section |  min time  |  avg time  |  max time  |%varavg| %total
---------------------------------------------------------------
Pair    | 0.042426   | 0.14319    | 0.26809    |  17.4 | 21.95
Bond    | 0.01353    | 0.039354   | 0.06999    |   8.2 |  6.03
Neigh   | 0.087645   | 0.089087   | 0.090245   |   0.2 | 13.66
Comm    | 0.090447   | 0.2289     | 0.376      |  16.5 | 35.09
Output  | 0          | 0          | 0          |   0.0 |  0.00
Modify  | 0          | 0          | 0          |   0.0 |  0.00
Other   |            | 0.1519     |            |       | 23.28

Nlocal:    500 ave 911 max 179 min
Histogram: 3 3 4 4 5 0 2 3 2 2
Nghost:    314.393 ave 518 max 130 min
Histogram: 3 2 3 3 4 4 3 3 2 1
Neighs:    3173.18 ave 5987 max 902 min
Histogram: 3 2 6 3 5 0 1 3 3 2

Total # of neighbors = 88849
Ave neighs/atom = 6.34636
Ave special neighs/atom = 5.82857
Neighbor list builds = 199
Dangerous builds = 0
Setting up Verlet run ...
  Unit style    : real
  Current step  : 2872
  Time step     : 0.1
Per MPI rank memory allocation (min/avg/max) = 1.127 | 13.42 | 16.54 Mbytes
Step Temp E_pair E_mol TotEng Press 
    2872            0   -1769.6168    5348.8369    3579.2201  0.031182827 
   12872    226.56321   -1479.7826    9124.3981    17098.727   -1.6872156 
Loop time of 1.35724 on 28 procs for 10000 steps with 14000 atoms

Performance: 63.659 ns/day, 0.377 hours/ns, 7367.908 timesteps/s
99.3% CPU use with 28 MPI tasks x no OpenMP threads

MPI task timing breakdown:
Section |  min time  |  avg time  |  max time  |%varavg| %total
---------------------------------------------------------------
Pair    | 0.044994   | 0.16798    | 0.36701    |  21.5 | 12.38
Bond    | 0.035831   | 0.10726    | 0.19535    |  13.7 |  7.90
Neigh   | 0.0023307  | 0.0023889  | 0.0024517  |   0.1 |  0.18
Comm    | 0.27623    | 0.51983    | 0.73846    |  17.8 | 38.30
Output  | 5.7523e-05 | 8.5104e-05 | 0.00010634 |   0.0 |  0.01
Modify  | 0.089589   | 0.24738    | 0.45599    |  20.2 | 18.23
Other   |            | 0.3123     |            |       | 23.01

Nlocal:    500 ave 911 max 179 min
Histogram: 3 2 5 4 5 0 2 3 2 2
Nghost:    315.464 ave 514 max 138 min
Histogram: 3 3 2 3 4 3 4 2 3 1
Neighs:    3184 ave 6017 max 914 min
Histogram: 3 2 5 5 4 0 1 2 4 2

Total # of neighbors = 89152
Ave neighs/atom = 6.368
Ave special neighs/atom = 5.82857
Neighbor list builds = 5
Dangerous builds = 0
4000 atoms in group rxnSites
Neighbor list info ...
  update every 1 steps, delay 1 steps, check yes
  max neighbors/atom: 2000, page size: 100000
  master list distance cutoff = 26.9
  ghost atom cutoff = 26.9
  binsize = 13.45, bins = 63 63 63
  2 neighbor lists, perpetual/occasional/extra = 1 1 0
  (1) pair lj/cut, perpetual
      attributes: half, newton on
      pair build: half/bin/newton
      stencil: half/bin/3d/newton
      bin: standard
  (2) fix bond/create/random, occasional, copy from (1)
      attributes: half, newton on
      pair build: copy
      stencil: none
      bin: none
Setting up Verlet run ...
  Unit style    : real
  Current step  : 0
  Time step     : 25
Per MPI rank memory allocation (min/avg/max) = 17.76 | 18.29 | 18.83 Mbytes
Step E_pair PotEng KinEng E_bond E_angle Temp Bonds 
       0   -1479.7826    7644.6155    9454.1112    3028.8989    6095.4992    226.56321    13800 
 1000000   -274.60424    8386.0419    12884.145    535.84273    8124.8034    308.76232    14891 
 2000000   -258.67043    7736.7861      13056.5    38.468593     7956.988    312.89272    15047 
 3000000   -269.14915    7449.1789    12875.548     -227.497    7945.8251    308.55629    15141 
 4000000   -261.16253    7327.0236    12883.986   -459.40524    8047.5914    308.75851    15222 
 5000000   -277.76006    7333.7718    12800.872   -516.48418     8128.016    306.76671    15224 
 6000000    -267.3841    6958.4327    12841.286   -800.32836    8026.1452    307.73521    15291 
 7000000   -277.96441    6932.6259    13016.662   -882.56588    8093.1562    311.93801    15317 
 8000000   -269.68201    6980.8704    13018.182   -780.29378    8030.8462    311.97444    15326 
 9000000   -258.60717    6840.9969    12932.341   -996.26577    8095.8699    309.91731    15360 
10000000     -268.291     6576.144    12935.512   -1130.9154    7975.3503    309.99329    15402 
11000000   -263.52981    6690.9016    12925.975   -1086.7109    8041.1423    309.76475    15375 
12000000   -246.38287    6519.4592    12931.657   -1154.6182    7920.4603    309.90093    15409 
13000000   -265.87481    6605.5214    12840.101    -1112.293    7983.6892    307.70682    15410 
14000000   -252.42002    6638.4301    12978.498   -1182.7285    8073.5786    311.02345    15433 
15000000   -252.59482    6594.8496    12967.016   -1237.9434    8085.3879    310.74829    15433 
16000000   -244.75181    6382.0234     12979.35   -1217.4795    7844.2547    311.04386    15438 
17000000   -260.93984    6402.7312    12825.126     -1272.91     7936.581    307.34795    15434 
18000000   -281.99405    6456.4634    12727.674   -1163.5087    7901.9662    305.01256    15438 
19000000   -253.22398     6624.667    13066.854   -1196.7335    8074.6245    313.14085    15441 
20000000   -270.89333    6372.5673    12878.865   -1392.8924    8036.3531    308.63579    15483 
21000000   -279.74478    6200.2021    13010.666   -1412.7057    7892.6526    311.79433    15489 
22000000   -269.23722    6409.8467    12940.853   -1362.2912    8041.3751     310.1213    15463 
23000000    -270.5898    6499.4902    12801.195   -1193.5398    7963.6198    306.77446    15472 
24000000    -272.3101    6156.4252    12764.429   -1440.0491    7868.7844    305.89338    15469 
25000000   -258.44383    6462.3441    12936.281   -1286.4472    8007.2351    310.01174    15469 
26000000   -267.31776     6405.757    12901.018    -1409.626    8082.7007    309.16667    15488 
27000000   -259.78752     6403.695    12748.741   -1319.5576    7983.0401    305.51742    15498 
28000000   -255.31349    6260.6084    12870.501   -1441.6809    7957.6027    308.43535    15511 
29000000   -259.22104    6294.5732    12990.117   -1524.5358    8078.3301    311.30187    15501 
30000000   -265.64921     6208.474    12880.964   -1521.6271    7995.7503    308.68609    15526 
31000000   -294.98433    6239.1422    12804.359   -1510.3436    8044.4702    306.85028    15496 
32000000   -282.82462    6434.6678    12671.295   -1418.1791    8135.6714    303.66147    15497 
33000000   -274.14133    6398.6059    13028.177   -1334.4866    8007.2339    312.21396    15500 
34000000   -278.55902    6287.7298    13125.395   -1420.8972    7987.1861    314.54375    15495 
35000000   -260.98363    6353.1537    12800.629   -1501.0626       8115.2     306.7609    15501 
36000000   -283.19286    6288.6614     12880.42   -1505.2038     8077.058    308.67305    15525 
37000000   -260.32252    6352.5033    12991.852   -1465.1134    8077.9392    311.34347    15519 
38000000   -270.02007    6192.2094    12928.605   -1576.8824    8039.1119    309.82778    15529 
39000000    -283.1273    6157.0692    12863.522   -1609.6355     8049.832    308.26809    15536 
40000000   -251.67297    6390.9098    12866.888   -1436.4358    8079.0186    308.34876    15534 
41000000   -277.43692    6276.8512    12968.014   -1544.9827    8099.2708     310.7722    15516 
42000000   -239.17235    6203.4371    12938.729   -1565.7237    8008.3332     310.0704    15524 
43000000    -273.7682    6269.9107    12947.234   -1521.3884    8065.0673    310.27422    15538 
44000000   -253.92288    6210.2317    12936.938   -1546.8527    8011.0073    310.02748    15530 
45000000   -248.31187    6069.7747    12886.848   -1642.8827    7960.9693    308.82709    15529 
46000000    -264.2086    6028.0556    13032.773   -1736.0042    8028.2685    312.32411    15541 
47000000   -271.52847    6113.1668    12934.682   -1627.8365    8012.5318    309.97342    15531 
48000000   -264.65905    6296.4332    13054.619   -1411.7535    7972.8457    312.84765    15508 
49000000   -285.74621    6178.1727    12679.117   -1621.2009    8085.1198    303.84892    15530 
50000000   -254.76217    6294.3689    12810.909   -1570.0856    8119.2166    307.00724    15514 
51000000   -295.64918    6224.8944    12877.252   -1469.1338    7989.6774    308.59712    15533 
52000000     -273.893    6033.7734     13073.27   -1663.9184    7971.5848     313.2946    15536 
53000000   -239.11421    6415.3751    12754.544   -1445.2776     8099.767    305.65648    15535 
54000000   -270.47572    6109.2961     12745.49   -1634.2005    8013.9724    305.43951    15564 
55000000   -260.19835    6124.9121    12913.734   -1644.0316    8029.1421    309.47139    15562 
56000000   -258.69013    6093.9309    12916.524   -1592.0158    7944.6368    309.53827    15549 
57000000   -267.71831    6122.3814     12884.47   -1589.7854    7979.8851    308.77011    15553 
58000000   -294.20194    6222.6406    12888.461   -1518.1735     8035.016    308.86576    15539 
59000000   -278.80694    6188.8308    12787.825   -1482.4846    7950.1223    306.45405    15540 
60000000   -257.98144    6337.3373    13067.992   -1470.7002    8066.0189    313.16813    15536 
61000000   -282.70164    6210.5864    13006.908   -1572.9679     8066.256    311.70428    15561 
62000000    -327.1265    6044.4009     13123.85   -1647.0458    8018.5732    314.50672    15552 
63000000   -264.25461    6158.9102     12922.76   -1572.7007    7995.8655    309.68769    15559 
64000000   -247.53486    6301.9796    12928.723   -1503.5293    8053.0437    309.83061    15532 
65000000   -273.08036    6250.7437    12922.496   -1521.6889     8045.513    309.68139    15538 
66000000   -283.68801    6108.9124    12966.789     -1650.03    8042.6305    310.74283    15560 
67000000   -260.35558    6132.5307    12985.006    -1582.431    7975.3173    311.17941    15552 
68000000   -271.28315    6202.2096    12936.592   -1663.2209    8136.7136    310.01918    15545 
69000000   -261.17955     6164.033    12886.989   -1556.6022    7981.8148    308.83046    15547 
70000000   -238.52333    6136.5436    12861.053   -1578.5797    7953.6467    308.20894    15539 
71000000   -286.51598    5999.5613    12933.571   -1703.5426    7989.6199    309.94679    15556 
72000000   -268.24153    6072.9203    12971.712   -1677.7112     8018.873    310.86082    15565 
73000000   -278.28862    6074.6036    12794.764   -1564.3859    7917.2781    306.62033    15551 
74000000   -262.31281    6086.5257    13031.125   -1565.9235    7914.7619    312.28461    15542 
75000000   -280.83229    6236.9768    12839.296   -1498.3184    8016.1275    307.68752    15544 
76000000   -248.31677    5960.4072    12970.033     -1675.44    7884.1639    310.82059    15568 
77000000   -284.15602    6193.8827    12995.786   -1581.3075    8059.3463    311.43773    15540 
78000000   -282.50975    6020.3761    13108.004   -1616.7691     7919.655    314.12698    15550 
79000000   -280.73522    6089.6734     13107.53   -1648.6829    8019.0916    314.11563    15569 
80000000   -281.34407    6060.1252     12860.54   -1654.9414    7996.4107    308.19664    15578 
81000000   -289.11156    6014.7115    12674.939   -1660.3392    7964.1623     303.7488    15580 
82000000    -269.8612    5999.8181    12875.424   -1693.4366    7963.1159    308.55332    15565 
83000000   -269.96315    6007.6999    12953.204   -1723.4476    8001.1107    310.41729    15566 
84000000   -257.90859    5879.7494    12915.292   -1761.0736    7898.7316    309.50874    15577 
85000000   -315.70613    6014.2247    12941.646   -1625.2332     7955.164    310.14029    15573 
86000000   -259.66515    6139.0475    13114.299   -1702.0151    8100.7277    314.27784    15569 
87000000   -301.53787    6080.6054    12992.697   -1643.3812    8025.5245    311.36372    15560 
88000000   -269.24116    6103.8799    12942.441   -1572.2426    7945.3637    310.15936    15566 
89000000   -262.11706    6063.7668    12872.047   -1698.0754    8023.9592    308.47239    15576 
90000000   -260.06024    6036.0506     12936.59   -1562.7855    7858.8963    310.01914    15565 
91000000   -280.42481    6216.1728    12969.693   -1586.9144     8083.512    310.81243    15559 
92000000    -288.8747    6117.8542    12855.568   -1666.5419    8073.2708    308.07749    15585 
93000000   -248.09575    6021.1736    12947.594   -1716.0368    7985.3062    310.28283    15570 
94000000   -254.40155    6004.8115    12861.905   -1695.2196    7954.4327    308.22935    15566 
95000000   -257.26117    6118.6808    12881.723   -1640.5214    8016.4634    308.70427    15551 
96000000   -268.82715     6167.208    12799.938   -1539.8285    7975.8637    306.74434    15543 
97000000   -285.10734    6078.4829    12974.347   -1668.5987    8032.1889    310.92396    15579 
98000000   -255.23331    6167.1198    13021.333   -1582.5985    8004.9516    312.04995    15572 
99000000   -265.17763     6100.348    12840.848   -1679.2835    8044.8092    307.72472    15553 
100000000   -267.56977    6029.1399    12714.683   -1665.7292    7962.4389    304.70124    15593 
101000000    -281.0705    5969.6889    12891.167   -1654.2682    7905.0276    308.93061    15565 
102000000   -302.46339    6192.9162    12848.702   -1571.2053    8066.5849    307.91293    15564 
103000000   -276.74731    6074.4175    12821.332   -1636.2901     7987.455    307.25704    15554 
104000000   -259.71247    6030.6641    12858.281   -1659.4567    7949.8333    308.14249    15573 
105000000   -267.77999    5978.0913    13201.298   -1716.3795    7962.2508    316.36274    15583 
106000000   -285.51197    6093.6568    12915.441   -1693.2436    8072.4124     309.5123    15567 
107000000    -265.4206    5985.8854    12946.744   -1746.8185    7998.1245    310.26248    15569 
108000000   -253.85012    5968.2424    13001.226   -1690.2217    7912.3142     311.5681    15560 
109000000   -277.17337    6032.8437     12857.47   -1637.1885    7947.2055    308.12306    15563 
110000000   -272.69815     6055.882    12882.006    -1785.777    8114.3571    308.71105    15595 
111000000   -283.71367    6100.8138    12920.058   -1706.9693    8091.4968    309.62296    15581 
112000000   -259.88603    5857.8519    12912.727   -1820.9277    7938.6657    309.44727    15603 
113000000    -246.0768     6043.484    13120.671   -1708.9793    7998.5401    314.43054    15580 
114000000    -274.9276    5914.3032    12902.259   -1789.0831    7978.3139     309.1964    15593 
115000000   -275.80028    6114.0122     13013.66   -1548.6981    7938.5105    311.86609    15548 
116000000   -231.08351    6184.5845    13052.783   -1623.3346    8039.0026    312.80365    15555 
117000000    -261.4643    5958.3844    12905.528   -1693.2656    7913.1143    309.27475    15581 
118000000   -279.70774    6068.4104    13066.886   -1631.6754    7979.7935    313.14162    15544 
119000000   -278.12409    6079.3506    12810.943   -1598.2523     7955.727    307.00806    15548 
120000000   -260.11921    6160.9676    12873.701   -1669.5989    8090.6857    308.51204    15591 
121000000   -283.22811    6120.7959    12780.818   -1614.1202    8018.1442    306.28614    15566 
122000000    -287.9431    6088.8569    12973.905   -1554.2999    7931.0999    310.91336    15553 
123000000   -271.60586    6053.7783    13038.616   -1640.1583    7965.5424    312.46413    15552 
124000000   -271.55082    6083.4723    12911.857   -1637.3928    7992.4159    309.42643    15558 
125000000   -282.81349    6235.1595    12876.019   -1525.8725    8043.8455    308.56758    15573 
126000000   -256.61862     5986.577     12960.41   -1667.7238    7910.9194    310.58997    15582 
127000000    -243.6656    5943.8147     13012.81   -1750.3909    7937.8712    311.84571    15599 
128000000   -281.96631    5868.7078      12779.9   -1811.2662    7961.9403    306.26414    15601 
129000000   -260.33808    6091.6993    12775.334    -1645.247    7997.2844    306.15472    15558 
130000000   -261.06977    6189.8604    13064.855   -1614.8115    8065.7417    313.09294    15572 
131000000   -274.29221    6010.2213    12890.761   -1689.1298    7973.6433    308.92085    15576 
132000000   -262.11742    5989.2908    12838.131   -1677.4732    7928.8814    307.65961    15566 
133000000   -275.91404    6035.4744    12728.273   -1689.4625     8000.851    305.02692    15587 
134000000   -292.41225    6024.5853    13013.064   -1665.1708    7982.1684    311.85179    15576 
135000000   -257.77735    6003.7221    12855.202   -1711.0147    7972.5142     308.0687    15565 
136000000   -294.32218    6025.8361    12905.571   -1670.3547     7990.513    309.27578    15560 
137000000   -258.71219    6092.5082    13011.966   -1605.3931    7956.6135    311.82549    15558 
138000000   -273.93144    6144.3991    12876.455   -1612.6381    8030.9686    308.57804    15546 
139000000   -256.22427    6018.0773    12949.498   -1604.5602    7878.8618    310.32847    15561 
140000000   -244.85854    6063.3048    12795.922   -1598.0396    7906.2029     306.6481    15547 
141000000   -250.59709      5972.27    12784.352   -1700.2334    7923.1005    306.37083    15575 
142000000   -258.92078    6017.3146     12884.96   -1679.8841    7956.1195    308.78185    15567 
143000000   -272.35809    6033.9689     13007.28   -1646.0824    7952.4094    311.71319    15572 
144000000   -272.58962    6024.0073    12872.425   -1773.6188    8070.2158    308.48145    15572 
145000000   -262.73341    6061.0816    12951.979   -1673.2831    7997.0981    310.38793    15590 
146000000   -255.73097    6142.9263    12891.838   -1626.7448    8025.4021    308.94668    15569 
147000000   -315.68315    5996.3092    12963.595   -1714.7872    8026.7795    310.66629    15579 
148000000   -309.33158    6002.3977    13010.458   -1710.7329    8022.4622    311.78936    15586 
149000000   -285.21235    6251.3318    12835.825   -1580.2607    8116.8049    307.60434    15571 
150000000   -271.21951     6061.667    12845.863    -1568.721    7901.6075    307.84491    15559 
151000000   -321.96476     5951.269    12963.905    -1755.405    8028.6388    310.67373    15574 
152000000   -264.97709    6122.5111    12853.537   -1545.8153    7933.3035    308.02881    15554 
153000000   -274.17723    5986.6833    12884.645    -1647.655    7908.5156     308.7743    15555 
154000000   -277.83034    5994.3909    12986.079   -1704.8925    7977.1137    311.20512    15571 
155000000   -280.52582    6326.8697    12783.031   -1531.0429    8138.4384    306.33917    15532 
156000000   -262.64421    6048.4607    12961.212   -1625.0866    7936.1916    310.60919    15573 
157000000   -274.51645    6078.8085      12896.2   -1728.6906    8082.0155    309.05121    15576 
158000000   -282.40543    6055.8758    12950.128   -1618.3934    7956.6746    310.34357    15552 
159000000   -260.03543    6083.7669     12896.29   -1606.6284    7950.4307    309.05336    15553 
160000000   -265.44273    6082.9846     12801.93   -1629.7405    7978.1678    306.79206    15567 
161000000   -284.06918    6011.1352    12920.846   -1650.7114    7945.9158    309.64183    15556 
162000000   -281.78955     5905.205    12969.411    -1763.507    7950.5015    310.80568    15582 
163000000   -269.39853    6089.1567    12875.358   -1631.2022    7989.7575    308.55173    15539 
164000000   -251.93677     6002.521    12828.803   -1715.8502     7970.308    307.43607    15557 
165000000   -252.21002     6110.223    13036.813   -1682.6243    8045.0573    312.42093    15570 
166000000   -299.81685    6156.9609    13009.788   -1558.3845    8015.1622    311.77328    15540 
167000000   -277.55427    6214.0277    12841.656   -1555.0378    8046.6198     307.7441    15542 
168000000    -277.0456    5848.9774    13020.758   -1721.2692    7847.2923    312.03618    15578 
169000000    -260.5291    6061.6988    13131.324   -1654.3248    7976.5527    314.68585    15568 
170000000    -270.9898    6106.5205    12914.239   -1634.3612    8011.8715     309.4835    15560 
171000000   -260.97862    6190.6378    12846.131   -1617.8305    8069.4469    307.85133    15561 
172000000   -267.72519    6126.9253    12953.706   -1613.2108    8007.8613    310.42931    15565 
173000000   -277.91468    5959.3276    12843.031   -1731.5077      7968.75    307.77704    15582 
174000000    -266.9477    6104.0362    12824.978   -1683.3556    8054.3395    307.34441    15558 
175000000   -284.67979    5952.6378     12723.95   -1747.4434    7984.7609    304.92332    15571 
176000000   -281.32668    6097.9796    12932.946   -1725.0336    8104.3399    309.93181    15589 
177000000   -292.67579    6083.2636     12967.49   -1671.0886     8047.028    310.75964    15575 
178000000   -280.50731    5847.5507     12945.57   -1810.0657    7938.1237    310.23434    15601 
179000000   -302.93012     6037.004    12855.285   -1649.7182    7989.6523    308.07071    15593 
180000000    -244.7447    5982.8523    12894.816   -1671.7301    7899.3271    309.01805    15585 
181000000   -275.40801     5965.531    12946.367   -1790.3141    8031.2531    310.25344    15597 
182000000   -254.05248    6081.5307    12874.599   -1549.2657     7884.849    308.53354    15564 
183000000    -321.0284    6077.1492    12782.426   -1613.3037    8011.4813    306.32468    15562 
184000000    -286.3949    6211.4366     12883.99   -1584.4742    8082.3057     308.7586    15564 
185000000   -257.79916    6121.0268    12976.119   -1572.8327    7951.6586    310.96644    15577 
186000000   -260.07179    6024.8542    12973.704   -1598.3424    7883.2684    310.90855    15569 
187000000   -256.00889    6094.2475    12779.919   -1633.5652    7983.8216    306.26459    15561 
188000000   -263.61988     6049.716    12976.679   -1679.7383    7993.0742    310.97986    15569 
189000000    -252.8971    6205.7345    12986.439   -1696.5237    8155.1553    311.21374    15586 
190000000   -260.67369    6107.3922    12845.846   -1660.8012    8028.8671    307.84451    15554 
191000000   -260.16297    6233.8652    13003.987   -1466.1009    7960.1291    311.63426    15526 
192000000   -279.51212    6001.5508    13067.683   -1784.8803    8065.9432    313.16072    15593 
193000000   -240.80161    6072.4162    13015.188   -1656.4254    7969.6433    311.90269    15558 
194000000   -262.14231    5981.3205    12830.369   -1697.9585    7941.4212    307.47359    15559 
195000000   -260.35411    6061.3811    13108.068   -1684.1232    8005.8584    314.12851    15585 
196000000    -241.2324    5926.2542    12927.469   -1775.1993    7942.6859    309.80056    15608 
197000000   -289.61848     5902.845    12873.028   -1791.2397    7983.7032     308.4959    15563 
198000000   -245.03025    5759.2394    12951.824   -1772.6317    7776.9014    310.38422    15573 
199000000   -294.12803    5859.9355    12942.164   -1761.5898    7915.6534    310.15271    15576 
200000000   -277.46669    6104.5289    12901.686   -1616.4053    7998.4008    309.18268    15568 
201000000   -273.53606    5982.3077    12914.327   -1739.0672     7994.911    309.48561    15563 
202000000   -264.69883    6079.6242    12864.123   -1583.7521    7928.0751    308.28249    15556 
203000000   -270.48212    6008.4447    13019.001   -1667.5652     7946.492    311.99408    15561 
204000000   -267.93796    6131.4135    12742.544   -1659.3873    8058.7387    305.36892    15562 
205000000   -295.22776    6086.7106      12799.2   -1704.8755    8086.8139    306.72664    15588 
206000000   -262.53127    6120.0138    13010.068   -1620.7969    8003.3419    311.77999    15554 
207000000   -310.31554    5952.8761    13004.279   -1737.3336    8000.5253    311.64127    15576 
208000000   -291.83394    6195.7702    12748.783     -1570.96    8058.5642    305.51842    15552 
209000000   -273.12282    6338.5941     12858.87   -1471.3398    8083.0567     308.1566    15535 
210000000   -293.71945    5999.8599     12967.65   -1683.1368    7976.7162    310.76347    15571 
211000000   -272.05549    6065.5222    12947.676   -1650.0356    7987.6133    310.28481    15582 
212000000   -277.90919    6014.6646    12923.257   -1614.5393    7907.1131    309.69961    15562 
213000000   -258.37994    6193.2796    12958.741   -1622.6185     8074.278    310.54998    15559 
214000000   -237.27721    6205.4627    12989.624   -1597.5877    8040.3277    311.29007    15550 
215000000   -289.65362    6075.2674    12920.847   -1657.1476    8022.0686    309.64185    15575 
216000000   -296.01076    6012.0344    12923.623   -1717.1781    8025.2233     309.7084    15562 
217000000   -240.15952    6158.0577    12928.511   -1605.8492    8004.0664    309.82552    15553 
218000000   -312.27942    6053.5007    13128.441   -1671.2283    8037.0084    314.61674    15572 
219000000   -270.33936    5905.4113    12758.346   -1686.1292    7861.8799     305.7476    15592 
220000000   -315.89071    5991.6726    12869.306   -1702.6226    8010.1859    308.40671    15563 
221000000    -275.6591    6111.1172    12880.003   -1702.5905    8089.3668    308.66307    15576 
222000000   -285.02088    6147.5811    13039.874    -1600.849     8033.451    312.49429    15556 
223000000   -296.45982    6249.8813    12870.705   -1537.1658     8083.507    308.44023    15542 
224000000   -297.55112     6059.628    12802.609   -1678.8686    8036.0477    306.80834    15582 
225000000   -285.43288    5981.9245    12813.317   -1707.3573    7974.7146    307.06494    15600 
226000000   -273.40144    6081.7965    12969.616   -1689.4364    8044.6343    310.81058    15572 
227000000   -269.00959    6020.5661     12848.83   -1765.6797    8055.2554    307.91602    15597 
228000000   -249.33174    5921.1052    13037.914   -1684.2346    7854.6716    312.44732    15563 
229000000   -283.53005    5957.3997    12817.693   -1754.9689    7995.8987    307.16983    15597 
230000000   -314.37689    5875.1105    13019.101   -1772.0521    7961.5395    311.99647    15588 
231000000   -280.57292    5999.1287    13011.825   -1652.8973     7932.599     311.8221    15564 
232000000   -292.17682    6000.6546    13012.756   -1621.0718    7913.9032    311.84441    15545 
233000000    -329.1696    5956.4966     12918.31   -1688.7606    7974.4268    309.58105    15585 
234000000   -280.19867    5977.4996    13034.507   -1766.9221    8024.6204    312.36567    15592 
235000000   -315.89594    5875.1441    12875.379   -1702.5876    7893.6277    308.55224    15585 
236000000   -293.77572     6053.681    13029.015   -1597.9889    7945.4456    312.23406    15557 
237000000   -279.92152    6236.1033    13045.893   -1516.9725    8032.9973    312.63853    15554 
238000000   -287.60079    6108.3824    12873.362    -1549.754    7945.7371    308.50392    15566 
239000000   -295.49541    6058.6291    12876.391   -1631.2131    7985.3376     308.5765    15556 
240000000   -302.58876    5985.0771    12979.806   -1592.0683    7879.7341    311.05479    15567 
241000000   -323.43179    6083.3254    12945.646   -1656.4983    8063.2554    310.23616    15572 
242000000   -284.18074    6129.5292    13102.463   -1594.4056    8008.1155     313.9942    15563 
243000000   -254.07459    6165.1767    12936.758   -1588.3094    8007.5607    310.02317    15552 
244000000   -285.06803    6113.0156    12816.855   -1665.7084    8063.7921    307.14975    15547 
245000000   -314.67752    6177.3952    12884.249    -1638.986    8131.0588    308.76481    15560 
246000000   -246.91225    5991.9019    12795.932   -1644.7896    7883.6037    306.64834    15574 
247000000   -286.77859    5878.3225    12816.697   -1729.8708    7894.9719    307.14595    15584 
248000000   -306.78824    5891.7644     12840.28   -1793.3676    7991.9202    307.71112    15583 
249000000   -252.90175    5981.4679    13006.037   -1747.1277    7981.4974    311.68341    15569 
250000000   -285.96606    6064.2119    12999.445   -1633.2437    7983.4217    311.52542    15554 
251000000   -275.10163    6274.1898    12966.216   -1555.6379    8104.9294    310.72912    15545 
252000000   -254.73567    6092.0857    12921.168    -1664.003    8010.8244    309.64956    15573 
253000000   -296.12371    6094.6516    12953.473   -1643.2361    8034.0113    310.42373    15564 
254000000   -292.32122    5987.0257    12883.966   -1784.1463    8063.4932    308.75802    15586 
255000000   -287.96444    6161.5681    12861.625   -1704.5411    8154.0736    308.22263    15569 
256000000   -270.79462    5940.2704    12989.156   -1735.9741    7947.0392    311.27886    15578 
257000000   -248.92325    6183.4982    12990.212   -1677.8589    8110.2804    311.30416    15577 
258000000   -259.15685    6277.4547    12984.972   -1548.8323    8085.4438    311.17858    15544 
259000000     -248.649    5979.7614     12848.38   -1654.7572    7883.1676    307.90522    15575 
260000000   -270.82713    6059.9891    13014.358   -1635.6771    7966.4933    311.88281    15552 
261000000   -298.61394    5923.2375    12922.861   -1756.5135     7978.365    309.69013    15569 
262000000   -266.57576    6103.3673    12932.595   -1674.5831    8044.5261     309.9234    15568 
263000000     -290.226    6015.4051    13054.779   -1668.7966    7974.4278    312.85149    15573 
264000000   -295.97364    6208.6301    12985.568   -1560.1932    8064.7969    311.19288    15551 
265000000   -270.77186    5888.0802    13045.448   -1724.3283    7883.1803    312.62785    15577 
266000000   -289.39467    6076.8673    12973.357   -1658.8239    8025.0858    310.90025    15555 
267000000   -295.75826    6087.8718     12988.24   -1617.7591    8001.3892    311.25689    15558 
268000000   -275.03613    6103.5028    12846.703   -1681.9446    8060.4835    307.86504    15560 
269000000   -281.73306    5901.0668    12962.969   -1783.4836    7966.2834    310.65129    15577 
270000000    -261.7466    6094.7143    12944.218   -1625.0509    7981.5119    310.20194    15547 
271000000   -293.04734    6111.5439    12912.231    -1600.028    8004.6193    309.43539    15552 
272000000    -307.3289    6102.1478    12862.471   -1553.9081    7963.3847    308.24291    15575 
273000000   -252.25518    6135.5682    12902.834   -1574.4169    7962.2403    309.21019    15559 
274000000   -279.63592    6203.1023    12903.463   -1605.4846    8088.2228    309.22525    15581 
275000000   -277.24495    6123.7281    12952.652   -1537.0044    7937.9775    310.40406    15551 
276000000   -277.00906    6163.7774      12896.2   -1535.2602    7976.0467    309.05121    15545 
277000000    -241.9311    6308.6223    13045.235   -1476.7815    8027.3349    312.62276    15533 
278000000   -285.40555     6060.688    13067.645   -1628.6414     7974.735     313.1598    15542 
279000000   -276.40923    5938.9639    12957.803   -1696.1221    7911.4952     310.5275    15553 
280000000    -280.3069    6187.3837    12918.724   -1489.2871    7956.9778    309.59098    15538 
281000000   -277.80346    6144.7672    12944.948   -1611.1399    8033.7106    310.21943    15550 
282000000   -276.74129    5954.8736    12908.842   -1761.6895    7993.3044    309.35416    15582 
283000000   -303.01902    6193.5761    13136.582   -1582.6795    8079.2746    314.81186    15541 
284000000   -280.05275    6042.4346    12977.884   -1675.8547     7998.342    311.00873    15548 
285000000   -267.33566    5998.3093    12984.907   -1660.4924    7926.1374    311.17704    15555 
286000000   -295.98828    6108.3826    12796.457   -1531.5557    7935.9266    306.66091    15540 
287000000   -262.70025     6203.831    12874.024   -1529.6182    7996.1495    308.51976    15545 
288000000   -280.00061    6067.0733    12926.014   -1573.9396    7921.0135    309.76569    15550 
289000000   -296.12837    6028.1255    12973.574   -1654.6362    7978.8901    310.90545    15536 
290000000   -290.67715    6087.1628      12917.6   -1490.4817    7868.3217    309.56405    15547 
291000000   -257.69829    6194.2977    12856.063   -1493.6274    7945.6234    308.08936    15555 
292000000   -299.72326    6048.7889    12876.278   -1627.4814    7975.9936    308.57378    15552 
293000000   -282.10518    6204.1636    13043.511   -1533.2018    8019.4706    312.58145    15548 
294000000   -281.97498    6128.5838     13078.59   -1612.5709    8023.1296     313.4221    15554 
295000000   -321.33105    5992.0271    12818.488    -1684.802    7998.1601    307.18887    15564 
296000000   -281.71223    5997.9985    12886.125   -1680.0914    7959.8021    308.80976    15561 
297000000   -277.99947     6139.588    12899.729   -1677.8938    8095.4813    309.13577    15556 
298000000   -261.41073    5988.1251    12816.218   -1736.7692     7986.305    307.13449    15548 
299000000   -295.14241    6070.7926    12853.945   -1610.7087    7976.6437    308.03858    15572 
300000000   -291.51388    6108.3244    12865.918   -1647.5099    8047.3482    308.32552    15562 
301000000   -272.00658    6184.4759    12945.537   -1607.6063    8064.0888    310.23354    15562 
302000000   -268.59979    5922.1277    12934.883   -1814.1096    8004.8372    309.97823    15591 
303000000   -268.78925    6283.5288    12825.747   -1469.0148    8021.3328    307.36283    15549 
304000000    -264.6331    6122.4304    12813.555   -1538.6833    7925.7468    307.07067    15551 
305000000   -220.86732    6045.7393    12773.343   -1672.8821    7939.4887      306.107    15572 
306000000   -280.27816    6143.6262    12933.966    -1552.352    7976.2564    309.95625    15534 
307000000   -311.00951    6322.5252    12889.487   -1493.2227    8126.7574    308.89033    15546 
308000000   -300.55962    6192.0648    13175.819   -1637.2988    8129.9233    315.75215    15551 
309000000   -292.22906    6266.5118     13058.93   -1460.0104    8018.7512    312.95095    15530 
310000000   -273.68571    6186.2139    12967.443   -1581.2245    8041.1242    310.75852    15540 
311000000   -262.81312     6005.458    13038.262   -1647.3144    7915.5855    312.45565    15580 
312000000   -274.98058    6171.6045    13025.944   -1583.3486    8029.9337    312.16046    15571 
313000000   -273.37471    6164.8301    12825.485    -1572.318    8010.5229    307.35655    15544 
314000000   -318.77662    5943.2117    12857.299   -1660.9353    7922.9236    308.11897    15566 
315000000   -282.42055    6263.5205    13061.832    -1571.064    8117.0051     313.0205    15566 
316000000   -310.33669    5974.0184    12996.432   -1643.9897    7928.3448    311.45322    15562 
317000000   -301.35651    6043.3705    12811.957   -1589.3872    7934.1142    307.03237    15546 
318000000   -280.79762    6054.6235    13036.382   -1633.6579    7969.0791     312.4106    15563 
319000000   -293.25785    6031.8352    12847.831   -1590.1382    7915.2312    307.89207    15554 
320000000   -275.93677    6104.2086    13119.508   -1537.8605    7918.0059    314.40267    15551 
321000000   -303.66284    6062.1728     12789.97   -1539.1096    7904.9452    306.50545    15523 
322000000   -285.98769     6213.265    13066.015   -1556.7479    8056.0006    313.12073    15539 
323000000   -289.93963    6200.6885    12914.031   -1493.9767    7984.6048    309.47853    15528 
324000000   -272.65031      6102.49    12880.021   -1607.0137     7982.154    308.66348    15545 
325000000   -267.63938    6149.4732    13013.125   -1625.2211    8042.3336    311.85326    15540 
326000000   -260.34105    6347.5292    12879.397   -1454.1529    8062.0231    308.64852    15537 
327000000   -300.58601    6367.0058    12842.314   -1522.4287    8190.0205    307.75986    15540 
328000000   -291.39795    6070.0887    12952.884   -1644.2345    8005.7212     310.4096    15553 
329000000   -265.55403    6136.3888    13134.001   -1583.3043    7985.2471    314.74998    15562 
330000000   -340.38045    6210.8966    12908.679    -1550.698    8101.9751    309.35026    15548 
331000000   -273.48499    6086.6418    13019.626   -1621.4257    7981.5525    312.00906    15557 
332000000   -261.96066    6257.6726    13028.604   -1495.5062    8015.1394    312.22421    15528 
333000000   -255.50369    5966.8343    12748.152   -1710.5511     7932.889    305.50332    15558 
334000000   -292.31813     6126.193     12921.66   -1634.7742    8053.2854    309.66134    15539 
335000000   -325.12009    6078.8454    13016.687   -1664.3323    8068.2978    311.93863    15587 
336000000   -300.08208    6058.3119    12875.724   -1594.0165    7952.4104     308.5605    15569 
337000000   -278.94615    6097.4623    12882.785   -1574.7174    7951.1259    308.72973    15570 
338000000   -258.95008     6142.882    13137.477   -1658.9193    8060.7514    314.83328    15560 
339000000   -299.99222    6192.6291    12997.664    -1537.729    8030.3503    311.48275    15541 
340000000   -281.58119    6181.5891    13014.534   -1576.9435    8040.1137    311.88703    15569 
341000000   -280.63832    6061.9339    12855.833   -1569.2317    7911.8039    308.08382    15554 
342000000   -263.58259     6163.408    12916.285   -1466.5496    7893.5401    309.53253    15497 
343000000   -291.84507    6206.9551    12853.203   -1595.0804    8093.8806     308.0208    15555 
344000000   -288.74433    5994.8584    12927.014   -1694.8639    7978.4666    309.78965    15572 
345000000   -257.50811    6143.2213    13004.054   -1651.6069    8052.3363    311.63588    15556 
346000000   -287.85728    6159.6245    12747.022   -1614.7449    8062.2266    305.47624    15556 
347000000   -289.61508    6065.9644    12837.497   -1644.5147    8000.0942    307.64442    15560 
348000000   -259.94002    6247.5247    12880.747   -1529.4789    8036.9436    308.68089    15532 
349000000   -271.87128     5889.736    12831.307   -1707.8833    7869.4905    307.49608    15575 
350000000   -306.65307    5952.2597    13007.159   -1636.1197    7895.0325    311.71029    15565 
351000000    -315.0021    5930.2519    12820.961   -1764.8643    8010.1183    307.24814    15565 
352000000   -316.63908    6124.7496    12915.893   -1597.6814    8039.0701    309.52313    15555 
353000000   -286.83441    6096.4961    12963.724   -1568.0996    7951.4302    310.66939    15551 
354000000   -281.53001    5997.6199    12880.297    -1610.313    7889.4629    308.67009    15560 
355000000    -276.9438    6035.5989    13146.575   -1672.2776    7984.8203    315.05132    15562 
356000000   -283.75965    5894.6287    12966.917   -1798.4982    7976.8866     310.7459    15581 
357000000   -266.71166    6176.1959    12872.419   -1608.4909    8051.3985    308.48131    15550 
358000000   -301.78639    6110.4491    12907.297   -1637.1445      8049.38    309.31713    15566 
359000000   -290.76182    6052.9484    12845.088   -1710.8797    8054.5899    307.82634    15585 
360000000   -287.30161    5755.7381    12716.155   -1835.2601    7878.2998    304.73652    15599 
361000000   -245.58585    6168.0678    12965.327   -1652.2125    8065.8662     310.7078    15577 
362000000   -281.15457    5925.9414    12741.344   -1795.4155    8002.5114    305.34016    15604 
363000000    -307.9423    6086.2337    12847.897   -1669.5545    8063.7305    307.89364    15563 
364000000   -319.23765    5971.6437    13055.841   -1704.3199    7995.2013    312.87692    15586 
365000000   -256.32477     6143.547     12980.74   -1610.2156    8010.0874    311.07716    15565 
366000000   -296.08843    5944.1407    12833.778   -1680.1518    7920.3809    307.55529    15554 
367000000   -301.29357    6088.0173    12921.953   -1583.9627    7973.2735    309.66837    15540 
368000000   -285.58984    6038.6199    12932.614   -1571.8831    7896.0928    309.92384    15539 
369000000   -273.89221    5959.1285    12952.341   -1713.7438    7946.7645    310.39661    15588 
370000000   -260.95722    6124.2516     12978.32   -1608.5168    7993.7256    311.01917    15568 
371000000   -279.14314    5837.2469    12881.384   -1821.5618    7937.9519    308.69615    15579 
372000000   -253.59898    5810.3594    12852.633   -1841.8158    7905.7742    308.00714    15601 
373000000   -266.86611    5905.3742    12869.794   -1716.4682    7888.7085    308.41841    15578 
374000000   -265.74824    6024.1867    12948.692   -1625.4505    7915.3854    310.30915    15557 
375000000   -263.85501     5783.471     13071.58   -1810.7877    7858.1137     313.2541    15581 
376000000   -277.08891    6015.4056    13016.568   -1738.3753    8030.8698    311.93576    15581 
377000000   -292.89593    5957.5797    12838.307   -1650.6976    7901.1733    307.66383    15551 
378000000   -262.25718    6019.8622    13190.126   -1697.0013    7979.1207    316.09499    15555 
379000000   -296.42245    6053.4254    13040.941   -1677.1524    8027.0003    312.51987    15572 
380000000   -274.61974    6253.1899     13004.79   -1613.8475    8141.6571    311.65352    15560 
381000000   -296.38705    6049.3271    12957.557   -1613.8661    7959.5802    310.52161    15539 
382000000   -288.45108    5877.4051    13021.644    -1869.142    8034.9981     312.0574    15605 
383000000   -273.17364    5957.7314    12950.039   -1710.9386    7941.8437    310.34143    15570 
384000000   -266.31913     5962.557    12951.603    -1762.213    7991.0891    310.37892    15570 
385000000     -285.767    6208.4846     13056.62   -1581.9306    8076.1822    312.89559    15559 
386000000   -297.63888    6159.8509    12985.896   -1597.3501    8054.8399    311.20073    15555 
387000000   -290.51464    6125.0658    12963.048   -1555.7326    7971.3131     310.6532    15570 
388000000   -277.68911    5978.6082     12815.86   -1722.8445    7979.1418    307.12589    15576 
389000000    -278.3451    6108.3014    12954.189   -1570.7905     7957.437    310.44089    15568 
390000000   -267.75403    5989.1681    12971.207   -1728.7378    7985.6599     310.8487    15564 
391000000   -262.18345    6066.6052    12975.394   -1622.5832    7951.3719    310.94904    15567 
392000000    -298.2197    6082.4331     12931.86   -1607.5827    7988.2355    309.90577    15573 
393000000   -269.43577    5952.8736    12843.971   -1666.0209    7888.3303    307.79956    15573 
394000000   -301.78149    6095.5219    12970.239   -1523.0547    7920.3581    310.82552    15546 
395000000   -298.42416    6187.1519    12946.834    -1566.298     8051.874    310.26461    15561 
396000000    -263.7628    6137.4266    12962.753   -1649.0385    8050.2278    310.64613    15569 
397000000   -276.94224    6068.7163    12925.322   -1616.4759    7962.1344    309.74909    15545 
398000000   -298.74923    5928.3618     12955.98   -1712.1069    7939.2179     310.4838    15574 
399000000   -296.03288    5901.8971    12900.353   -1765.7252    7963.6551    309.15073    15569 
400000000   -291.07474    6152.0938    12912.245   -1594.9046    8038.0731    309.43572    15545 
401000000   -263.85019    6029.8552    12801.636   -1610.5664    7904.2718    306.78503    15575 
402000000   -269.26387    6046.7964    13098.139   -1651.0704    7967.1307    313.89059    15567 
403000000   -283.26049    6055.0557    12928.655   -1635.2534    7973.5696    309.82896    15572 
404000000   -262.88623    5952.3932     12795.22    -1715.264    7930.5435    306.63127    15585 
405000000   -272.05283    5946.8707    12832.717   -1787.6976    8006.6212    307.52987    15610 
406000000   -253.66734    6039.9918    12884.907   -1646.0927    7939.7519    308.78057    15567 
407000000   -319.11814    5904.1171    12998.003   -1780.8254    8004.0607    311.49086    15587 
408000000   -302.45582    5820.1636    12921.333   -1767.1538    7889.7732     309.6535    15596 
409000000   -302.28216    6084.7092     12884.49   -1681.6357     8068.627    308.77058    15576 
410000000   -302.72539    5994.5383    12728.839   -1800.0107    8097.2744    305.04048    15580 
411000000   -284.79398    6108.5578    12904.952   -1700.5802     8093.932    309.26095    15567 
412000000   -290.72734    6035.8982    12889.659   -1590.7704    7917.3959    308.89445    15537 
413000000    -273.4204    6123.9172    12898.761   -1553.9387    7951.2762    309.11258    15564 
414000000   -262.78837     6124.038    13002.959   -1691.9664    8078.7927    311.60964    15578 
415000000   -283.35178    5945.5537    12977.931   -1693.5489    7922.4544    311.00986    15561 
416000000   -278.11369    5987.6891    12979.049   -1729.6886    7995.4914    311.03664    15578 
417000000   -251.44981    6096.4285    12992.977   -1692.9388    8040.8171    311.37042    15569 
418000000   -282.17269    6191.8055    12790.487   -1615.4237    8089.4019    306.51785    15571 
419000000    -258.9045    6059.2504    12925.354   -1678.1879    7996.3428    309.74987    15573 
420000000   -316.26366    5954.8895    12948.944   -1731.2642    8002.4174     310.3152    15558 
421000000   -318.11323    6052.8305      12962.5   -1672.5946    8043.5384    310.64005    15584 
422000000   -290.84711    5980.6634    12905.713   -1749.1406    8020.6511    309.27917    15575 
423000000   -279.75041    5978.5583     12784.76   -1713.5735    7971.8822    306.38061    15569 
424000000   -297.41646    5972.6495    12761.376    -1675.285     7945.351    305.82022    15584 
425000000   -287.52343    5969.1964    13070.713   -1723.3532     7980.073    313.23334    15596 
426000000   -284.59561    6166.5507    12987.741   -1689.1476    8140.2939    311.24494    15552 
427000000   -279.98163    6125.6956    13108.338   -1600.9593    8006.6365      314.135    15585 
428000000    -279.7537    5957.6134    12963.248   -1731.6014    7968.9685    310.65798    15589 
429000000   -341.19182     6099.421    12977.678   -1644.4665    8085.0794    311.00378    15578 
430000000   -322.97151    5947.1371    12917.684   -1752.0123    8022.1209    309.56606    15580 
431000000   -283.04158    5937.4829    12747.004   -1806.6951    8027.2196     305.4758    15584 
432000000   -306.48333    6129.4608    12969.106    -1574.897    8010.8411    310.79836    15576 
433000000   -296.73065    6046.7003    12800.402   -1752.2441     8095.675    306.75546    15586 
434000000   -302.85668    5957.7893    12818.252   -1681.9774    7942.6234    307.18321    15575 
435000000   -257.24809    5965.0395    12924.959   -1686.6971    7908.9847    309.74039    15579 
436000000   -318.87797    5912.5784     12910.55   -1707.6245    7939.0809    309.39511    15584 
437000000   -290.48982     6121.334    13011.824   -1614.5293    8026.3532    311.82208    15562 
438000000   -255.28184    5954.4136    12922.337   -1674.3449    7884.0404    309.67756    15584 
439000000   -291.26293    6042.6974    12969.304   -1718.7135    8052.6739     310.8031    15588 
440000000   -300.05854    5916.2168    12884.009   -1758.0711    7974.3464    308.75906    15598 
441000000   -285.36785    5894.0627    13004.333   -1745.3903    7924.8208    311.64256    15596 
442000000   -266.37815    6010.5333    12974.156   -1676.6367    7953.5482    310.91938    15579 
443000000   -308.90281    5970.3799    12890.998    -1667.508    7946.7907    308.92655    15560 
444000000   -282.27539    6068.0158    12926.884   -1648.8958     7999.187    309.78653    15571 
445000000   -249.29887    5862.8558    13008.758   -1884.7085    7996.8631     311.7486    15590 
446000000   -246.34577    5949.3959    12969.805   -1688.7478    7884.4895    310.81512    15567 
447000000   -341.63316    5954.0431    12914.153   -1743.6547     8039.331    309.48145    15583 
448000000   -261.03305    6036.2073    12920.391   -1691.2995    7988.5398    309.63093    15553 
449000000   -273.38279    5974.1381    12958.294   -1760.9826    8008.5034    310.53927    15583 
450000000   -293.24583    5990.5613     12837.08   -1689.4615    7973.2686    307.63441    15568 
451000000   -294.07921    6164.8773    12820.809    -1568.391    8027.3475     307.2445    15554 
452000000   -310.97036     6069.642    13101.999   -1617.6142    7998.2265    313.98309    15580 
453000000    -280.8685    5910.2662    12918.992   -1767.9757    7959.1104     309.5974    15579 
454000000    -296.2127    6052.6618    12955.617   -1703.5114    8052.3859     310.4751    15582 
455000000   -281.67895    6036.0147    13023.474   -1680.3799    7998.0735    312.10126    15563 
456000000   -287.22578     6014.937     12976.55   -1716.6066    8018.7694    310.97674    15568 
457000000   -261.39922    6047.6032    13064.392   -1659.8268    7968.8292    313.08185    15576 
458000000   -296.88176    6029.0965    12858.297    -1591.574    7917.5523    308.14288    15558 
459000000   -283.06393    6021.9523    12865.621   -1701.7457    8006.7619     308.3184    15567 
460000000   -298.13898     6023.962    13061.101   -1600.6908    7922.7918    313.00298    15545 
461000000   -276.61756    6140.4539    12872.411    -1581.347    7998.4184    308.48112    15566 
462000000   -295.06716    6087.3473    12965.039   -1685.1338    8067.5482     310.7009    15599 
463000000   -270.74518    5930.1437     13037.21   -1698.5996    7899.4884    312.43044    15561 
464000000   -268.09998    6140.3632    12934.057   -1581.1079    7989.5712    309.95844    15528 
465000000     -263.882    5942.5721    13120.083   -1686.0716    7892.5256    314.41646    15562 
466000000   -306.16957    6019.1656    13084.956   -1650.3693    7975.7044    313.57465    15548 
467000000   -303.99669     6152.194    12924.035   -1589.5026    8045.6933    309.71827    15560 
468000000   -256.05708    6009.5558    13036.575   -1648.3383    7913.9511    312.41523    15570 
469000000   -286.84794    5974.3182      13043.6   -1835.2107    8096.3769    312.58357    15599 
470000000   -292.59381    6051.2786    13009.501   -1688.5862    8032.4586     311.7664    15582 
471000000   -284.80365    5952.0227    12882.542   -1757.3805    7994.2068    308.72389    15575 
472000000   -275.71047    6017.9287    12951.249   -1657.2292    7950.8684    310.37044    15573 
473000000   -269.28777    6051.0938    12883.947   -1571.2276    7891.6092    308.75757    15568 
474000000   -264.37255    5876.0359    13115.574   -1743.2146    7883.6231    314.30841    15600 
475000000   -280.25667    6099.5214    12951.203   -1647.7722    8027.5502    310.36933    15556 
476000000   -265.83943    5935.3996     12865.17   -1720.5679    7921.8068    308.30758    15562 
477000000   -308.82108    6138.3503    12985.204   -1606.3747    8053.5461    311.18414    15566 
478000000   -294.16258    5995.7423    12871.446   -1785.2935    8075.1984    308.45798    15608 
479000000   -287.48397    6013.9426    12969.401   -1607.0553    7908.4819    310.80544    15566 
480000000   -264.39992    5997.3965    13020.619   -1705.4237    7967.2201    312.03286    15567 
481000000   -289.97418    6031.4826    13005.826   -1645.1631    7966.6199    311.67835    15578 
482000000   -284.28633    6120.2044    12800.705   -1520.3452    7924.8359    306.76272    15552 
483000000   -283.08785    6129.3214    12862.187   -1645.5697     8057.979    308.23609    15565 
484000000   -278.78854    6154.4377    13123.653   -1574.3468     8007.573    314.50201    15557 
485000000   -295.54295    6182.5039     12854.33   -1631.1969    8109.2438    308.04781    15567 
486000000   -271.90837    6012.6458    12945.393    -1666.783    7951.3372    310.23009    15572 
487000000   -302.87505    6054.5372    12986.072   -1608.2542    7965.6665    311.20495    15544 
488000000    -281.7708    5865.2505    13058.735   -1696.0508    7843.0721    312.94628    15570 
489000000   -282.70349    5995.3417    12968.311   -1778.2981    8056.3432     310.7793    15605 
490000000   -243.56021    6050.1297    12936.759   -1727.7972    8021.4871    310.02318    15586 
491000000   -328.99207    6042.9595    12982.807   -1700.5676    8072.5193    311.12669    15566 
492000000   -234.04892    6067.7023    12910.808   -1706.2233    8007.9745    309.40128    15598 
493000000   -263.77818    6001.6374    12855.309   -1662.7469    7928.1625    308.07128    15573 
494000000   -291.05817    5955.2707    12902.701   -1753.8356    8000.1644    309.20701    15612 
495000000   -263.88709    5839.3059    12983.151   -1785.0883    7888.2813    311.13495    15599 
496000000   -261.85433    5853.1222    13029.128   -1747.6706    7862.6472    312.23677    15593 
497000000     -272.471     6082.747    12826.439   -1587.9661     7943.184    307.37943    15569 
498000000   -280.62014    5934.8341    13081.863   -1772.5395    7987.9937    313.50053    15583 
499000000   -275.80202    5996.3137    12840.692    -1672.297    7944.4127    307.72098    15570 
500000000   -289.58457     6056.411    12967.431   -1675.4565     8021.452    310.75822    15572 
Loop time of 121020 on 28 procs for 500000000 steps with 14000 atoms

Performance: 8924.163 ns/day, 0.003 hours/ns, 4131.557 timesteps/s
99.3% CPU use with 28 MPI tasks x no OpenMP threads

MPI task timing breakdown:
Section |  min time  |  avg time  |  max time  |%varavg| %total
---------------------------------------------------------------
Pair    | 10249      | 11181      | 14919      | 896.4 |  9.24
Bond    | 5745.4     | 6564.4     | 12152      |1810.2 |  5.42
Neigh   | 30891      | 31674      | 32436      | 244.6 | 26.17
Comm    | 31070      | 41788      | 44935      |1337.5 | 34.53
Output  | 0.67014    | 0.6716     | 0.67179    |   0.0 |  0.00
Modify  | 21741      | 22179      | 22837      | 261.6 | 18.33
Other   |            | 7633       |            |       |  6.31

Nlocal:    500 ave 532 max 473 min
Histogram: 3 2 3 2 6 4 4 3 0 1
Nghost:    444.929 ave 652 max 207 min
Histogram: 1 0 4 4 3 5 5 2 2 2
Neighs:    2814.29 ave 3418 max 2393 min
Histogram: 3 2 6 6 2 3 1 2 2 1

Total # of neighbors = 78800
Ave neighs/atom = 5.62857
Ave special neighs/atom = 7.80614
Neighbor list builds = 99903331
Dangerous builds = 0
System init for write_restart ...
Total wall time: 33:37:02
