LAMMPS (5 Jun 2019)
Reading data file ...
  orthogonal box = (-420 -420 -420) to (420 420 420)
  2 by 2 by 7 MPI processor grid
  reading atoms ...
  14000 atoms
  scanning bonds ...
  51 = max bonds/atom
  scanning angles ...
  1 = max angles/atom
  reading bonds ...
  13800 bonds
  reading angles ...
  13600 angles
Finding 1-2 1-3 1-4 neighbors ...
  special bond factors lj:   0          0          0         
  special bond factors coul: 0          0          0         
  2 = max # of 1-2 neighbors
  2 = max # of 1-3 neighbors
  4 = max # of 1-4 neighbors
  56 = max # of special neighbors
  special bonds CPU = 0.00192192 secs
  read_data CPU = 0.0811431 secs
Finding 1-2 1-3 1-4 neighbors ...
  special bond factors lj:   1          1          1         
  special bond factors coul: 0          0          0         
  2 = max # of 1-2 neighbors
  2 = max # of 1-3 neighbors
  4 = max # of 1-4 neighbors
  56 = max # of special neighbors
  special bonds CPU = 0.000731356 secs
WARNING: Using 'neigh_modify every 1 delay 0 check yes' setting during minimization (../min.cpp:168)
Neighbor list info ...
  update every 1 steps, delay 0 steps, check yes
  max neighbors/atom: 2000, page size: 100000
  master list distance cutoff = 26.9
  ghost atom cutoff = 26.9
  binsize = 13.45, bins = 63 63 63
  1 neighbor lists, perpetual/occasional/extra = 1 0 0
  (1) pair lj/cut, perpetual
      attributes: half, newton on
      pair build: half/bin/newton
      stencil: half/bin/3d/newton
      bin: standard
Setting up cg style minimization ...
  Unit style    : real
  Current step  : 0
Per MPI rank memory allocation (min/avg/max) = 1.164 | 13.81 | 17.68 Mbytes
Step Temp E_pair E_mol TotEng Press 
       0            0 1.097855e+12      2649600 1.0978577e+12 5.0804878e+08 
    3165            0    -1749.261     5102.442     3353.181 0.0087270459 
Loop time of 0.696743 on 28 procs for 3165 steps with 14000 atoms

98.9% CPU use with 28 MPI tasks x no OpenMP threads

Minimization stats:
  Stopping criterion = energy tolerance
  Energy initial, next-to-last, final = 
     1.09785765867e+12      3353.38932291      3353.18099319
  Force two-norm initial, final = 8.92234e+10 1.58028
  Force max component initial, final = 1.04805e+09 0.193454
  Final line search alpha, max atom move = 0.612771 0.118543
  Iterations, force evaluations = 3165 3624

MPI task timing breakdown:
Section |  min time  |  avg time  |  max time  |%varavg| %total
---------------------------------------------------------------
Pair    | 0.051515   | 0.17025    | 0.30003    |  16.8 | 24.44
Bond    | 0.015321   | 0.045796   | 0.076885   |   7.3 |  6.57
Neigh   | 0.09394    | 0.095316   | 0.097081   |   0.2 | 13.68
Comm    | 0.09191    | 0.22845    | 0.3904     |  17.3 | 32.79
Output  | 0          | 0          | 0          |   0.0 |  0.00
Modify  | 0          | 0          | 0          |   0.0 |  0.00
Other   |            | 0.1569     |            |       | 22.52

Nlocal:    500 ave 826 max 174 min
Histogram: 1 3 4 4 2 2 8 1 1 2
Nghost:    338.893 ave 565 max 156 min
Histogram: 3 3 2 1 6 7 2 2 1 1
Neighs:    3508.14 ave 5788 max 1093 min
Histogram: 1 4 2 5 2 1 6 2 0 5

Total # of neighbors = 98228
Ave neighs/atom = 7.01629
Ave special neighs/atom = 5.82857
Neighbor list builds = 221
Dangerous builds = 0
Setting up Verlet run ...
  Unit style    : real
  Current step  : 3165
  Time step     : 0.1
Per MPI rank memory allocation (min/avg/max) = 1.128 | 14 | 16.55 Mbytes
Step Temp E_pair E_mol TotEng Press 
    3165            0    -1749.261     5102.442     3353.181 0.0087270459 
   13165    223.86018   -1388.8363    8849.2124    16801.694   -1.6549375 
Loop time of 1.21787 on 28 procs for 10000 steps with 14000 atoms

Performance: 70.944 ns/day, 0.338 hours/ns, 8211.062 timesteps/s
99.5% CPU use with 28 MPI tasks x no OpenMP threads

MPI task timing breakdown:
Section |  min time  |  avg time  |  max time  |%varavg| %total
---------------------------------------------------------------
Pair    | 0.056085   | 0.18738    | 0.3471     |  19.2 | 15.39
Bond    | 0.037371   | 0.10807    | 0.1772     |  11.2 |  8.87
Neigh   | 0.0017514  | 0.0017919  | 0.0018332  |   0.0 |  0.15
Comm    | 0.22521    | 0.4296     | 0.62725    |  16.8 | 35.27
Output  | 3.962e-05  | 6.1627e-05 | 8.508e-05  |   0.0 |  0.01
Modify  | 0.092825   | 0.25289    | 0.41262    |  16.7 | 20.76
Other   |            | 0.2381     |            |       | 19.55

Nlocal:    500 ave 830 max 173 min
Histogram: 1 3 4 4 2 2 8 1 1 2
Nghost:    339.071 ave 559 max 156 min
Histogram: 3 3 2 1 5 8 2 2 1 1
Neighs:    3521.32 ave 5797 max 1098 min
Histogram: 1 4 2 5 2 1 4 4 0 5

Total # of neighbors = 98597
Ave neighs/atom = 7.04264
Ave special neighs/atom = 5.82857
Neighbor list builds = 4
Dangerous builds = 0
4000 atoms in group rxnSites
Neighbor list info ...
  update every 1 steps, delay 1 steps, check yes
  max neighbors/atom: 2000, page size: 100000
  master list distance cutoff = 26.9
  ghost atom cutoff = 26.9
  binsize = 13.45, bins = 63 63 63
  2 neighbor lists, perpetual/occasional/extra = 1 1 0
  (1) pair lj/cut, perpetual
      attributes: half, newton on
      pair build: half/bin/newton
      stencil: half/bin/3d/newton
      bin: standard
  (2) fix bond/create/random, occasional, copy from (1)
      attributes: half, newton on
      pair build: copy
      stencil: none
      bin: none
Setting up Verlet run ...
  Unit style    : real
  Current step  : 0
  Time step     : 25
Per MPI rank memory allocation (min/avg/max) = 17.87 | 18.29 | 18.88 Mbytes
Step E_pair PotEng KinEng E_bond E_angle Temp Bonds 
       0   -1388.8363    7460.3762    9341.3182    2971.5804    5877.6321    223.86018    13800 
 1000000   -213.47138    6687.3924    13021.929   -1437.3777    8338.2414    312.06423    15048 
 2000000   -207.67652    5971.2051    12842.804   -2028.3371    8207.2187    307.77159    15198 
 3000000   -226.19323    5599.5724    12888.713   -2488.9438    8314.7094    308.87179    15273 
 4000000   -241.84987    5426.2893     12881.55    -2501.056    8169.1952    308.70013    15298 
 5000000    -289.2071    5273.6721    12904.079   -2647.3969    8210.2761    309.24002    15313 
 6000000   -239.92721    5262.4468    12779.222   -2823.7849    8326.1589    306.24788    15355 
 7000000   -247.38786    5088.2626    12977.372   -2977.0626    8312.7131    310.99645    15386 
 8000000   -253.01994    5122.4855    13066.809   -2965.2544    8340.7599    313.13976    15401 
 9000000   -260.36907    5108.4682    12934.827   -2912.4551    8281.2924    309.97689    15394 
10000000   -266.92688    5092.5485    12805.791   -2926.4531    8285.9285    306.88461    15405 
11000000    -268.0331    5054.1444    13000.729    -2932.554    8254.7315     311.5562    15398 
12000000   -262.23468      5074.27    13061.817   -2914.5733     8251.078    313.02015    15383 
13000000   -266.70396    4755.5057    12939.826   -3170.7962    8193.0058    310.09669    15434 
14000000   -269.61535    4865.4612    13031.677   -3142.6404    8277.7169    312.29785    15451 
15000000   -254.09587    4848.4079    12879.867   -3061.0067    8163.5104    308.65979    15432 
16000000   -288.92904    4840.1998    12811.457   -3178.5774    8307.7063    307.02039    15431 
17000000   -274.12383    4719.9112    12746.949   -3196.5139     8190.549    305.47448    15449 
18000000   -279.61798    4708.6452    12836.264   -3187.9962    8176.2593    307.61486    15451 
19000000   -282.24102    4519.5245    12878.878   -3357.4704    8159.2359     308.6361    15468 
20000000   -287.34352    4622.1539    12882.849   -3214.7947    8124.2921    308.73126    15455 
21000000   -287.77443    4612.3095    12801.872   -3290.9867    8191.0706    306.79069    15480 
22000000   -246.47861    4848.1602    13032.357   -3196.2571    8290.8958    312.31414    15452 
23000000   -296.17229     4631.723    12864.844   -3263.4541    8191.3494    308.29978    15474 
24000000   -295.42219    4492.9452    12951.075   -3383.2377    8171.6051    310.36626    15486 
25000000   -261.93296    4642.1136    12684.444   -3390.5724     8294.619    303.97657    15479 
26000000   -292.72838    4468.2916    12854.589    -3390.814     8151.834    308.05402    15485 
27000000   -267.15405    4525.1708    12894.201   -3386.5798    8178.9046     309.0033    15503 
28000000   -295.47305    4495.0426    12954.885   -3385.9274     8176.443    310.45756    15488 
29000000   -284.65337    4586.4882    12993.139   -3320.4058    8191.5473    311.37431    15465 
30000000   -325.35911    4654.6752    12914.747   -3283.2873    8263.3217    309.49568    15471 
31000000   -311.78255    4811.9355    12999.332   -3131.7903    8255.5084    311.52273    15432 
32000000   -299.99681    4544.7997    12905.582   -3362.8111    8207.6076    309.27605    15472 
33000000    -335.4324    4572.4781    13013.629   -3339.9258    8247.8363    311.86533    15472 
34000000   -337.49275    4556.5563    12983.755   -3281.6283    8175.6773    311.14941    15468 
35000000   -320.79277    4554.0044    13049.956    -3404.835    8279.6321     312.7359    15481 
36000000   -308.13626    4516.2214    12811.637   -3357.8906    8182.2483     307.0247    15483 
37000000   -310.98853    4475.3027    12849.991   -3409.9236    8196.2149    307.94384    15475 
38000000   -317.74902    4545.9704    12959.698   -3313.6384    8177.3578    310.57291    15474 
39000000    -301.5504    4673.0283    12879.775   -3313.6819    8288.2606     308.6576    15484 
40000000   -310.82212    4729.3626    12750.389   -3283.7787    8323.9634    305.55692    15467 
41000000   -308.75567    4526.0194    12808.777    -3335.213     8169.988    306.95616    15492 
42000000   -333.28875    4406.4044    12880.656   -3464.4549     8204.148    308.67869    15485 
43000000   -306.90368    4483.5954    13077.886   -3388.8781    8179.3772    313.40522    15491 
44000000   -342.72774    4405.7722     12882.27   -3510.4484    8258.9483    308.71739    15512 
45000000   -321.97168    4630.7263     12848.19   -3253.8376    8206.5356    307.90068    15469 
46000000   -334.51062     4522.517    12928.117   -3376.0137    8233.0414    309.81607    15506 
47000000   -314.16192    4384.6749    13063.452   -3423.7781    8122.6149    313.05933    15489 
48000000   -337.43949    4516.4308    13058.249   -3348.2115    8202.0818    312.93464    15470 
49000000   -295.12116    4369.4932    13061.307   -3375.9776     8040.592    313.00792    15493 
50000000   -324.22513    4439.4422    12983.695   -3465.9386    8229.6059    311.14797    15504 
51000000   -309.89605    4561.5175    13085.067   -3364.2496    8235.6631    313.57731    15505 
52000000   -355.29446    4568.3756     12995.53   -3240.4003    8164.0704    311.43161    15465 
53000000   -337.99691    4364.4301    12848.053   -3552.1994    8254.6264    307.89738    15501 
54000000   -344.50151    4389.1395    12871.785   -3446.5747    8180.2158    308.46611    15508 
55000000   -300.57348    4444.0306     12842.71   -3430.2652    8174.8693    307.76935    15483 
56000000   -296.34405    4496.1892     12938.54   -3395.0823    8187.6156    310.06587    15494 
57000000   -318.16592    4603.7132     12718.57   -3340.1229     8262.002    304.79439    15493 
58000000   -317.16401    4610.0461    12801.137   -3371.5924    8298.8025    306.77306    15468 
59000000   -304.94928    4409.0524    12895.062   -3467.4318    8181.4336    309.02393    15490 
60000000   -367.82292    4392.0385    12916.855   -3429.5686      8189.43     309.5462    15508 
61000000   -343.49512    4452.6337    12948.404   -3437.5193    8233.6481    310.30226    15500 
62000000    -353.4767    4267.5736    12889.388   -3570.6111    8191.6614    308.88797    15518 
63000000   -335.96626    4420.0943    12860.317     -3359.53    8115.5905    308.19128    15481 
64000000   -347.91664    4309.9348    13129.732   -3513.0356    8170.8871    314.64768    15513 
65000000    -333.3325     4247.424    12872.592   -3587.9029    8168.6594    308.48545    15512 
66000000   -313.48328    4351.6172    13014.581   -3545.5044    8210.6049    311.88816    15506 
67000000   -317.93817    4471.4572    13018.254   -3468.7777     8258.173    311.97617    15502 
68000000   -309.79284    4353.1946    12937.412   -3509.0198    8172.0073    310.03883    15521 
69000000   -311.55496    4378.2661    12893.738   -3532.9022    8222.7233     308.9922    15505 
70000000   -335.33898    4284.7213    13041.262    -3541.586    8161.6463    312.52756    15515 
71000000   -333.10985     4373.283    13087.339   -3476.7069    8183.0998    313.63176    15496 
72000000   -365.54363    4440.6435    12859.083   -3433.2334    8239.4206    308.16173    15509 
73000000   -329.73176    4320.6919    13058.017   -3590.4802    8240.9038    312.92908    15516 
74000000   -356.88055    4473.0955    12996.179   -3495.6017    8325.5777    311.44716    15501 
75000000   -301.04052    4462.7474    12853.399    -3424.611    8188.3989     308.0255    15517 
76000000   -324.39285    4328.1389    13079.438   -3576.2607    8228.7925    313.44241    15543 
77000000   -311.95691    4303.8995    12880.425   -3591.4159    8207.2723    308.67317    15526 
78000000   -322.39566    4528.4145    13154.005   -3433.2905    8284.1007    315.22938    15505 
79000000   -366.79229    4299.9237    12828.614   -3545.6171    8212.3331    307.43154    15507 
80000000   -313.51693    4292.8574    12981.867   -3559.1498    8165.5242    311.10418    15516 
81000000   -341.35515    4348.6962    12897.189   -3636.7704    8326.8218     309.0749    15524 
82000000   -318.33734    4454.7619     12992.52   -3515.3656    8288.4648    311.35947    15509 
83000000   -348.25908    4533.3003    13022.941   -3351.0933    8232.6527     312.0885    15495 
84000000   -342.03802    4452.1002    12880.932   -3484.8049    8278.9431    308.68532    15519 
85000000   -337.89635    4522.4131    12929.923   -3337.8228    8198.1323    309.85937    15481 
86000000   -329.40186    4439.9397    12900.461   -3395.0366    8164.3781    309.15333    15506 
87000000   -382.63482    4394.5681    12820.605   -3484.5783    8261.7812    307.23961    15508 
88000000   -354.78262     4214.214    13052.312   -3603.8945    8172.8911    312.79236    15521 
89000000   -342.43505    4364.9903    13000.774   -3462.7644    8170.1898    311.55728    15503 
90000000   -333.83313    4448.2076    12881.751   -3378.8501    8160.8909    308.70495    15490 
91000000   -379.16224     4317.113    12851.219   -3424.8532    8121.1285    307.97326    15499 
92000000   -341.16611    4205.0388    12964.793   -3604.6587    8150.8636    310.69502    15519 
93000000   -350.81287    4340.9348    13109.612   -3529.3552    8221.1029    314.16552    15512 
94000000   -338.72298    4372.5644    12976.353   -3333.8005    8045.0879    310.97203    15495 
95000000   -365.38505    4256.4073    12894.979   -3614.2629    8236.0553    309.02194    15534 
96000000   -346.32995    4204.2341    12892.135    -3595.454     8146.018     308.9538    15532 
97000000   -363.05978    4265.9068    12927.182   -3572.3771    8201.3437    309.79367    15541 
98000000    -330.7451    4277.0195    12968.964   -3540.3012    8148.0658    310.79496    15517 
99000000   -375.90671    4394.0826    13087.384    -3519.947    8289.9363    313.63283    15521 
100000000    -335.4692    4365.7251    12925.708   -3481.5561    8182.7504    309.75834    15516 
101000000   -384.70388    4380.9429    13061.786    -3447.824    8213.4708    313.01939    15506 
102000000   -377.64134    4301.3959     12872.04   -3495.1158     8174.153    308.47223    15505 
103000000   -391.67103    4371.1958    12835.004   -3478.1993    8241.0661    307.58467    15516 
104000000    -379.6942    4339.3764    12826.616    -3517.453    8236.5236    307.38366    15517 
105000000   -360.45498    4192.9915    12994.009   -3610.2722    8163.7186    311.39516    15517 
106000000   -381.85822    4370.5241    13005.913   -3487.0414    8239.4237    311.68042    15504 
107000000   -380.49227    4196.6753    12920.246   -3556.8412    8134.0088    309.62746    15524 
108000000   -327.22838    4169.4193    12828.553   -3652.5408    8149.1885    307.43007    15537 
109000000   -371.34182    4190.5518    12745.942   -3583.7927    8145.6864    305.45036    15535 
110000000   -380.48665    4326.5864    13051.887   -3424.7635    8131.8366    312.78218    15510 
111000000   -368.35293    4432.2062    13074.513   -3356.0343    8156.5934    313.32439    15494 
112000000   -358.22481    4394.7882    12813.868   -3384.4703    8137.4833    307.07816    15504 
113000000   -343.52182    4148.5339    12876.107   -3599.3057    8091.3615    308.56969    15527 
114000000   -399.93504    4426.5994    13039.817   -3361.8531    8188.3876    312.49292    15501 
115000000   -382.41171    4341.1526    12996.188   -3447.4988    8171.0631    311.44736    15515 
116000000   -334.41138     4330.561    12958.709    -3553.365    8218.3374     310.5492    15522 
117000000   -359.40235    4238.5759    12927.508   -3536.8256    8134.8038     309.8015    15529 
118000000   -355.80394    4014.0605    12811.697   -3702.4337    8072.2981    307.02613    15554 
119000000   -341.11144    4301.6879    12904.855   -3591.5716    8234.3709    309.25861    15523 
120000000   -355.70617    4301.0413    12809.703   -3469.3818    8126.1292    306.97835    15517 
121000000   -318.17187    4244.2483    13024.029   -3691.9835    8254.4037    312.11456    15536 
122000000   -400.16662    4140.1034    13025.224   -3653.2784    8193.5485     312.1432    15536 
123000000   -386.71849    4382.3794    12811.164   -3485.1084    8254.2063    307.01337    15518 
124000000   -360.66189    4149.6166    12929.328   -3639.4343    8149.7127    309.84511    15523 
125000000    -383.4948    4262.7393    13054.987   -3412.1358    8058.3699    312.85647    15511 
126000000   -396.26141    4243.1867    13040.583   -3395.8421    8035.2902    312.51128    15524 
127000000   -348.62172     4452.677    12833.434   -3491.8732    8293.1719    307.54705    15516 
128000000   -397.40846    4298.3601    12992.945   -3468.2321    8164.0006    311.36965    15508 
129000000   -388.71458    4266.2996    12848.131    -3511.678    8166.6921    307.89926    15515 
130000000   -371.30129     4467.649    12810.627   -3440.9981    8279.9484    307.00049    15512 
131000000   -353.92057     4097.078    12850.159   -3608.2636    8059.2621    307.94785    15527 
132000000   -361.10805    4253.7671     12899.84   -3569.4404    8184.3156    309.13844    15538 
133000000   -348.47543    4166.7961    12879.707   -3615.6006    8130.8721    308.65595    15558 
134000000   -363.71647     4217.285    12920.385    -3504.434    8085.4355    309.63079    15516 
135000000   -368.07231    4272.9147    13008.526   -3556.6331    8197.6201    311.74304    15531 
136000000   -374.33784    4244.3051    12901.504    -3515.612    8134.2549    309.17831    15512 
137000000    -391.6567    4343.0026    12904.256   -3486.4428    8221.1021    309.24426    15522 
138000000   -345.53548    4426.4993    12898.119   -3467.5154    8239.5502    309.09719    15506 
139000000   -346.07658    4280.6999    13006.923   -3529.3281    8156.1046    311.70462    15520 
140000000   -385.17185     4258.018    12729.527   -3563.5996    8206.7894    305.05696    15536 
141000000   -396.60727    4367.3683    12975.054   -3453.0711    8217.0467    310.94091    15522 
142000000   -389.66769    4305.9333    13032.003   -3471.7672    8167.3681    312.30567    15524 
143000000   -363.79073    4179.8415    12904.793   -3489.6931    8033.3253    309.25713    15512 
144000000   -376.70001    4267.0927    12848.929   -3469.0282    8112.8209    307.91839    15536 
145000000   -373.21856    4295.3972    13069.401   -3550.4608    8219.0765    313.20188    15531 
146000000   -363.77694     4202.976    13000.412   -3529.5355    8096.2885    311.54861    15528 
147000000   -361.77097    4064.8818    12959.256    -3682.155    8108.8078    310.56231    15514 
148000000   -352.49157    4304.0179    12942.388   -3493.2498    8149.7593    310.15808    15510 
149000000   -383.03502    4194.1866    12838.382   -3548.3372    8125.5588    307.66562    15529 
150000000   -389.89779    4165.8266    12996.446   -3608.4358    8164.1602    311.45355    15521 
151000000   -359.00258    4352.6376    13043.004   -3471.7805    8183.4206    312.56929    15545 
152000000   -381.30082    4328.5234    13072.624   -3533.4686    8243.2928    313.27912    15531 
153000000   -366.03209    4420.1614    12796.925   -3441.0652    8227.2587    306.67214    15521 
154000000   -343.10391    4235.4579    12957.737   -3596.6149    8175.1767     310.5259    15540 
155000000   -333.78267    4273.7049    12885.548    -3550.865    8158.3525    308.79595    15528 
156000000   -358.54551    4188.6626    12975.773   -3648.9563    8196.1644    310.95814    15548 
157000000   -385.56069     4165.217    12923.021   -3622.7396    8173.5173    309.69397    15535 
158000000   -363.57537    4172.5694      12860.7    -3652.908    8189.0527    308.20047    15531 
159000000   -362.75798    4262.5597    12973.467   -3636.1427    8261.4604    310.90288    15532 
160000000   -395.56618    4296.1178     13104.86    -3492.356      8184.04    314.05164    15535 
161000000   -354.42624    4238.5328    12928.895   -3584.0395    8176.9985    309.83474    15538 
162000000   -376.64857    4146.6295    12801.995   -3639.8119      8163.09    306.79363    15535 
163000000   -373.74652     4208.877    12750.278   -3602.4951    8185.1185    305.55425    15527 
164000000   -376.05776    4228.0185    12788.933   -3552.3675    8156.4438     306.4806    15524 
165000000   -389.37352    4189.6021    12972.576   -3500.8034    8079.7791    310.88153    15526 
166000000   -356.30562    4231.1743    13006.409   -3516.6392    8104.1192     311.6923    15522 
167000000   -314.85037    4039.4826    12944.871   -3736.3236    8090.6566    310.21759    15546 
168000000   -340.24373    4172.3005    12940.832   -3644.1139    8156.6581     310.1208    15543 
169000000    -361.5537    4317.4865    12977.522   -3504.5116    8183.5518    311.00005    15513 
170000000   -349.72755    4227.5669    12941.138   -3630.3267    8207.6212    310.12813    15531 
171000000   -378.09552    4215.8952    12850.379   -3580.3334    8174.3241    307.95314    15527 
172000000   -355.36155    4364.9042    12942.882   -3607.4619    8327.7277    310.16992    15532 
173000000   -342.51332    4189.3595    12961.104   -3578.1364    8110.0092    310.60659    15523 
174000000   -354.06819    4326.6437    12762.286   -3535.6147    8216.3266    305.84202    15543 
175000000   -360.43107    4423.3123    13015.798   -3436.3289    8220.0723    311.91731    15512 
176000000   -375.84346    4245.3505    12984.834   -3614.2537    8235.4476    311.17527    15532 
177000000   -364.02897    4297.5505    12937.308   -3528.9845    8190.5639    310.03634    15533 
178000000   -359.49564    4532.8848    12944.642   -3404.3956    8296.7761    310.21209    15496 
179000000   -388.69383    4224.6073    12891.436   -3501.3898    8114.6909    308.93705    15535 
180000000   -321.84326    4334.2668    13087.844   -3458.9028    8115.0129    313.64386    15511 
181000000   -361.80361    4304.9256    13039.535    -3473.576    8140.3052    312.48615    15519 
182000000   -379.49056    4056.6583    12764.487   -3661.7561    8097.9049    305.89477    15546 
183000000   -373.11689    4322.3715     13066.83   -3532.9631    8228.4515    313.14027    15524 
184000000   -399.17095    4267.2607    12963.081   -3528.3468    8194.7784    310.65398    15533 
185000000   -352.57554    4328.0387    12910.825    -3495.467    8176.0812    309.40168    15515 
186000000   -392.09937    4179.3638    13064.101   -3605.4166    8176.8798    313.07487    15533 
187000000   -366.57502    4358.4589    13111.008   -3628.0038    8353.0377    314.19897    15541 
188000000   -350.89314    4303.8275    13058.711   -3509.8377    8164.5583    312.94571    15535 
189000000   -381.28605    4262.9849    12893.828   -3526.7929    8171.0639    308.99437    15514 
190000000    -392.8502    4213.4195    12984.678   -3537.8822    8144.1519    311.17154    15518 
191000000   -370.54269    4098.8282    12984.654   -3694.0995    8163.4703    311.17097    15546 
192000000   -363.13755    4216.7981    12792.884   -3558.2376    8138.1732    306.57529    15521 
193000000   -370.41984    4257.5811    12872.611   -3601.3413    8229.3422     308.4859    15514 
194000000    -370.1085    4184.5711    12930.932   -3539.7982    8094.4778    309.88354    15536 
195000000   -369.19283    4253.2788    12905.726   -3496.1018    8118.5735    309.27949    15526 
196000000   -375.60492    4034.1569    13070.849   -3670.1968    8079.9586    313.23659    15529 
197000000   -386.08617    4106.8321    13035.353   -3608.1026    8101.0208    312.38594    15525 
198000000   -340.02135     4185.099    13031.369    -3558.853    8083.9734    312.29046    15532 
199000000   -396.49297    4377.3014    13164.553   -3487.4936     8261.288    315.48216    15517 
200000000   -364.37135    4334.5169    12872.514   -3428.5736    8127.4618    308.48359    15516 
201000000   -404.67763     4109.429     12884.74   -3559.4515    8073.5581    308.77657    15536 
202000000   -370.46797    4242.6268     12960.29   -3592.2109    8205.3057     310.5871    15535 
203000000   -397.00701    4474.9483    12965.345   -3343.5347      8215.49    310.70823    15509 
204000000   -385.61403    4145.0558    12896.712   -3625.0324    8155.7022    309.06347    15552 
205000000   -378.26249    4185.3682    12856.314   -3588.2643     8151.895    308.09536    15542 
206000000   -386.75127    4271.1495    12729.722   -3578.7904    8236.6911    305.06165    15529 
207000000   -342.53298    4192.4277    12902.982   -3531.7981    8066.7588    309.21373    15516 
208000000   -359.30312    4160.1087    12972.787   -3619.5125    8138.9243    310.88658    15530 
209000000   -385.24086    4277.3578    13123.965     -3479.78    8142.3786    314.50948    15509 
210000000   -384.23704    4312.5109    13053.893   -3570.3827    8267.1306    312.83023    15539 
211000000   -377.29365    4113.3793    12995.214   -3682.3883    8173.0612    311.42403    15537 
212000000   -387.51595    4316.3887    12792.892   -3446.4298    8150.3344    306.57549    15530 
213000000   -363.35116    4190.7957    12904.428   -3646.9869    8201.1337    309.24838    15534 
214000000   -394.08439    4169.4188    12839.614   -3587.5697    8151.0729    307.69516    15523 
215000000   -388.44731    4203.6246    13000.188   -3560.9991     8153.071    311.54322    15526 
216000000   -379.72412    4060.0715     13076.51   -3549.5476    7989.3433    313.37225    15526 
217000000   -389.33239    4369.1451    12881.016   -3444.8062    8203.2836    308.68734    15510 
218000000   -413.08285    4166.6545    13051.352   -3590.5917    8170.3291    312.76935    15541 
219000000   -399.66019    4171.7125    12810.888   -3589.7969    8161.1697    307.00675    15535 
220000000   -364.23473    3953.1443    12838.737   -3747.8721    8065.2511    307.67414    15557 
221000000   -394.97766    4154.1436    12984.597   -3600.4351    8149.5563     311.1696    15546 
222000000   -379.07112    4049.6989    13057.981   -3664.9736    8093.7436     312.9282    15542 
223000000   -382.17174    4072.3545     13096.09   -3754.7705    8209.2968    313.84147    15552 
224000000   -392.49547    4398.5961     12966.99   -3422.9893    8214.0809    310.74766    15533 
225000000    -368.1656     4190.486    12887.088   -3647.6391    8206.2907    308.83285    15528 
226000000   -358.25263    4310.0254    13027.462   -3494.3158    8162.5938    312.19685    15510 
227000000   -411.06345    4186.4339    12902.099   -3649.8787     8247.376    309.19257    15535 
228000000   -396.49161    4240.6236    12955.992   -3526.1222    8163.2374    310.48409    15521 
229000000    -379.0216    4176.6123    13014.081   -3577.6808    8133.3147    311.87617    15535 
230000000   -407.79922    4030.3097     12956.93   -3666.1933    8104.3022    310.50656    15529 
231000000   -391.17555    4170.3987    12913.252   -3732.2358      8293.81    309.45985    15546 
232000000   -382.91329    4123.5072    12925.244   -3641.8744    8148.2949    309.74723    15542 
233000000   -358.79029    4240.2786     12765.52   -3687.1188    8286.1877    305.91952    15558 
234000000   -376.05653    4184.9326    12891.428   -3586.9959     8147.985    308.93685    15533 
235000000   -391.72082    4135.2392    13029.711   -3573.2321    8100.1921    312.25073    15534 
236000000   -381.53475    3950.4222    12928.936   -3753.2888    8085.2457    309.83571    15551 
237000000    -354.0526    4302.5631    12998.463   -3506.4911    8163.1069    311.50189    15511 
238000000   -371.24796    4124.8521    12976.318   -3597.4376    8093.5377     310.9712    15533 
239000000   -374.41065    4039.0572    13025.079   -3609.6718    8023.1396    312.13973    15539 
240000000   -381.76607    4333.9201    13034.333   -3473.4702    8189.1564    312.36151    15502 
241000000   -402.58146    4096.3496    12989.172   -3554.4283    8053.3593    311.27924    15520 
242000000   -370.51911    4255.6393    12897.466   -3532.3708    8158.5292    309.08156    15517 
243000000   -375.92019    4123.1759    12920.081   -3635.9593    8135.0554    309.62349    15538 
244000000   -397.58987    4199.8332    12818.785   -3631.8757    8229.2988    307.19598    15527 
245000000   -370.52136    4131.8438    13029.729   -3606.5054    8108.8706    312.25117    15537 
246000000   -337.72124    4218.7842    12758.641   -3588.6468    8145.1523    305.75467    15525 
247000000   -372.57069    4206.9387     12735.41   -3527.2988    8106.8082    305.19794    15512 
248000000   -375.97441    4280.4158    12912.542   -3502.7623    8159.1526    309.44285    15515 
249000000    -403.7993    4049.1979    12968.026   -3686.9682    8139.9654    310.77248    15549 
250000000   -356.54727    4272.8873    12945.564   -3576.7646    8206.1991    310.23418    15531 
251000000   -374.57237    4350.7103    12910.719   -3423.8357    8149.1184    309.39914    15512 
252000000    -393.2726    4053.2566    12843.291   -3710.9289    8157.4581    307.78326    15549 
253000000   -364.55602    4042.9632    13028.581   -3708.1218    8115.6411    312.22365    15548 
254000000   -367.28916    4338.6852    12815.972   -3490.6714    8196.6457    307.12858    15522 
255000000   -373.87143    4259.7499    12952.516   -3498.1516    8131.7729     310.4008    15522 
256000000   -369.67632    4235.9551     12914.59   -3516.9392    8122.5706    309.49193    15521 
257000000     -350.352    4341.5713    12955.683   -3559.8222    8251.7455     310.4767    15533 
258000000   -385.11393    4087.4372    12923.836   -3600.9511    8073.5023    309.71349    15508 
259000000   -341.42588    4200.1657    12819.866   -3577.8775    8119.4692     307.2219    15528 
260000000   -371.18121    4301.2999    13118.685   -3462.2486    8134.7297    314.38295    15517 
261000000   -383.33903    4263.6469    12818.719   -3479.5862    8126.5721    307.19441    15515 
262000000   -376.90061    4121.2951    13072.161   -3574.7962    8072.9919    313.26803    15519 
263000000   -348.90386    4157.8539    12916.515   -3645.4011    8152.1588    309.53805    15534 
264000000   -383.26024    4088.8537    12890.958    -3628.702     8100.816    308.92558    15535 
265000000   -365.61401    4295.3144    12977.123   -3507.5257    8168.4541    310.99048    15519 
266000000   -396.62653    4264.1999    12997.303   -3616.3372    8277.1636    311.47408    15526 
267000000   -386.77497    4265.0065    12941.501   -3512.2088    8163.9903    310.13681    15534 
268000000   -383.16179    4230.8839    12936.483   -3569.2229    8183.2685    310.01657    15524 
269000000   -374.26105    4285.5148    13058.553   -3509.5291     8169.305    312.94192    15535 
270000000   -355.27681    4173.1413    12810.417   -3692.2958    8220.7139    306.99545    15543 
271000000    -387.0903    4167.4635    13002.628   -3572.6311    8127.1849    311.60171    15530 
272000000   -433.50107    4192.1897    12790.404   -3470.3406    8096.0314    306.51587    15518 
273000000   -403.60385    4213.4364    12868.284   -3629.8099    8246.8502    308.38222    15537 
274000000   -374.83419    4350.8422     13057.02   -3522.7117    8248.3881    312.90519    15508 
275000000    -350.5592    4235.2549    12955.457   -3590.3823    8176.1964    310.47127    15534 
276000000   -362.34029    4113.4772    13032.836   -3667.3251    8143.1425    312.32563    15534 
277000000   -367.47717    4272.0545    12905.912   -3519.7069    8159.2386    309.28395    15527 
278000000   -376.66664    4264.2506    12959.753   -3435.9448    8076.8621    310.57422    15508 
279000000   -348.98909    4158.7205    12889.589   -3649.7924     8157.502    308.89278    15533 
280000000    -367.2986    4308.0032    12868.649   -3515.6691    8190.9708    308.39095    15524 
281000000   -367.19024    4099.6617    13007.864   -3694.9758    8161.8277    311.72717    15556 
282000000   -378.34881     4309.757     12833.78   -3546.3778    8234.4836    307.55534    15531 
283000000   -321.85382    4217.8427    12989.372   -3556.3916    8096.0881    311.28404    15532 
284000000   -382.58376     4307.353    12731.258   -3525.1558    8215.0925    305.09846    15515 
285000000   -379.68485     4201.912    12997.434   -3550.1492    8131.7461    311.47722    15531 
286000000   -355.78808    4474.6973    12868.618   -3392.5873    8223.0727    308.39022    15495 
287000000   -410.80213    4089.0937    12873.666   -3622.6653    8122.5611    308.51118    15520 
288000000   -376.94368    4139.6265    12893.315   -3599.4256    8115.9958    308.98206    15544 
289000000   -356.87787    4292.4431    12848.464    -3565.434     8214.755    307.90723    15520 
290000000   -368.64451    4287.1595    12993.155   -3542.2514    8198.0554    311.37469    15527 
291000000   -388.17312    4213.5503    12943.851   -3474.0201    8075.7436    310.19314    15514 
292000000   -349.03246     4233.658    12911.361   -3512.4887    8095.1791    309.41454    15534 
293000000   -363.64031    4343.9378    12935.902    -3434.252    8141.8301    310.00264    15517 
294000000   -380.41559     4289.522    13074.513   -3535.0287    8204.9663     313.3244    15531 
295000000   -372.95842    4253.4646     13064.06   -3517.7275    8144.1505     313.0739    15520 
296000000   -354.31704    4413.7544    13080.145   -3507.9863    8276.0577    313.45935    15518 
297000000   -392.43949    4158.8584    12996.619   -3577.9985    8129.2965     311.4577    15529 
298000000    -391.5107    4128.4786    13028.252   -3599.6769    8119.6662    312.21577    15533 
299000000   -378.31464    4347.8335    12852.408   -3546.5755    8272.7237    308.00176    15520 
300000000   -376.96679    4311.9429    12860.929   -3502.6553     8191.565    308.20596    15524 
301000000    -350.7633    4362.7338    12949.912   -3494.5813    8208.0785    310.33838    15526 
302000000   -333.90835    4285.4067    13007.851   -3529.7625    8149.0775    311.72688    15528 
303000000   -370.31148    4289.4352    12966.833   -3664.5936    8324.3403    310.74388    15531 
304000000    -350.4621    4145.0348    13016.713   -3596.5966    8092.0935    311.93925    15525 
305000000   -342.65453    4215.0091    12914.129   -3504.4206    8062.0842    309.48087    15523 
306000000   -348.39093    4468.1741     12901.92   -3474.6741    8291.2392    309.18829    15530 
307000000   -370.43124     4133.347    12953.472   -3629.1111    8132.8894    310.42369    15540 
308000000   -353.53964    4193.1258    13103.374   -3583.4233    8130.0887    314.01602    15541 
309000000   -341.34788     4277.765    13043.556   -3660.2157    8279.3286    312.58252    15537 
310000000   -394.12729    4346.0471    12951.782   -3560.6779    8300.8523     310.3832    15529 
311000000   -373.45901     4117.542    12963.096   -3537.9258    8028.9268    310.65433    15510 
312000000   -377.21429    4219.9579    12874.772   -3573.2912    8170.4634    308.53768    15537 
313000000   -377.29901    4359.1102    12895.518   -3419.5993    8156.0085    309.03486    15514 
314000000   -366.69767    4310.4344    12988.344   -3569.0746    8246.2066     311.2594    15535 
315000000   -383.35244    4393.1286    12921.224   -3522.8836    8299.3646     309.6509    15527 
316000000   -378.53347    4225.6484     12905.41   -3551.6801    8155.8619    309.27191    15531 
317000000   -389.94589    4340.2408    12820.045   -3506.7376    8236.9242    307.22619    15518 
318000000   -360.24449    4117.3891    12866.062    -3638.245    8115.8785    308.32896    15548 
319000000   -358.15103    4344.2192    13041.068   -3515.3644    8217.7347    312.52291    15530 
320000000   -376.90894     4233.518    13056.936   -3573.9693    8184.3963    312.90316    15543 
321000000   -386.68147    4152.4642    12935.184   -3676.5621    8215.7077    309.98544    15534 
322000000   -376.66828    4480.4393    12906.209   -3450.2466    8307.3542    309.29106    15532 
323000000   -426.91538    4147.5907     12835.62   -3478.2285    8052.7346    307.59944    15525 
324000000   -380.33394    3963.9707    12837.592   -3746.6171    8090.9218    307.64671    15569 
325000000      -375.91     4270.468    12851.676   -3533.4838    8179.8618    307.98421    15512 
326000000   -379.23201    4268.7976    12863.914   -3449.2593    8097.2889    308.27748    15513 
327000000   -354.73921    4247.4525    12851.238   -3511.0361    8113.2278    307.97371    15508 
328000000   -379.29938    4177.8132    13027.497   -3633.8085    8190.9211    312.19767    15530 
329000000   -412.47779    4219.9943     12830.05   -3513.2364    8145.7085    307.46596    15516 
330000000   -396.93758    4224.6547    13038.332   -3565.6013    8187.1935    312.45734    15523 
331000000   -357.05851    4297.6731    12869.985   -3448.4558    8103.1874    308.42298    15522 
332000000   -365.56975    4224.8548    12994.529   -3525.6204     8116.045    311.40762    15532 
333000000   -382.65643    4231.2629    12876.224   -3595.1709    8209.0902    308.57249    15522 
334000000   -347.26546    3966.7026    12848.906   -3788.2822    8102.2503    307.91783    15573 
335000000    -396.4667    4227.6495    12863.352   -3578.3097    8202.4258    308.26401    15536 
336000000   -368.04361    4208.1211    13012.532   -3561.3791    8137.5438    311.83906    15522 
337000000   -338.88698    4311.9158    12840.287   -3572.1781    8222.9809    307.71127    15536 
338000000   -419.57885    4184.4242    12957.906   -3574.0652    8178.0683    310.52996    15537 
339000000   -387.86701    4106.6936     12891.71   -3588.2065    8082.7671    308.94361    15522 
340000000   -365.71927    4427.9267    12999.255   -3483.5583    8277.2043    311.52087    15517 
341000000   -364.96664    4282.0716    13071.762   -3562.3397    8209.3779    313.25846    15529 
342000000   -367.27651     4407.425    12877.567   -3475.9448    8250.6463    308.60467    15517 
343000000    -407.7558    4094.6189    12987.895   -3748.1714    8250.5461    311.24863    15557 
344000000   -393.48908    4212.3777    12951.434   -3575.8158    8181.6825    310.37485    15525 
345000000   -362.83299    4152.7839    12883.556   -3592.9032    8108.5201    308.74821    15550 
346000000   -368.17978    4140.7659    12898.493   -3621.6348    8130.5805    309.10616    15532 
347000000   -350.88511    4205.8175    12867.197   -3610.9059    8167.6085    308.35616    15533 
348000000   -379.93629    4153.9187    13041.503   -3583.3613    8117.2163    312.53333    15519 
349000000   -332.74018    4306.1177    12928.166   -3519.0115    8157.8693    309.81726    15534 
350000000   -346.92892     4195.623    12851.397   -3576.5941     8119.146    307.97751    15537 
351000000   -408.38139    4159.1506    12867.009   -3505.6183    8073.1502    308.35167    15522 
352000000   -377.49856    4238.3312    12962.105   -3548.9186    8164.7483    310.63059    15529 
353000000   -445.68086    4137.2762    12881.541   -3578.0712    8161.0282    308.69992    15521 
354000000   -388.05931    4226.1671    12880.075   -3577.9607    8192.1871    308.66478    15526 
355000000   -376.11167    4281.7264    12966.603    -3576.807    8234.6451    310.73837    15539 
356000000   -359.75072    4121.1994    12963.103   -3646.9404    8127.8905    310.65452    15534 
357000000   -377.46094    4350.4898    13029.153   -3487.6231    8215.5738    312.23736    15506 
358000000   -332.52598    4110.9478    13035.083   -3655.8603    8099.3341    312.37948    15546 
359000000   -345.58377    4351.3925    12759.499   -3500.6278     8197.604    305.77522    15520 
360000000   -385.42912    4229.4488    12909.305   -3567.3178    8182.1957    309.36527    15523 
361000000   -359.14085    4491.7199    13010.637   -3335.2413     8186.102    311.79365    15497 
362000000   -349.57953    4258.8697     12852.48   -3512.3958     8120.845    308.00348    15512 
363000000   -361.35402    4207.3738    12777.829   -3521.1082    8089.8359    306.21449    15538 
364000000   -397.77509    4248.9059    12960.727   -3516.6648    8163.3458    310.59758    15517 
365000000   -409.24081    4153.1615    12745.947    -3606.337    8168.7392    305.45046    15543 
366000000    -371.4256    4176.7252    13008.358   -3714.9211    8263.0719    311.73903    15549 
367000000   -373.99507    4328.9672    12938.593   -3430.2384    8133.2007    310.06714    15520 
368000000    -378.5892    4117.9548    12927.027   -3579.4544    8075.9985    309.78996    15540 
369000000   -376.19447    4140.1156    12817.158   -3683.8746    8200.1846      307.157    15540 
370000000   -384.57226     4251.247     12914.12   -3540.5034    8176.3227    309.48065    15528 
371000000   -391.15526    4211.1567    12920.163    -3553.184    8155.4959    309.62548    15529 
372000000   -364.33234    4241.7635     12833.64   -3591.8247    8197.9206    307.55199    15539 
373000000   -386.33115    4281.4388    12937.099   -3515.4445    8183.2145    310.03132    15530 
374000000    -398.1726    4149.4199     12881.78   -3649.0899    8196.6824    308.70565    15539 
375000000   -340.79122     4215.435    13045.071   -3616.6794    8172.9056    312.61883    15539 
376000000   -376.05697    4161.9311    12859.552   -3519.6317    8057.6198    308.17296    15512 
377000000   -338.42675    4099.7005    12915.586   -3553.3671    7991.4944    309.51577    15516 
378000000   -357.19908    4184.2787    12916.938     -3572.42    8113.8978    309.54819    15516 
379000000    -400.0402    4132.0181    12739.229   -3576.8362    8108.8945    305.28947    15533 
380000000   -386.71588    4245.5171    12770.065   -3565.0577    8197.2907    306.02844    15531 
381000000   -402.83566    4246.5002    12998.568   -3497.6292    8146.9651    311.50441    15528 
382000000   -398.74006     4191.342    13013.339    -3637.906     8227.988    311.85839    15535 
383000000   -416.81788    4233.1985    13096.835   -3585.9164    8235.9328    313.85934    15525 
384000000   -363.67216     4105.882    12866.681   -3675.9488     8145.503    308.34379    15552 
385000000   -352.48044    4170.5529     13019.64   -3631.4349    8154.4683    312.00938    15528 
386000000   -369.99936    4231.7995    12905.601   -3619.3984    8221.1972    309.27649    15541 
387000000   -375.53044    4247.0603    12932.047   -3556.0834    8178.6741    309.91025    15544 
388000000    -384.6821     4258.925    12941.656   -3479.6155    8123.2226    310.14055    15507 
389000000   -362.51873    4205.6108    12912.272   -3640.1549    8208.2844    309.43636    15530 
390000000   -382.95296    4204.6411     12890.97   -3565.3754    8152.9695    308.92588    15531 
391000000      -364.29    4214.0052     12979.44   -3549.3408     8127.636    311.04601    15524 
392000000   -383.81143    4193.3404    12945.709     -3553.43    8130.5818    310.23767    15548 
393000000   -372.13058    4322.0046    13061.053   -3549.6727    8243.8079    313.00182    15526 
394000000   -368.45471    4222.2254    12836.869   -3551.7544    8142.4345    307.62937    15523 
395000000   -400.53325    4184.4423    12910.692    -3520.324    8105.2996     309.3985    15528 
396000000   -398.90565    4265.7214    13011.355   -3556.6378    8221.2648    311.81084    15520 
397000000   -387.19764    4249.7207    12873.153   -3521.2899    8158.2082    308.49889    15519 
398000000    -364.6595    4151.0929    12879.887   -3590.8363    8106.5886    308.66026    15544 
399000000   -415.89989    4044.2759    13052.586   -3699.6225    8159.7983    312.79893    15541 
400000000   -369.79644    4029.9071    12966.292   -3621.4221    8021.1256    310.73093    15541 
401000000   -356.84279    4130.9516    12879.643   -3543.1043    8030.8986    308.65442    15520 
402000000   -359.15241    4197.7357    12978.037    -3606.244    8163.1321    311.01238    15550 
403000000   -390.95927    4148.9243    12960.801   -3629.9295     8169.813    310.59935    15529 
404000000   -403.98232    4171.0464      12877.5   -3605.9351    8180.9638    308.60307    15551 
405000000    -381.7871    4170.3887    12886.313   -3668.1739    8220.3497    308.81428    15533 
406000000   -374.07132    4271.9171     12983.29   -3517.1932    8163.1816    311.13827    15530 
407000000   -347.62577    4327.8516    12923.397    -3575.213    8250.6904    309.70298    15517 
408000000   -344.75954    4121.2814     12932.58   -3702.9795    8169.0204    309.92303    15549 
409000000   -341.23811    4150.8012    12731.671   -3540.5976    8032.6368    305.10836    15529 
410000000   -392.62722    4231.4131    12878.358   -3568.1898    8192.2302    308.62362    15529 
411000000   -400.05868    4239.2218    13126.126   -3573.4748    8212.7553    314.56128    15530 
412000000    -367.5538    4198.2307    13180.353   -3557.7054    8123.4899    315.86079    15524 
413000000   -370.53878     4361.367    12905.693    -3396.869    8128.7748    309.27869    15512 
414000000   -367.47035    4037.3215    12769.799    -3647.564    8052.3559    306.02208    15549 
415000000   -364.36434    4061.7655    12872.498   -3671.9767    8098.1065    308.48319    15545 
416000000   -376.69852    4181.6469    12967.126   -3523.1299    8081.4753     310.7509    15516 
417000000    -382.7261    4097.7308    13046.937   -3749.8158    8230.2727    312.66355    15558 
418000000   -364.44979     4259.646    12903.143   -3584.3051     8208.401     309.2176    15517 
419000000   -368.28988    4310.6182    12943.362   -3446.5591    8125.4672    310.18142    15519 
420000000   -421.65749    4190.9819    12879.771   -3507.2097    8119.8491     308.6575    15515 
421000000   -354.59785    4104.0507    12813.565   -3684.5244     8143.173    307.07089    15548 
422000000   -394.18166    4177.3956    12945.753   -3498.6652    8070.2425    310.23871    15515 
423000000   -403.78312    4156.8102    13043.964   -3563.2928    8123.8862    312.59229    15542 
424000000   -357.10911    4345.6133    12952.497   -3427.4889    8130.2114    310.40033    15508 
425000000   -386.01899     4301.309    12938.989   -3586.8115    8274.1396    310.07664    15518 
426000000   -360.51328    4084.7128    12945.631   -3653.8755    8099.1016     310.2358    15526 
427000000   -376.25595     4195.336    12853.298   -3550.7022    8122.2941    308.02308    15533 
428000000   -361.22889    4316.7015    13026.574   -3467.0477    8144.9781    312.17555    15520 
429000000   -387.36838    4259.0259    12987.945   -3533.6123    8180.0065    311.24982    15525 
430000000   -367.15464    4158.6184    13043.765    -3546.464    8072.2371    312.58753    15527 
431000000   -357.73557    4176.6491    13002.767   -3622.3899    8156.7746    311.60503    15510 
432000000   -382.59983    4064.6309     12985.95   -3694.1614    8141.3922    311.20202    15536 
433000000   -374.45301    4217.1678    12883.725   -3637.1455    8228.7663    308.75224    15548 
434000000    -403.5572    4181.9286    12881.751   -3596.3069    8181.7928    308.70495    15541 
435000000   -354.28141    4037.5689    13065.247   -3685.6145    8077.4648    313.10235    15547 
436000000   -409.40972    4220.0912    13064.663   -3668.4887    8297.9896    313.08834    15538 
437000000    -352.8182    4069.2841    12905.444   -3662.4236    8084.5259    309.27273    15539 
438000000   -386.62919    4120.2086    12955.214   -3549.8015    8056.6393    310.46545    15527 
439000000   -434.40963    4205.2922    13007.191   -3580.6995    8220.4014    311.71105    15522 
440000000   -395.49935    4111.6037    13012.994   -3574.0165    8081.1196    311.85011    15532 
441000000   -401.11439    3914.0218    12910.703   -3718.9776    8034.1137    309.39877    15541 
442000000   -375.18395    4178.6533    13016.483   -3616.5148    8170.3521    311.93373    15554 
443000000   -383.02567    4294.4333    12734.218   -3615.7921    8293.2511    305.16939    15537 
444000000   -399.57597    4226.3807    12992.774   -3601.6073    8227.5639    311.36556    15542 
445000000   -391.77946    4106.1284    13040.406   -3628.5756    8126.4834    312.50703    15533 
446000000   -349.82769     4251.585      13028.1   -3440.6172    8042.0298    312.21213    15503 
447000000   -359.21232    4193.5506    13048.173    -3519.513    8072.2759    312.69316    15522 
448000000   -391.14008    4346.1219    13070.398   -3398.9467    8136.2087    313.22577    15506 
449000000   -370.64971    4268.7805    12855.502   -3462.7315    8102.1617    308.07591    15514 
450000000   -404.18599    4250.3586     12876.76   -3496.3457    8150.8903    308.58534    15538 
451000000   -382.35477    4280.0261    12847.204   -3515.1067    8177.4876    307.87704    15527 
452000000   -385.07229    4119.3668    12929.318   -3602.7893    8107.2284    309.84487    15527 
453000000   -398.81741    4088.6548    12874.175   -3657.7609    8145.2332     308.5234    15552 
454000000   -390.61835    4229.5497    12944.417   -3455.4891    8075.6571    310.20669    15523 
455000000   -397.58291    4249.2513    12879.166   -3495.7909    8142.6251    308.64299    15531 
456000000   -415.90525    4105.6269     12966.43   -3648.4795    8170.0117    310.73423    15553 
457000000   -379.97184    4242.5557     12885.43   -3532.9127    8155.4402     308.7931    15532 
458000000   -388.95102    4312.7543    12787.752   -3443.8536    8145.5589     306.4523    15512 
459000000   -373.39995     3970.155    12920.915   -3751.2016    8094.7565     309.6435    15541 
460000000   -377.55439    3984.7921    12846.104   -3679.4867    8041.8332    307.85067    15550 
461000000   -388.06075    4044.7973     13016.83   -3689.3829    8122.2409    311.94204    15540 
462000000   -389.96383    4357.6496    13126.853   -3489.3923    8237.0058    314.57869    15536 
463000000   -367.97189    4093.7588    12989.643   -3656.1229    8117.8535    311.29051    15535 
464000000   -373.19223    4141.5065    12833.494   -3653.0022    8167.7009     307.5485    15552 
465000000   -378.12991    4127.1806     13080.45   -3681.9613    8187.2718    313.46668    15547 
466000000   -396.05367    4219.8163    12960.268   -3515.0841    8130.9541    310.58656    15540 
467000000   -434.75179     4122.958    12974.724   -3542.2278    8099.9376    310.93299    15531 
468000000   -368.75098     4315.113    12979.541   -3545.2894    8229.1533    311.04844    15530 
469000000   -397.08501    4093.3775     12872.45   -3630.0946    8120.5572    308.48204    15536 
470000000   -389.69224    4109.4965    12915.938   -3702.8956    8202.0843    309.52423    15545 
471000000   -380.71372    4152.9316    12969.715   -3572.3007     8105.946    310.81296    15527 
472000000   -354.68936    4209.2554    13009.687     -3627.65    8191.5948    311.77087    15533 
473000000   -394.80073    4150.8762    12811.273    -3637.387    8183.0639    307.01596    15537 
474000000   -408.28774    4141.1946    13064.007   -3591.1586    8140.6409    313.07263    15540 
475000000   -403.65743    4076.6876    13042.446   -3677.5862    8157.9312    312.55593    15541 
476000000   -398.97756    3926.8488    12873.406   -3725.1064    8050.9327    308.50496    15533 
477000000   -413.58966    4194.2485    12823.761   -3559.5741    8167.4122    307.31523    15536 
478000000   -364.86915    4185.7456    12950.307   -3512.2681    8062.8829    310.34784    15526 
479000000   -380.76593    4186.5578    12992.449   -3499.3006    8066.6243    311.35777    15525 
480000000   -393.40567    4262.2035    12938.509   -3539.0227    8194.6318    310.06512    15547 
481000000   -373.85384    3931.8583    12911.688   -3702.4053    8008.1175    309.42238    15550 
482000000   -403.24972    3977.2746     12900.54   -3613.3748    7993.8991    309.15521    15533 
483000000   -376.37903    4096.9096    12837.229   -3597.4239    8070.7125    307.63801    15529 
484000000   -376.28831    4002.1663     12976.32   -3725.4317    8103.8863    310.97124    15552 
485000000   -391.81622    4001.1248    12906.923   -3626.9235    8019.8645    309.30818    15543 
486000000   -392.93976    4030.5243    12900.774   -3644.3055    8067.7695    309.16082    15551 
487000000   -370.46878    4202.1991    12790.934   -3592.0853    8164.7532    306.52856    15538 
488000000   -402.92015    4138.9016    13025.807   -3504.0044    8045.8262    312.15717    15526 
489000000   -390.49445    4185.1894    12769.012   -3631.6896    8207.3735     306.0032    15531 
490000000    -377.7087     4060.478    13152.007   -3715.2672    8153.4539    315.18149    15558 
491000000    -359.3655    3919.0818    12785.589    -3786.822    8065.2693    306.40046    15547 
492000000    -385.8572    4338.9843     12974.68   -3517.5496    8242.3912    310.93195    15514 
493000000   -394.22483    4155.5136    12893.617   -3646.7837    8196.5221    308.98931    15535 
494000000   -399.31805    3980.7372    12923.249    -3732.827    8112.8823    309.69942    15543 
495000000   -400.63258    4234.8022    13009.106    -3595.302    8230.7367    311.75694    15543 
496000000   -379.35225     4126.446    13069.451   -3651.1837     8156.982    313.20307    15540 
497000000   -363.88142    4317.3904    13026.967   -3493.3835    8174.6554    312.18498    15510 
498000000   -390.35857    4139.7344    13007.308   -3589.7062    8119.7992    311.71385    15522 
499000000   -363.94469    4164.8975    12872.696   -3574.1236    8102.9658    308.48795    15531 
500000000    -394.9483    4397.9238    12956.231   -3548.5821    8341.4542    310.48982    15523 
Loop time of 147915 on 28 procs for 500000000 steps with 14000 atoms

Performance: 7301.488 ns/day, 0.003 hours/ns, 3380.318 timesteps/s
99.3% CPU use with 28 MPI tasks x no OpenMP threads

MPI task timing breakdown:
Section |  min time  |  avg time  |  max time  |%varavg| %total
---------------------------------------------------------------
Pair    | 17509      | 19785      | 21920      | 778.5 | 13.38
Bond    | 6014.9     | 6158.5     | 6757.8     | 176.7 |  4.16
Neigh   | 49763      | 50295      | 50850      | 107.3 | 34.00
Comm    | 39684      | 42188      | 45845      | 770.7 | 28.52
Output  | 0.76285    | 0.76436    | 0.76491    |   0.0 |  0.00
Modify  | 21804      | 21962      | 22112      |  64.6 | 14.85
Other   |            | 7526       |            |       |  5.09

Nlocal:    500 ave 502 max 498 min
Histogram: 3 0 6 0 0 11 0 4 0 4
Nghost:    742 ave 932 max 491 min
Histogram: 3 1 2 2 4 0 3 5 7 1
Neighs:    5131.29 ave 6009 max 3989 min
Histogram: 1 1 1 4 5 3 6 1 4 2

Total # of neighbors = 143676
Ave neighs/atom = 10.2626
Ave special neighs/atom = 9.00557
Neighbor list builds = 94867760
Dangerous builds = 0
System init for write_restart ...
Total wall time: 41:05:17
