LAMMPS (5 Jun 2019)
Reading data file ...
  orthogonal box = (-420 -420 -420) to (420 420 420)
  2 by 2 by 7 MPI processor grid
  reading atoms ...
  14000 atoms
  scanning bonds ...
  51 = max bonds/atom
  scanning angles ...
  1 = max angles/atom
  reading bonds ...
  13800 bonds
  reading angles ...
  13600 angles
Finding 1-2 1-3 1-4 neighbors ...
  special bond factors lj:   0          0          0         
  special bond factors coul: 0          0          0         
  2 = max # of 1-2 neighbors
  2 = max # of 1-3 neighbors
  4 = max # of 1-4 neighbors
  56 = max # of special neighbors
  special bonds CPU = 0.00181921 secs
  read_data CPU = 0.0349351 secs
Finding 1-2 1-3 1-4 neighbors ...
  special bond factors lj:   1          1          1         
  special bond factors coul: 0          0          0         
  2 = max # of 1-2 neighbors
  2 = max # of 1-3 neighbors
  4 = max # of 1-4 neighbors
  56 = max # of special neighbors
  special bonds CPU = 0.000675431 secs
WARNING: Using 'neigh_modify every 1 delay 0 check yes' setting during minimization (../min.cpp:168)
Neighbor list info ...
  update every 1 steps, delay 0 steps, check yes
  max neighbors/atom: 2000, page size: 100000
  master list distance cutoff = 26.9
  ghost atom cutoff = 26.9
  binsize = 13.45, bins = 63 63 63
  1 neighbor lists, perpetual/occasional/extra = 1 0 0
  (1) pair lj/cut, perpetual
      attributes: half, newton on
      pair build: half/bin/newton
      stencil: half/bin/3d/newton
      bin: standard
Setting up cg style minimization ...
  Unit style    : real
  Current step  : 0
Per MPI rank memory allocation (min/avg/max) = 1.164 | 13.81 | 17.68 Mbytes
Step Temp E_pair E_mol TotEng Press 
       0            0 1.097855e+12      2649600 1.0978577e+12 5.0804878e+08 
    3165            0    -1749.261     5102.442     3353.181 0.0087270459 
Loop time of 0.684348 on 28 procs for 3165 steps with 14000 atoms

99.0% CPU use with 28 MPI tasks x no OpenMP threads

Minimization stats:
  Stopping criterion = energy tolerance
  Energy initial, next-to-last, final = 
     1.09785765867e+12      3353.38932291      3353.18099319
  Force two-norm initial, final = 8.92234e+10 1.58028
  Force max component initial, final = 1.04805e+09 0.193454
  Final line search alpha, max atom move = 0.612771 0.118543
  Iterations, force evaluations = 3165 3624

MPI task timing breakdown:
Section |  min time  |  avg time  |  max time  |%varavg| %total
---------------------------------------------------------------
Pair    | 0.049923   | 0.1668     | 0.28782    |  16.3 | 24.37
Bond    | 0.014789   | 0.044234   | 0.072978   |   7.1 |  6.46
Neigh   | 0.092215   | 0.093647   | 0.095285   |   0.2 | 13.68
Comm    | 0.090048   | 0.21941    | 0.37701    |  16.9 | 32.06
Output  | 0          | 0          | 0          |   0.0 |  0.00
Modify  | 0          | 0          | 0          |   0.0 |  0.00
Other   |            | 0.1603     |            |       | 23.42

Nlocal:    500 ave 826 max 174 min
Histogram: 1 3 4 4 2 2 8 1 1 2
Nghost:    338.893 ave 565 max 156 min
Histogram: 3 3 2 1 6 7 2 2 1 1
Neighs:    3508.14 ave 5788 max 1093 min
Histogram: 1 4 2 5 2 1 6 2 0 5

Total # of neighbors = 98228
Ave neighs/atom = 7.01629
Ave special neighs/atom = 5.82857
Neighbor list builds = 221
Dangerous builds = 0
Setting up Verlet run ...
  Unit style    : real
  Current step  : 3165
  Time step     : 0.1
Per MPI rank memory allocation (min/avg/max) = 1.128 | 14 | 16.55 Mbytes
Step Temp E_pair E_mol TotEng Press 
    3165            0    -1749.261     5102.442     3353.181 0.0087270459 
   13165    222.54969    -1394.724    8945.3644    16837.274   -1.7922345 
Loop time of 1.17101 on 28 procs for 10000 steps with 14000 atoms

Performance: 73.783 ns/day, 0.325 hours/ns, 8539.643 timesteps/s
99.5% CPU use with 28 MPI tasks x no OpenMP threads

MPI task timing breakdown:
Section |  min time  |  avg time  |  max time  |%varavg| %total
---------------------------------------------------------------
Pair    | 0.054297   | 0.18027    | 0.32873    |  18.7 | 15.39
Bond    | 0.035733   | 0.10321    | 0.17004    |  10.8 |  8.81
Neigh   | 0.001666   | 0.0017074  | 0.00179    |   0.1 |  0.15
Comm    | 0.21971    | 0.41285    | 0.60013    |  16.4 | 35.26
Output  | 3.5731e-05 | 5.404e-05  | 7.333e-05  |   0.0 |  0.00
Modify  | 0.085307   | 0.24213    | 0.39845    |  16.4 | 20.68
Other   |            | 0.2308     |            |       | 19.71

Nlocal:    500 ave 826 max 173 min
Histogram: 1 3 4 4 2 2 8 1 1 2
Nghost:    339.357 ave 566 max 155 min
Histogram: 3 3 1 3 4 8 2 2 1 1
Neighs:    3518.21 ave 5789 max 1090 min
Histogram: 1 4 2 5 2 1 6 2 0 5

Total # of neighbors = 98510
Ave neighs/atom = 7.03643
Ave special neighs/atom = 5.82857
Neighbor list builds = 4
Dangerous builds = 0
4000 atoms in group rxnSites
Neighbor list info ...
  update every 1 steps, delay 1 steps, check yes
  max neighbors/atom: 2000, page size: 100000
  master list distance cutoff = 26.9
  ghost atom cutoff = 26.9
  binsize = 13.45, bins = 63 63 63
  2 neighbor lists, perpetual/occasional/extra = 1 1 0
  (1) pair lj/cut, perpetual
      attributes: half, newton on
      pair build: half/bin/newton
      stencil: half/bin/3d/newton
      bin: standard
  (2) fix bond/create/random, occasional, copy from (1)
      attributes: half, newton on
      pair build: copy
      stencil: none
      bin: none
Setting up Verlet run ...
  Unit style    : real
  Current step  : 0
  Time step     : 25
Per MPI rank memory allocation (min/avg/max) = 17.87 | 18.29 | 18.88 Mbytes
Step E_pair PotEng KinEng E_bond E_angle Temp Bonds 
       0    -1394.724    7550.6404    9286.6334    3079.0952    5866.2691    222.54969    13800 
 1000000    -247.2468    11700.744    13056.075    3705.1188    8242.8721    312.88253    14022 
 2000000   -239.61839    11800.748    13011.156     3737.224    8303.1429    311.80607    14026 
 3000000   -254.79109    11797.291    13097.058    3779.4026    8272.6791    313.86468    14042 
 4000000   -231.10022    11482.103    12968.284    3572.4235    8140.7802    310.77866    14051 
 5000000   -219.79308    11791.956    12920.733    3777.6457    8234.1037    309.63913    14038 
 6000000   -223.38271    11629.532    12826.459    3744.2736    8108.6413     307.3799    14045 
 7000000   -236.04128    11738.898    12794.183    3697.2472    8277.6921    306.60641    14040 
 8000000   -231.95613    11580.022    13000.545     3643.235    8168.7434    311.55178    14060 
 9000000   -245.96741    11640.073    13036.258    3674.3437    8211.6962    312.40762    14051 
10000000   -228.92402    11541.464    12986.244    3581.1929    8189.1954    311.20907    14070 
11000000   -265.96715    11715.629    12902.995    3706.1662    8275.4302    309.21404    14038 
12000000   -250.81703    11844.027    13014.762    3777.7063    8317.1374     311.8925    14029 
13000000   -247.62919    11579.861    12834.753     3677.022    8150.4686    307.57867    14051 
14000000   -259.49951    11552.006     12981.38    3693.2261    8118.2796     311.0925    14038 
15000000   -256.34475    11616.262     12926.93    3631.4683    8241.1387    309.78765    14045 
16000000   -239.58174    11620.172    12895.586    3704.3943    8155.3596    309.03649    14054 
17000000   -248.23479    11711.031     12974.64    3717.4215    8241.8448    310.93099    14025 
18000000   -236.46375    11705.164    13023.481    3703.0297    8238.5981    312.10143    14044 
19000000   -219.51949    11728.338    12973.952    3813.3095    8134.5479     310.9145    14015 
20000000   -223.38504    11746.161    12901.506     3744.532    8225.0142    309.17836    14048 
21000000   -225.27277    11776.482    12847.777    3763.1918    8238.5632    307.89078    14038 
22000000   -232.54455    11622.693    12818.766    3593.2108    8262.0267    307.19554    14057 
23000000   -243.60422    11645.219    12914.427    3698.1159    8190.7074    309.48801    14055 
24000000   -237.57545    11700.899     12935.56    3707.5149    8230.9593    309.99446    14049 
25000000   -222.38009    11751.757    12931.219    3654.5533    8319.5837    309.89042    14046 
26000000   -246.88443    11627.982    12847.599     3663.146    8211.7204    307.88651    14043 
27000000   -248.51521    11729.338    12898.385     3709.889    8267.9645    309.10357    14061 
28000000   -248.76241    11684.311    13007.617    3756.0907    8176.9825    311.72127    14040 
29000000   -244.15457    11615.647    12935.823    3712.6381    8147.1637    310.00076    14056 
30000000   -243.72968    11534.207    12849.396    3576.7312    8201.2056    307.92957    14074 
31000000   -237.33655    11653.077    13005.346    3711.1956    8179.2178    311.66684    14044 
32000000   -216.58022    11747.773    12937.961     3717.235    8247.1183    310.05198    14038 
33000000   -220.39469    11646.119    13089.625     3574.209     8292.305    313.68654    14084 
34000000   -233.38202    11635.154    12856.022    3677.9993    8190.5363    308.08836    14023 
35000000   -236.42385    11828.738    12837.102     3859.478    8205.6844    307.63495    14023 
36000000   -241.22112    11664.275        12956    3762.0146    8143.4819    310.48428    14032 
37000000   -239.69334    11642.562    12926.277    3676.6694     8205.586    309.77198    14041 
38000000   -240.69587    11754.562    12827.271     3760.626    8234.6322    307.39935    14033 
39000000   -242.89595    11639.249    12880.066    3749.7491    8132.3955    308.66457    14035 
40000000    -239.7914    11672.244    12878.287    3700.1394    8211.8955    308.62192    14025 
41000000   -237.47105    11612.416    12847.569    3709.9255     8139.962    307.88579    14046 
42000000   -260.08312    11596.754    13097.227     3651.541    8205.2959    313.86872    14055 
43000000    -232.3915    11659.186    12842.594    3668.9345    8222.6432    307.76658    14070 
44000000   -224.82066    11631.095    12868.884    3667.8449    8188.0705     308.3966    14078 
45000000   -241.74806    11687.815    13007.672     3709.638    8219.9251    311.72258    14061 
46000000   -246.75134    11734.289    12936.452    3751.3645    8229.6755    310.01583    14044 
47000000   -247.37694    11621.467     12902.42    3686.0837    8182.7606    309.20027    14059 
48000000   -246.58344    11659.457    12804.507    3672.8481    8233.1926    306.85382    14027 
49000000   -265.56185    11578.704    12980.042    3685.5175    8158.7481    311.06043    14050 
50000000   -243.24225    11715.947    12887.276    3651.1325    8308.0569    308.83735    14094 
51000000   -235.35129     11633.92    12933.936    3631.9256    8237.3453    309.95553    14049 
52000000   -224.07648    11673.319    13160.121    3725.8308    8171.5651    315.37594    14057 
53000000    -242.7078    11677.785    12902.096    3743.6969    8176.7954     309.1925    14015 
54000000   -233.01642     11574.98    12866.338     3571.874    8236.1221    308.33557    14058 
55000000   -225.79583    11655.316    12870.257    3590.6377    8290.4743    308.42949    14052 
56000000   -245.33948    11789.043    12922.383    3731.9627    8302.4197    309.67867    14035 
57000000   -247.15533    11856.188    13097.042    3710.9687    8392.3749    313.86428    14029 
58000000   -258.65697    11696.015    12927.362    3731.4687    8223.2034      309.798    14016 
59000000   -220.23445    11626.324    12922.136     3664.629    8181.9292    309.67276    14048 
60000000   -221.08145    11708.795    12870.043    3723.3416    8206.5348    308.42437    14046 
61000000   -239.05458    11685.104    12965.491    3628.0022     8296.156    310.71173    14042 
62000000   -231.21257    11697.367    13010.354    3663.6733    8264.9062    311.78685    14034 
63000000   -228.33154     11674.66    12969.297    3672.2544    8230.7371    310.80295    14074 
64000000   -242.04976    11749.431    12714.108    3669.9586     8321.522    304.68746    14031 
65000000   -253.35003    11467.776     12933.46    3627.7184    8093.4073    309.94413    14022 
66000000   -231.03547    11588.762    12929.285    3607.8914    8211.9059    309.84407    14048 
67000000   -242.26466    11756.249    13024.518    3739.5301     8258.984    312.12628    14035 
68000000   -249.67161    11585.718    12843.258    3646.5148    8188.8745    307.78249    14067 
69000000    -236.9326    11729.569    13111.593    3710.9456     8255.556    314.21301    14056 
70000000   -218.54935    11471.341    12973.614    3535.9634    8153.9266    310.90639    14073 
71000000   -232.98759    11783.788    12980.527    3702.7561    8314.0195    311.07207    14041 
72000000   -247.83996    11660.767    12902.557    3738.0944    8170.5121    309.20354    14050 
73000000   -221.22296    11589.091      12798.2    3673.9885     8136.325    306.70268    14055 
74000000     -252.622    11496.491    12933.423    3690.0692    8059.0437    309.94323    14055 
75000000   -229.67718    11632.237    12875.729     3628.163    8233.7516    308.56063    14059 
76000000   -230.76784    11744.958    13097.328    3692.3483    8283.3776    313.87115    14050 
77000000   -237.65344    11584.568     12933.77    3652.0158    8170.2053    309.95154    14037 
78000000   -234.31649    11557.568     13060.99    3630.0549    8161.8294    313.00032    14047 
79000000   -229.16702     11564.93    12938.427    3562.7616    8231.3358    310.06317    14055 
80000000   -229.94104    11557.524    13069.617    3699.0988    8088.3659    313.20706    14057 
81000000   -229.95051    11766.212    13073.922    3733.4383    8262.7238    313.31024    14042 
82000000   -217.99745    11762.886    13012.354    3763.0439    8217.8394    311.83479    14033 
83000000   -223.93902    11682.312    12911.105    3739.0542    8167.1969    309.40841    14024 
84000000   -243.83386    11653.974    12885.852    3755.8277    8141.9797    308.80322    14029 
85000000   -254.89416    11610.498    13039.772     3723.111    8142.2815    312.49183    14019 
86000000   -257.66304    11697.563    12972.021    3645.5983    8309.6277    310.86822    14037 
87000000   -240.14594     11693.28    12907.999    3669.2961    8264.1303    309.33397    14055 
88000000   -199.03788    11689.066    12904.741    3736.4926    8151.6109    309.25588    14040 
89000000   -233.21603    11703.056    12911.185    3657.3804    8278.8912    309.41031    14051 
90000000   -242.15189    11627.618    12833.224    3690.5643    8179.2058    307.54202    14037 
91000000    -234.8373    11838.804      12875.3    3854.4294    8219.2124    308.55035    14024 
92000000   -248.79691    11614.878    12911.678    3667.3141    8196.3609    309.42212    14052 
93000000   -229.94252    11622.048    12838.324    3704.2869    8147.7036    307.66424    14026 
94000000   -238.23744    11667.508    12886.655    3710.4193    8195.3265    308.82247    14068 
95000000   -240.47035    11529.059    12923.234    3552.9415    8216.5877    309.69906    14100 
96000000   -270.06892    11710.812    13086.652     3663.174    8317.7072    313.61529    14038 
97000000   -213.27031    11462.917    13053.336    3650.3751    8025.8125    312.81689    14072 
98000000   -240.67714    11520.132    12838.954    3572.6172    8188.1915    307.67933    14048 
99000000   -251.06198    11654.021    12819.141    3687.1249    8217.9582    307.20452    14053 
100000000   -222.96996    11570.206    12949.173     3625.903    8167.2732    310.32068    14071 
101000000   -233.59751    11526.776    12868.368    3613.4372    8146.9361    308.38422    14059 
102000000   -261.57399    11763.852    12917.262    3841.8937    8183.5326    309.55594    14057 
103000000   -228.51035    11675.191    12909.232    3633.1299    8270.5713     309.3635    14060 
104000000   -258.21498    11541.968    13068.638    3666.2519    8133.9308    313.18359    14058 
105000000   -285.00322    11735.112    13016.829     3703.184    8316.9311    311.94203    14041 
106000000   -257.92209    11570.443    13015.933    3636.4873    8191.8777    311.92055    14067 
107000000   -213.00664    11557.071    12964.681    3634.6101    8135.4673    310.69232    14047 
108000000   -217.82376    11382.195    12878.485    3565.7925    8034.2262    308.62667    14056 
109000000   -250.84781    11660.821    13023.513     3752.122    8159.5465     312.1022    14062 
110000000   -247.26573    11697.339    12847.415    3710.6203    8233.9848     307.8821    14065 
111000000   -220.02226    11685.925    12982.182    3642.2213    8263.7265    311.11172    14041 
112000000   -255.66627    11709.899      12933.1    3717.6994     8247.866     309.9355    14039 
113000000   -243.28885    11715.265    12960.237    3722.3846    8236.1694    310.58581    14028 
114000000   -265.40464    11649.348    12998.394    3660.9298    8253.8231    311.50023    14032 
115000000   -234.31412    11709.366     12921.21    3722.5938    8221.0861    309.65056    14012 
116000000   -246.79466    11768.963    12972.566    3733.2177    8282.5397    310.88127    14027 
117000000   -267.01815    11642.118    13065.666    3643.3021    8265.8337    313.11237    14047 
118000000   -262.96201    11629.623    12923.853    3670.7389    8221.8462    309.71389    14057 
119000000   -228.86331    11563.422    12870.179    3662.0688    8130.2161    308.42764    14066 
120000000    -230.0989    11679.642    12916.691    3652.4797    8257.2611    309.54227    14060 
121000000   -242.88832    11684.449    12758.823     3706.428    8220.9092    305.75904    14051 
122000000   -236.12049    11613.529    12978.295    3669.0573     8180.592    311.01857    14041 
123000000   -241.87474    11712.082    12915.223    3725.5673    8228.3899    309.50708    14042 
124000000   -214.26223    11500.605    12737.243    3577.3074    8137.5597    305.24187    14045 
125000000   -259.50934    11786.929    12949.549    3806.9833    8239.4547     310.3297    14027 
126000000   -250.60543    11530.347    13037.329    3625.5179    8155.4344     312.4333    14053 
127000000   -220.08044    11736.859    12929.441    3699.2138    8257.7254    309.84782    14049 
128000000   -246.55814    11715.226    12905.346    3692.6585    8269.1255    309.27038    14052 
129000000   -254.64304    11647.824     13040.79    3677.0326     8225.434    312.51623    14044 
130000000   -242.11145    11536.441    12972.114    3565.6686    8212.8843    310.87044    14067 
131000000   -253.07518    11766.683    12773.373    3771.8643    8247.8939    306.10772    14018 
132000000   -244.29823    11802.798      12979.8     3823.649     8223.447    311.05465    14020 
133000000   -235.86054    11786.335    12941.374    3757.9477    8264.2481    310.13378    14021 
134000000    -216.4267    11697.804    13080.888    3689.7544    8224.4759    313.47717    14033 
135000000   -252.23071    11642.363    12937.969     3774.709    8119.8848    310.05218    14010 
136000000    -259.1691     11799.94    13077.068    3763.6039    8295.5056    313.38561    14038 
137000000   -243.78758    11661.202    12880.548    3715.1578    8189.8315    308.67612    14036 
138000000   -248.24258    11632.208    12912.445    3711.9411    8168.5099    309.44051    14025 
139000000   -248.67372    11693.504    12914.372    3679.2401    8262.9375     309.4867    14046 
140000000   -254.26188    11678.662    12862.701    3800.9731    8131.9505    308.24842    14031 
141000000   -261.73064    11809.863     13181.33    3787.2235    8284.3707    315.88421    14036 
142000000   -227.90114    11659.829    12940.326    3699.9307    8187.7998    310.10867    14024 
143000000   -245.17477    11617.429    12897.286    3571.3714    8291.2319    309.07724    14065 
144000000   -248.02141    11611.829     12845.48    3706.2974    8153.5533    307.83572    14030 
145000000   -241.15054    11558.579    12717.982    3611.7772    8187.9526     304.7803    14030 
146000000   -235.18694     11710.07    12940.981    3734.1324     8211.124    310.12436    14045 
147000000    -233.6558    11606.954    12984.092    3690.0384    8150.5718    311.15751    14062 
148000000   -249.71349    11635.567    12932.768     3589.533    8295.7479    309.92755    14044 
149000000    -226.7022    11807.773     12895.45    3792.1079    8242.3677    309.03324    14028 
150000000   -249.85744    11742.366    12955.655     3737.903    8254.3202    310.47601    14035 
151000000   -230.34858    11570.149    12877.121    3680.2331    8120.2647    308.59399    14060 
152000000   -225.02152    11699.303     12832.44     3643.664    8280.6606    307.52323    14054 
153000000   -234.60145    11643.309    12863.715    3656.1691    8221.7417    308.27272    14042 
154000000   -228.01039    11780.579    12852.707    3791.3052     8217.284    308.00891    14032 
155000000   -240.10774    11460.439    13030.295    3635.0364    8065.5101    312.26473    14053 
156000000   -231.66127    11496.646    13019.744    3610.7197    8117.5876    312.01188    14041 
157000000   -233.90197    11575.711     12964.66    3593.3963    8216.2165    310.69182    14058 
158000000   -238.23167    11746.111    12851.974    3727.2014     8257.141    307.99135    14043 
159000000   -253.22314    11622.086    13041.443    3728.9108    8146.3986    312.53188    14026 
160000000   -217.47363    11744.776    12919.798    3778.9349    8183.3147    309.61671    14023 
161000000    -243.0192    11656.972    12868.593    3806.8525    8093.1382    308.38961    14024 
162000000   -260.06806    11687.741    12923.508    3696.2959     8251.513    309.70564    14028 
163000000   -242.14106    11584.715    12809.431    3656.8765    8169.9795    306.97183    14056 
164000000   -233.87601     11624.28    12855.009    3662.3353    8195.8208    308.06409    14061 
165000000   -233.35532    11768.565    12890.816    3772.6764    8229.2435    308.92218    14032 
166000000   -228.01766    11694.629    12868.002    3710.5696    8212.0766    308.37546    14022 
167000000   -254.43494    11753.076    12985.021    3718.2599    8289.2506    311.17976    14041 
168000000   -227.22652    11616.904    12781.911    3628.3926    8215.7384    306.31232    14024 
169000000    -250.0289    11756.823    12925.514    3860.3573    8146.4949    309.75371    14034 
170000000   -240.77174    11597.858    12831.569    3663.4795    8175.1506    307.50237    14045 
171000000    -231.9475    11528.222    12915.278    3616.2117    8143.9578    309.50841    14053 
172000000   -226.90447    11736.738      12926.6    3642.9374    8320.7049    309.77972    14059 
173000000   -211.35565    11615.644    12966.158    3582.9708     8244.029    310.72771    14070 
174000000    -240.1648     11601.59    12851.882    3685.5673    8156.1872    307.98914    14074 
175000000   -217.96268    11700.485    13058.216    3702.2332    8216.2143    312.93384    14044 
176000000    -224.7143    11693.811     13044.81    3673.7056    8244.8198    312.61256    14073 
177000000   -228.93715    11645.626    12956.498    3709.4584    8165.1048    310.49622    14033 
178000000   -237.57393    11716.744    13063.567    3670.3109    8284.0072    313.06207    14042 
179000000   -229.42071    11667.443    13013.337    3710.7922    8186.0716    311.85834    14043 
180000000   -239.25587    11628.547    12771.864    3696.8675    8170.9355    306.07156    14047 
181000000   -223.17383    11729.021    13053.468    3754.8374    8197.3574    312.82005    14046 
182000000    -218.0645    11711.396    12972.432    3750.8005      8178.66    310.87808    14029 
183000000   -238.25366    11761.516    12982.192    3674.0834    8325.6861    311.11196    14036 
184000000    -240.0252    11630.997    13000.745     3695.609    8175.4137    311.55658    14018 
185000000   -268.49537    11645.481    12772.294    3661.1783    8252.7983    306.08186    14024 
186000000   -248.62918    11619.834    12813.282    3661.1825    8207.2807    307.06412    14090 
187000000   -237.21117    11396.755    12918.463    3506.1482    8127.8178    309.58473    14066 
188000000   -243.20938    11663.208    12860.483    3707.9277    8198.4902    308.19526    14064 
189000000   -257.23151    11589.964    12977.836     3680.093    8167.1022    311.00758    14064 
190000000   -256.26605    11641.694    12922.878    3670.2328    8227.7271    309.69053    14041 
191000000   -223.88015    11425.328    12915.404    3595.6586    8053.5495    309.51143    14067 
192000000   -233.62593    11489.307    12861.125    3608.6161    8114.3166    308.21065    14064 
193000000   -249.24569    11779.745    13085.229    3689.9031     8339.088     313.5812    14044 
194000000   -229.54757    11627.002    13017.066    3684.8321    8171.7177     311.9477    14016 
195000000   -219.18929    11635.679    12946.172    3660.4617    8194.4068    310.24876    14042 
196000000   -233.72216    11699.626    12902.953     3790.011    8143.3373    309.21305    14047 
197000000   -227.37869    11621.509    12976.188    3686.6265    8162.2613    310.96809    14061 
198000000   -239.83999    11555.462    12922.522    3662.2575     8133.044    309.68201    14042 
199000000   -256.87365    11668.234    12945.071    3615.6567     8309.451    310.22238    14030 
200000000   -252.61223    11704.513    12948.816    3733.1352    8223.9902    310.31212    14044 
201000000   -249.98936    11825.543    12887.146     3784.011    8291.5217    308.83424    14027 
202000000   -251.09052    11657.763    12793.465    3774.3247    8134.5292    306.58922    14016 
203000000   -220.43569    11601.704    12923.673    3738.4083    8083.7314    309.70958    14024 
204000000   -224.76503    11589.041    12876.726     3597.329    8216.4768    308.58451    14033 
205000000    -252.8938    11830.308    13095.393    3802.5282    8280.6733    313.82476    14012 
206000000   -260.92668    11655.741    12955.253    3744.0091    8172.6588    310.46638    14017 
207000000   -242.26226    11826.613     12805.33    3744.7641    8324.1109    306.87356    14035 
208000000   -229.84884    11724.623    12926.051    3748.4178    8206.0539    309.76658    14027 
209000000   -237.12803    11622.801    12818.715    3632.3973    8227.5315    307.19432    14045 
210000000   -238.73545    11674.091    12825.662    3687.4064    8225.4204     307.3608    14011 
211000000   -250.95596    11691.458    12859.711    3756.7825    8185.6315    308.17675    14027 
212000000   -219.41212    11710.124    12910.893    3701.4088    8228.1277    309.40332    14050 
213000000   -215.72954    11659.079    12825.863     3718.904    8155.9043    307.36562    14044 
214000000   -235.73176    11463.837     12809.41    3531.6985    8167.8701    306.97132    14070 
215000000   -237.01138    11537.244     12749.37    3699.5434    8074.7117    305.53249    14052 
216000000   -247.39095    11586.236     12757.59    3624.1487    8209.4782    305.72948    14054 
217000000   -254.65329    11557.562    12947.942    3638.8197    8173.3959    310.29119    14052 
218000000   -230.69502     11572.62     12964.39    3624.9538    8178.3616    310.68534    14054 
219000000   -226.24555    11490.611    12963.104    3686.2281    8030.6284    310.65454    14048 
220000000    -233.6099    11705.695    12878.101    3747.2445    8192.0602    308.61748    14049 
221000000   -252.05385    11784.196    12969.323    3773.6364    8262.6133    310.80357    14032 
222000000   -245.56326    11652.081    12990.537    3706.9551    8190.6893    311.31196    14044 
223000000   -251.15414    11686.729    12881.744    3725.1273    8212.7562    308.70477    14044 
224000000   -260.82894     11733.67    12907.577    3711.9538    8282.5449    309.32386    14037 
225000000   -224.47046    11836.872    12845.382     3731.417    8329.9252    307.83339    14034 
226000000   -238.16638     11601.51    12804.835    3669.9155    8169.7607     306.8617    14057 
227000000   -239.29432    11669.305    12980.486    3691.6413    8216.9577    311.07109    14033 
228000000   -233.07011    11664.623    12882.383    3594.7174    8302.9755    308.72009    14052 
229000000   -254.10774    11654.938    12991.368    3690.1942    8218.8516    311.33186    14024 
230000000   -251.16767    11788.166     13002.71    3753.5724    8285.7613    311.60367    14060 
231000000   -231.78226    11650.921    12971.678    3771.9685    8110.7346       310.86    14057 
232000000   -247.59932    11667.893    13013.544    3689.5345    8225.9581    311.86331    14060 
233000000   -229.95116    11563.631     12946.75    3549.9221    8243.6602    310.26262    14102 
234000000   -240.53988     11640.05    12809.351    3741.1265     8139.463    306.96992    14041 
235000000   -233.51244    11573.566    12887.566    3590.7003    8216.3785    308.84429    14032 
236000000   -216.98952    11856.234    12950.008    3856.9111    8216.3121     310.3407    14019 
237000000   -223.93175    11650.378    12961.043    3655.8996      8218.41    310.60514    14050 
238000000   -227.51453    11649.563    12841.385    3684.9132    8192.1641     307.7376    14019 
239000000   -257.83055    11767.338    12975.215    3716.7706    8308.3984    310.94476    14017 
240000000   -223.53812    11719.264    12800.211    3663.4563    8279.3458    306.75087    14030 
241000000   -235.18081    11544.088    12922.539    3638.7078     8140.561     309.6824    14063 
242000000   -234.00054    11783.791    13042.759    3667.8378    8349.9537    312.56342    14059 
243000000   -245.80962    11757.455    12800.532    3788.5622    8214.7022    306.75858    14045 
244000000   -240.59837    11747.995    12910.482    3635.5554     8353.038    309.39346    14046 
245000000    -209.6738    11585.878     12853.28    3626.6933    8168.8583    308.02265    14045 
246000000   -239.16854    11683.698    12784.989    3699.8021    8223.0649     306.3861    14036 
247000000   -225.94776    11685.553    13022.308    3770.0379     8141.463    312.07332    14010 
248000000   -246.41982    11799.034     12944.81    3782.1573    8263.2964    310.21612    14020 
249000000   -236.39811    11675.548    12962.251    3763.8649    8148.0811    310.63409    14023 
250000000   -232.45433    11573.926    13083.733    3718.9265    8087.4539    313.54536    14021 
251000000   -247.79997    11722.382    12931.658    3758.9863    8211.1951    309.90095    14014 
252000000   -247.20194    11636.177     13028.02    3703.6936     8179.685    312.21021    14039 
253000000     -249.483    11694.987    13036.781    3789.8216    8154.6485    312.42017    14026 
254000000   -219.82574    11677.878      13135.2    3765.0003     8132.703    314.77874    14020 
255000000   -236.56171    11562.685    12918.604    3681.6886    8117.5579    309.58811    14028 
256000000   -224.35217    11671.633    12873.341    3739.8751    8156.1097    308.50341    14043 
257000000   -243.52954    11641.995    12835.974     3699.018    8186.5068    307.60792    14019 
258000000   -240.60902    11647.004    12918.665    3668.9721    8218.6412    309.58957    14028 
259000000   -238.01294    11488.787    12898.743    3630.5016    8096.2985    309.11215    14060 
260000000   -218.95162    11681.248    13018.788    3669.2616    8230.9383    311.98896    14045 
261000000   -250.03711    11648.298    13182.824    3582.7974    8315.5376    315.92002    14075 
262000000   -228.55103    11679.905    12940.739    3698.3195    8210.1367    310.11856    14014 
263000000   -221.73547    11671.394    12935.516     3611.034    8282.0958     309.9934    14050 
264000000    -256.2119    11735.782    12775.223    3747.7605    8244.2339    306.15205    14013 
265000000   -269.68981    11654.754    13003.737    3637.5742    8286.8693    311.62829    14067 
266000000     -241.955    11727.117    13005.922    3737.7884    8231.2838    311.68063    14046 
267000000   -226.41347    11507.227    12881.849    3561.4175    8172.2227     308.7073    14053 
268000000   -247.17943    11602.816    12908.285    3673.1787    8176.8162    309.34081    14041 
269000000   -227.86622    11766.931    12901.699    3708.7464     8286.051      309.183    14031 
270000000   -223.29139    11753.511    12966.376    3787.7415    8189.0613    310.73293    14033 
271000000   -234.43059    11793.996    13044.648    3700.1213    8328.3057    312.60868    14035 
272000000   -253.35012    11751.684     12978.94    3672.7403     8332.294    311.03403    14035 
273000000   -234.96595    11697.599    12902.467    3739.5891    8192.9759    309.20139    14040 
274000000   -236.15234    11601.581    13010.779    3700.5495     8137.184    311.79705    14030 
275000000   -260.14309    11571.435    12853.857    3584.0175     8247.561    308.03647    14062 
276000000   -221.06705    11525.966    12922.248    3619.5119    8127.5214    309.67544    14052 
277000000   -234.83644    11686.066    13076.124    3758.0548    8162.8475    313.36301    14027 
278000000    -243.0965     11795.77    12903.393    3744.3963    8294.4707     309.2236    14006 
279000000    -235.5196    11655.367    13052.096    3723.9904    8166.8966    312.78719    14037 
280000000   -237.78656     11660.92      12974.4    3715.3984     8183.308    310.92524    14063 
281000000   -256.84968    11769.279    12939.908    3714.9655    8311.1628    310.09865    14031 
282000000   -249.73206    11482.062    13069.983    3610.9813    8120.8132    313.21584    14063 
283000000   -260.94768    11515.304    12925.679    3589.9096     8186.342    309.75765    14063 
284000000   -247.79674    11641.523    12922.051    3742.5798    8146.7401    309.67071    14017 
285000000   -217.60649    11699.965     12888.73     3734.778    8182.7935    308.87219    14048 
286000000   -238.76474    11675.649    12949.248    3676.1088    8238.3051    310.32247    14047 
287000000     -240.935     11702.09    12963.995    3667.3521    8275.6726    310.67587    14045 
288000000   -224.33535    11567.367    12830.764     3641.263    8150.4391    307.48306    14029 
289000000   -214.41886    11705.942    12950.936    3713.3493     8207.012    310.36294    14063 
290000000   -211.11802    11597.611    12799.763    3682.1003     8126.629    306.74013    14022 
291000000   -248.33958    11701.529    13041.409    3707.0273    8242.8416    312.53107    14060 
292000000   -254.39128    11900.546    12953.468    3733.8882    8421.0496    310.42361    14001 
293000000   -229.67712    11751.328    12829.401    3715.4955    8265.5095     307.4504    14049 
294000000   -243.36206    11678.138    12858.915    3619.8438    8301.6558    308.15768    14055 
295000000   -279.46518    11694.821    12987.563    3723.6268    8250.6592    311.24067    14017 
296000000   -243.88394    11579.099    12930.551    3703.3706     8119.612    309.87442    14042 
297000000   -258.58494    11634.383    12899.593     3658.376     8234.592    309.13251    14062 
298000000   -265.70611     11678.34    13032.705    3667.4944    8276.5514    312.32249    14035 
299000000   -242.29128     11562.24    12841.556     3593.645    8210.8867     307.7417    14057 
300000000   -238.14511    11702.026    12914.248    3614.6214    8325.5495    309.48371    14041 
301000000   -245.77634    11660.543    12984.945    3611.4903    8294.8292    311.17795    14052 
302000000   -212.19645    11670.384    12814.251    3780.5641     8102.016    307.08733    14028 
303000000   -250.77826     11563.93     12829.37    3678.3942    8136.3142    307.44965    14009 
304000000    -248.6349    11642.218    12979.649    3749.5009    8141.3519    311.05102    14046 
305000000   -237.75021    11668.928     12835.06    3711.5899    8195.0883    307.58603    14036 
306000000   -226.13155    11583.845    12789.683    3726.3333    8083.6431    306.49858    14038 
307000000   -223.93328    11602.376    12918.765    3665.2543    8161.0546    309.59198    14073 
308000000   -237.99049    11577.046     12906.34    3690.8341    8124.2019     309.2942    14071 
309000000   -235.40484    11556.454    12888.537    3647.6713    8144.1878    308.86758    14040 
310000000   -249.60715    11768.957    12902.933     3748.546    8270.0178    309.21256    14044 
311000000   -227.19335    11735.285    13085.262    3677.9774    8284.5006    313.58198    14061 
312000000   -236.93028    11759.693     12969.89    3795.9744    8200.6489    310.81715    14045 
313000000   -241.48615    11587.112    12938.615     3686.753    8141.8455    310.06766    14027 
314000000   -225.81383    11608.508    12993.571    3706.1369    8128.1854    311.38466    14037 
315000000   -256.62007    11651.855    12823.281    3727.0412     8181.434    307.30374    14014 
316000000   -228.17728    11624.457    12997.729    3631.8052    8220.8289     311.4843    14049 
317000000   -251.62522     11845.21    12709.793    3701.6328    8395.2019    304.58406    14043 
318000000   -229.00278    11616.011    12896.339    3656.1747    8188.8394    309.05453    14041 
319000000   -239.24198    11570.912    12970.026    3679.8314    8130.3224    310.82041    14054 
320000000   -254.36473     11588.94    12932.403      3687.45    8155.8551     309.9188    14044 
321000000   -233.06374    11658.463    12983.752     3664.878    8226.6482    311.14934    14033 
322000000   -217.64759    11480.415     12888.86    3589.0024    8109.0599     308.8753    14049 
323000000   -243.76862    11739.649     12980.79    3722.0444    8261.3736    311.07837    14013 
324000000   -232.36814    11639.678     12880.04    3663.2994    8208.7465    308.66394    14049 
325000000   -242.10239    11723.926    12864.485    3670.4052    8295.6232    308.29117    14043 
326000000   -245.25482    11602.618    12868.423    3698.4032    8149.4693    308.38555    14016 
327000000   -222.79053    11644.361    12940.357    3708.4066    8158.7447     310.1094    14034 
328000000    -253.4856    11737.293     13054.06    3737.9542    8252.8241    312.83424    14052 
329000000   -229.21817    11643.524    12841.381    3699.4394    8173.3026    307.73751    14049 
330000000   -254.26101    11478.129    12905.795    3603.0427    8129.3474    309.28115    14056 
331000000   -241.86898    11620.106    13103.067    3647.4173    8214.5574    314.00867    14050 
332000000   -236.66126    11615.921    12756.174    3664.1294    8188.4524    305.69555    14042 
333000000   -235.92387    11573.595    12903.256    3676.4812    8133.0381    309.22031    14043 
334000000   -225.84283    11708.704    13095.336    3676.5103    8258.0368    313.82341    14026 
335000000   -234.81572    11717.493    13003.761    3753.7347    8198.5742    311.62887    14045 
336000000   -236.22329    11743.484    13080.459    3761.5533    8218.1541    313.46689    14020 
337000000    -241.6039     11901.07    12942.276    3832.6599    8310.0136    310.15541    14026 
338000000    -224.0056     11565.43    12849.826    3605.2097    8184.2257    307.93987    14049 
339000000   -242.47587    11684.756    13013.217    3704.0878    8223.1443    311.85546    14051 
340000000   -245.62275    11765.634    13031.785    3754.6259    8256.6304    312.30044    14053 
341000000   -237.19471    11721.238     13083.56    3697.5961    8260.8369    313.54119    14056 
342000000   -223.13443    11664.293    12793.313    3765.5098    8121.9171    306.58556    14047 
343000000   -244.35773    11498.197    13056.143    3557.0888    8185.4658    312.88416    14082 
344000000   -230.32871     11572.21    13046.724    3669.0763    8133.4621    312.65844    14049 
345000000   -235.25169    11693.085    12911.353    3667.4311    8260.9057    309.41435    14030 
346000000   -218.28823      11815.3     12977.88    3752.2882    8281.3001    311.00862    14024 
347000000   -245.18368    11806.049    13003.727    3759.0619    8292.1709    311.62805    14014 
348000000   -246.39584    11646.193    12942.351    3659.1203    8233.4686    310.15719    14054 
349000000    -220.6438    11575.019    12881.649    3645.2667     8150.396    308.70251    14081 
350000000   -237.85632    11628.661    12971.815     3614.399    8252.1182     310.8633    14041 
351000000   -226.81791    11558.161    12917.564    3649.4275    8135.5511     309.5632    14048 
352000000   -233.63856    11593.837    13037.563    3622.5839    8204.8915    312.43891    14048 
353000000   -235.36895    11748.152    12948.529    3729.3745    8254.1466    310.30525    14031 
354000000   -231.46607    11651.388    12801.569    3690.7709     8192.083    306.78342    14071 
355000000   -240.76354    11593.276    12991.515    3656.8165    8177.2228    311.33538    14045 
356000000   -255.51535    11718.821    12984.763    3696.4643    8277.8717    311.17357    14054 
357000000   -238.06696    11585.266    12870.785    3607.4557    8215.8772    308.44215    14053 
358000000   -232.39853    11598.013    13005.378     3620.377    8210.0348    311.66761    14057 
359000000   -228.14438    11545.347    13044.019    3604.6985    8168.7933    312.59362    14059 
360000000    -255.0575    11637.276    12957.694    3656.2221    8236.1111    310.52488    14069 
361000000   -250.58919    11721.873    12921.928    3703.3656    8269.0969    309.66777    14042 
362000000   -237.13966    11519.295    13030.019    3606.1204    8150.3145    312.25811    14065 
363000000   -220.91481    11547.557    13024.617    3648.2833    8120.1886    312.12866    14045 
364000000   -234.81717    11588.085    12841.044    3627.3491    8195.5529    307.72942    14076 
365000000   -266.06212    11554.906    12975.284    3694.8635    8126.1045    310.94641    14043 
366000000   -227.92308    11705.455     12893.84    3739.1444    8194.2338    308.99465    14048 
367000000   -236.71199    11814.072    12925.523    3774.0085    8276.7753    309.75392    14010 
368000000   -226.34263    11691.261    12825.506    3638.0336    8279.5695    307.35706    14048 
369000000   -248.60516    11671.129    12886.757    3625.7838    8293.9507    308.82492    14064 
370000000   -248.62622    11704.929    13023.232    3808.0023    8145.5526    312.09546    14031 
371000000    -232.0294    11612.687    12871.708    3643.7196    8200.9972    308.46426    14032 
372000000   -261.00391    11679.447    13032.084    3703.4291    8237.0215     312.3076    14046 
373000000   -253.99443    11588.227    13000.319     3680.838    8161.3839    311.54636    14058 
374000000   -244.14138    11728.971     13016.32    3717.1242    8255.9881    311.92983    14049 
375000000   -248.75297    11687.398    12982.809    3717.2209    8218.9297    311.12676    14035 
376000000   -259.40163    11537.305    12922.981    3642.4406    8154.2656      309.693    14068 
377000000   -240.69681    11670.243    12822.291    3773.5173    8137.4227       307.28    14013 
378000000   -250.90769    11499.229    13108.472    3652.8562    8097.2809     314.1382    14053 
379000000   -245.33904    11677.554    12990.947    3706.4716    8216.4214    311.32177    14043 
380000000   -251.89192    11713.737    13008.926    3803.1765    8162.4524    311.75263    14016 
381000000   -250.98985    11675.676    13067.181    3637.1468    8289.5195    313.14867    14061 
382000000   -228.86032    11669.366    12949.806    3726.6576    8171.5691    310.33584    14037 
383000000   -241.33881    11643.457    12905.178     3587.138     8297.658    309.26636    14041 
384000000   -227.73876    11747.659    12916.759    3724.3504    8251.0474    309.54389    14054 
385000000   -233.98151    11636.199    12905.543    3702.3356     8167.845    309.27511    14037 
386000000    -240.4474    11681.335    12882.938    3736.4474    8185.3352    308.73339    14017 
387000000    -226.1936    11769.941      12862.7    3758.9233    8237.2114    308.24839    14050 
388000000   -234.64437    11660.931    13064.492     3690.669    8204.9063    313.08425    14045 
389000000   -235.84678    11660.529    12855.711    3752.8842    8143.4914    308.08091    14044 
390000000   -232.88563    11810.168     12872.64    3786.2794    8256.7737    308.48661    14030 
391000000   -226.07424    11659.839     12789.74    3601.3378    8284.5754    306.49995    14064 
392000000   -241.34465    11767.297    12907.403     3662.138    8346.5039    309.31969    14049 
393000000   -244.34684    11766.582      12888.9    3738.1782    8272.7511    308.87626    14035 
394000000   -242.79616    11587.286    12900.072    3695.3568    8134.7253    309.14399    14049 
395000000   -245.02561    11626.204    13103.669    3612.6495    8258.5802     314.0231    14060 
396000000   -228.46098    11735.061    12923.018    3750.7435    8212.7781    309.69389    14048 
397000000   -228.69126    11567.241     13017.78    3622.6013    8173.3312    311.96481    14044 
398000000   -240.29526    11589.391    12840.228    3683.0047    8146.6812    307.70988    14044 
399000000   -238.01114    11632.074    12935.332    3706.4625    8163.6224      309.989    14023 
400000000   -216.65939    11676.022    13112.524    3770.8813    8121.8004    314.23532    14036 
401000000   -256.44513    11766.894    12828.202    3724.4836    8298.8554    307.42166    14034 
402000000    -262.8984    11540.196    12867.674    3686.2649    8116.8293     308.3676    14051 
403000000   -238.52905    11668.743    12982.794    3699.0017    8208.2699     311.1264    14025 
404000000   -236.75929    11641.844    12920.246     3744.575    8134.0286    309.62746    14029 
405000000    -243.1247    11650.249    12891.775    3740.8381    8152.5358    308.94516    14018 
406000000   -236.95353    11741.905    13011.504    3629.5373     8349.321    311.81441    14074 
407000000   -241.31627    11728.061     12888.72    3712.8325    8256.5449    308.87194    14004 
408000000   -255.35189    11791.789    12783.607     3777.502    8269.6389    306.35296    14042 
409000000   -272.95748    11597.747    12934.506    3750.9851    8119.7198    309.96919    14032 
410000000   -257.90013    11686.421     13042.93    3736.5405    8207.7809    312.56752    14028 
411000000   -231.97566     11826.39    13047.488    3779.6212    8278.7449    312.67675    14042 
412000000   -254.56228    11739.029    13033.871    3712.3133    8281.2783    312.35042    14048 
413000000   -232.45956     11574.74    12897.679    3631.5879    8175.6115    309.08665    14058 
414000000   -240.02145    11702.651    12806.804    3671.5699    8271.1027    306.90887    14054 
415000000   -223.03462    11461.095    12859.181    3523.8928    8160.2366    308.16406    14088 
416000000   -232.08066    11397.683    12949.158    3523.1325     8106.631    310.32032    14077 
417000000   -228.83702    11452.836    12788.058    3626.4871    8055.1858    306.45964    14054 
418000000   -249.57941    11583.835    13090.099    3563.1502    8270.2644     313.6979    14050 
419000000   -233.91404    11776.907    13046.713     3716.245     8294.576    312.65817    14037 
420000000   -226.83167    11561.731    12983.937    3541.6396    8246.9234    311.15378    14043 
421000000   -253.65735    11641.368    13039.021    3786.6181     8108.407    312.47385    14031 
422000000   -235.40398    11875.588    12976.256    3791.6896    8319.3021    310.96971    14014 
423000000   -222.72863    11698.647    13008.352    3794.9877    8126.3877    311.73888    14032 
424000000     -218.409    11674.951    12950.798    3671.0814     8222.279    310.35963    14045 
425000000   -243.09923    11558.899    12979.122    3682.3869    8119.6113    311.03839    14032 
426000000   -255.23149    11636.247    12964.446    3723.5904     8167.888    310.68668    14029 
427000000   -241.12737    11661.853     12915.99    3721.8793    8181.1012    309.52547    14034 
428000000   -250.56629     11698.01    13024.922    3694.9069    8253.6699    312.13598    14053 
429000000   -220.35979    11607.567    13003.119    3565.1719    8262.7552    311.61346    14065 
430000000   -232.74011    11571.355    12901.928     3699.668    8104.4273    309.18848    14066 
431000000   -218.47544    11542.976    13038.136     3563.994    8197.4578    312.45263    14068 
432000000   -245.90098    11746.232    12826.407    3678.7436    8313.3896    307.37866    14053 
433000000   -235.49825    11624.297    12866.274    3686.9166     8172.879    308.33405    14044 
434000000   -215.07389    11588.844    13007.385    3779.7802    8024.1382     311.7157    14038 
435000000   -244.53326     11669.24    12865.413    3654.3618     8259.411    308.31341    14040 
436000000   -239.23014    11760.093    12856.435    3734.0882    8265.2346    308.09826    14038 
437000000   -260.71933    11632.505    12952.011    3696.8826    8196.3413    310.38869    14044 
438000000   -242.18732    11477.137    12793.535    3538.1681    8181.1564    306.59088    14058 
439000000   -224.97264    11605.579    12861.952    3630.2068    8200.3451    308.23046    14059 
440000000   -250.85767    11548.976    13078.407    3550.7828    8249.0508    313.41772    14073 
441000000   -256.88266    11590.797    13145.219    3638.7499    8208.9293    315.01882    14038 
442000000   -237.29615    11493.675    13032.449    3569.0599    8161.9115    312.31634    14091 
443000000   -241.36697    11635.694    12947.222    3614.3478    8262.7128    310.27393    14041 
444000000    -218.2803     11553.21    12843.485    3602.0845    8169.4057    307.78792    14053 
445000000   -242.07535    11645.321    13030.567    3632.1567      8255.24    312.27124    14055 
446000000   -235.84432    11628.481    13038.988     3631.243    8233.0819    312.47305    14066 
447000000   -239.35284     11493.52    12867.656    3545.3893    8187.4833    308.36716    14074 
448000000   -229.28364    11651.155    12802.488    3683.2654    8197.1731    306.80544    14026 
449000000   -229.86977    11595.863    13032.228    3616.9457    8208.7873    312.31106    14051 
450000000   -221.06166    11650.274    12933.481    3623.7769    8247.5583    309.94463    14056 
451000000   -252.42254    11518.959    13029.115    3561.0483    8210.3335    312.23646    14075 
452000000   -253.83438    11630.942    12946.449    3750.2141    8134.5619     310.2554    14045 
453000000   -258.91027    11894.782    13036.514    3798.7111    8354.9815    312.41375    14066 
454000000   -222.93825    11730.659    12934.019    3750.9918    8202.6052    309.95752    14046 
455000000    -213.4639    11543.479    12875.955    3621.5689    8135.3736    308.56605    14070 
456000000   -258.73817    11621.484    13013.473    3681.2975    8198.9249    311.86159    14044 
457000000   -224.30496    11535.789    12904.691    3639.4665    8120.6273    309.25469    14048 
458000000   -225.06116    11810.529    12747.729    3699.3659    8336.2247    305.49317    14033 
459000000   -256.19556    11699.022    12930.918    3668.5882    8286.6296     309.8832    14043 
460000000   -258.38864    11625.008    12758.633    3669.5455    8213.8511    305.75448    14031 
461000000   -245.18553    11624.222    12835.921    3760.8077       8108.6    307.60665    14036 
462000000    -247.0159    11707.405    12790.043    3778.9382    8175.4823    306.50721    13984 
463000000    -259.8506    11724.158    12890.959    3762.7049    8221.3042    308.92561    14046 
464000000   -243.99135    11751.921    12952.442    3791.2834    8204.6287    310.39902    13993 
465000000   -243.88529    11698.197    12927.497     3730.592    8211.4901    309.80122    14041 
466000000   -236.57052    11778.444    12920.353    3790.2147    8224.7996    309.63002    14013 
467000000   -263.49837    11782.082    12960.182     3779.895    8265.6852    310.58451    14009 
468000000   -247.93528    11683.187     12891.37    3673.5188    8257.6032    308.93545    14043 
469000000   -239.42039    11558.223    12873.803    3687.8853    8109.7579    308.51448    14019 
470000000   -262.67557    11612.851    13003.623    3669.6062    8205.9207    311.62556    14059 
471000000   -238.15973    11730.469     12725.88    3701.8388      8266.79    304.96956    14057 
472000000   -239.09097    11604.683    12809.741    3630.3071    8213.4665    306.97927    14060 
473000000   -240.22085    11718.722    13020.652    3682.0878    8276.8548    312.03365    14055 
474000000   -242.20862    11660.662    13001.526    3697.5253    8205.3449     311.5753    14023 
475000000   -231.76052    11521.638    13004.216    3617.7255    8135.6729    311.63976    14048 
476000000   -244.26511    11585.944    12944.432    3743.2689    8086.9401    310.20706    14049 
477000000   -239.28655    11676.531    12996.529    3657.2489    8258.5683    311.45555    14037 
478000000   -248.90569    11766.939    12963.473    3797.6965    8218.1485    310.66336    14028 
479000000   -247.18947    11483.181    12988.473    3605.6005    8124.7699    311.26248    14051 
480000000   -242.55038    11739.411     12808.09    3658.2642    8323.6975    306.93969    14032 
481000000   -248.02639    11744.523    12954.994    3709.1729    8283.3769    310.46018    14027 
482000000   -235.72282    11633.136    13028.073    3634.0535    8234.8053    312.21147    14060 
483000000   -240.79523    11578.609    12965.207    3667.2346    8152.1694    310.70492    14057 
484000000   -228.87199    11630.053    12887.596    3712.7069    8146.2176    308.84502    14049 
485000000   -238.41128    11605.756    12930.896    3685.5805    8158.5865    309.88267    14036 
486000000    -242.3806    11728.814    12987.842     3726.893    8244.3018    311.24736    14032 
487000000   -246.38541    11813.633     12942.81    3781.4774    8278.5413     310.1682    14049 
488000000   -232.23156     11418.03    13068.136    3607.3582    8042.9033    313.17158    14061 
489000000   -240.77773    11570.792    12980.816    3665.2662    8146.3031    311.07899    14041 
490000000   -245.50977    11770.324     13197.01    3689.8053    8326.0284    316.25997    14041 
491000000   -241.24205     11704.33    12759.367     3695.097    8250.4752    305.77208    14035 
492000000    -235.0062    12042.957    12931.712    3841.0545    8436.9088    309.90223    14012 
493000000   -214.26785    11625.472    12923.209    3603.8511    8235.8891    309.69847    14066 
494000000   -255.35548    11578.991    12962.685    3601.0734    8233.2727    310.64449    14060 
495000000   -232.11837    11715.341     12876.69    3762.8143    8184.6455    308.58366    14031 
496000000   -252.78299     11619.79    12926.507    3623.1059    8249.4672     309.7775    14066 
497000000    -253.5946    11800.336    12942.131    3739.2243    8314.7059    310.15192    14033 
498000000   -241.85813    11772.118    12894.304    3683.3616    8330.6149    309.00577    14055 
499000000   -238.86495    11757.221    12934.533    3739.3089    8256.7774    309.96984    14020 
500000000   -231.11059    11740.951    12961.653    3764.7679    8207.2938    310.61977    14036 
Loop time of 96103.9 on 28 procs for 500000000 steps with 14000 atoms

Performance: 11237.837 ns/day, 0.002 hours/ns, 5202.703 timesteps/s
99.4% CPU use with 28 MPI tasks x no OpenMP threads

MPI task timing breakdown:
Section |  min time  |  avg time  |  max time  |%varavg| %total
---------------------------------------------------------------
Pair    | 7070       | 7522.1     | 7970.3     | 182.0 |  7.83
Bond    | 5501.5     | 5590       | 6502.2     | 240.3 |  5.82
Neigh   | 22306      | 22540      | 22877      |  83.3 | 23.45
Comm    | 32063      | 33392      | 34759      | 316.3 | 34.75
Output  | 0.57262    | 0.57392    | 0.57465    |   0.0 |  0.00
Modify  | 20348      | 20437      | 20593      |  44.4 | 21.27
Other   |            | 6622       |            |       |  6.89

Nlocal:    500 ave 538 max 459 min
Histogram: 1 2 3 3 5 4 3 2 4 1
Nghost:    405.821 ave 548 max 267 min
Histogram: 1 3 2 1 6 6 4 3 1 1
Neighs:    2027.36 ave 2444 max 1733 min
Histogram: 4 1 7 4 2 2 2 3 2 1

Total # of neighbors = 56766
Ave neighs/atom = 4.05471
Ave special neighs/atom = 6.26314
Neighbor list builds = 99878368
Dangerous builds = 0
System init for write_restart ...
Total wall time: 26:41:45
