LAMMPS (5 Jun 2019)
Reading data file ...
  orthogonal box = (-420 -420 -420) to (420 420 420)
  2 by 2 by 7 MPI processor grid
  reading atoms ...
  14000 atoms
  scanning bonds ...
  51 = max bonds/atom
  scanning angles ...
  1 = max angles/atom
  reading bonds ...
  13800 bonds
  reading angles ...
  13600 angles
Finding 1-2 1-3 1-4 neighbors ...
  special bond factors lj:   0          0          0         
  special bond factors coul: 0          0          0         
  2 = max # of 1-2 neighbors
  2 = max # of 1-3 neighbors
  4 = max # of 1-4 neighbors
  56 = max # of special neighbors
  special bonds CPU = 0.00197752 secs
  read_data CPU = 0.14769 secs
Finding 1-2 1-3 1-4 neighbors ...
  special bond factors lj:   1          1          1         
  special bond factors coul: 0          0          0         
  2 = max # of 1-2 neighbors
  2 = max # of 1-3 neighbors
  4 = max # of 1-4 neighbors
  56 = max # of special neighbors
  special bonds CPU = 0.000700483 secs
WARNING: Using 'neigh_modify every 1 delay 0 check yes' setting during minimization (../min.cpp:168)
Neighbor list info ...
  update every 1 steps, delay 0 steps, check yes
  max neighbors/atom: 2000, page size: 100000
  master list distance cutoff = 26.9
  ghost atom cutoff = 26.9
  binsize = 13.45, bins = 63 63 63
  1 neighbor lists, perpetual/occasional/extra = 1 0 0
  (1) pair lj/cut, perpetual
      attributes: half, newton on
      pair build: half/bin/newton
      stencil: half/bin/3d/newton
      bin: standard
Setting up cg style minimization ...
  Unit style    : real
  Current step  : 0
Per MPI rank memory allocation (min/avg/max) = 1.164 | 13.81 | 17.68 Mbytes
Step Temp E_pair E_mol TotEng Press 
       0            0 1.097855e+12      2649600 1.0978577e+12 5.0804878e+08 
    3165            0    -1749.261     5102.442     3353.181 0.0087270459 
Loop time of 0.690987 on 28 procs for 3165 steps with 14000 atoms

98.8% CPU use with 28 MPI tasks x no OpenMP threads

Minimization stats:
  Stopping criterion = energy tolerance
  Energy initial, next-to-last, final = 
     1.09785765867e+12      3353.38932291      3353.18099319
  Force two-norm initial, final = 8.92234e+10 1.58028
  Force max component initial, final = 1.04805e+09 0.193454
  Final line search alpha, max atom move = 0.612771 0.118543
  Iterations, force evaluations = 3165 3624

MPI task timing breakdown:
Section |  min time  |  avg time  |  max time  |%varavg| %total
---------------------------------------------------------------
Pair    | 0.050321   | 0.16836    | 0.28833    |  17.2 | 24.37
Bond    | 0.01488    | 0.044551   | 0.072894   |   7.2 |  6.45
Neigh   | 0.093509   | 0.09475    | 0.096172   |   0.2 | 13.71
Comm    | 0.099593   | 0.23728    | 0.38385    |  17.1 | 34.34
Output  | 0          | 0          | 0          |   0.0 |  0.00
Modify  | 0          | 0          | 0          |   0.0 |  0.00
Other   |            | 0.146      |            |       | 21.14

Nlocal:    500 ave 826 max 174 min
Histogram: 1 3 4 4 2 2 8 1 1 2
Nghost:    338.893 ave 565 max 156 min
Histogram: 3 3 2 1 6 7 2 2 1 1
Neighs:    3508.14 ave 5788 max 1093 min
Histogram: 1 4 2 5 2 1 6 2 0 5

Total # of neighbors = 98228
Ave neighs/atom = 7.01629
Ave special neighs/atom = 5.82857
Neighbor list builds = 221
Dangerous builds = 0
Setting up Verlet run ...
  Unit style    : real
  Current step  : 3165
  Time step     : 0.1
Per MPI rank memory allocation (min/avg/max) = 1.128 | 14 | 16.55 Mbytes
Step Temp E_pair E_mol TotEng Press 
    3165            0    -1749.261     5102.442     3353.181 0.0087270459 
   13165    225.80174   -1409.5036    8863.9305    16876.763   -1.6785712 
Loop time of 1.15157 on 28 procs for 10000 steps with 14000 atoms

Performance: 75.028 ns/day, 0.320 hours/ns, 8683.818 timesteps/s
99.5% CPU use with 28 MPI tasks x no OpenMP threads

MPI task timing breakdown:
Section |  min time  |  avg time  |  max time  |%varavg| %total
---------------------------------------------------------------
Pair    | 0.052813   | 0.1801     | 0.32913    |  18.7 | 15.64
Bond    | 0.035267   | 0.10317    | 0.17028    |  10.9 |  8.96
Neigh   | 0.0020292  | 0.0021219  | 0.0021984  |   0.1 |  0.18
Comm    | 0.20775    | 0.40144    | 0.59204    |  16.8 | 34.86
Output  | 3.113e-05  | 5.1193e-05 | 7.286e-05  |   0.0 |  0.00
Modify  | 0.084005   | 0.24104    | 0.39763    |  16.3 | 20.93
Other   |            | 0.2236     |            |       | 19.42

Nlocal:    500 ave 828 max 171 min
Histogram: 1 3 4 4 2 2 8 1 1 2
Nghost:    338.821 ave 560 max 157 min
Histogram: 3 3 2 1 6 7 2 2 1 1
Neighs:    3521.18 ave 5754 max 1092 min
Histogram: 2 2 3 5 2 1 4 4 0 5

Total # of neighbors = 98593
Ave neighs/atom = 7.04236
Ave special neighs/atom = 5.82857
Neighbor list builds = 5
Dangerous builds = 0
4000 atoms in group rxnSites
Neighbor list info ...
  update every 1 steps, delay 1 steps, check yes
  max neighbors/atom: 2000, page size: 100000
  master list distance cutoff = 26.9
  ghost atom cutoff = 26.9
  binsize = 13.45, bins = 63 63 63
  2 neighbor lists, perpetual/occasional/extra = 1 1 0
  (1) pair lj/cut, perpetual
      attributes: half, newton on
      pair build: half/bin/newton
      stencil: half/bin/3d/newton
      bin: standard
  (2) fix bond/create/random, occasional, copy from (1)
      attributes: half, newton on
      pair build: copy
      stencil: none
      bin: none
Setting up Verlet run ...
  Unit style    : real
  Current step  : 0
  Time step     : 25
Per MPI rank memory allocation (min/avg/max) = 17.87 | 18.28 | 18.83 Mbytes
Step E_pair PotEng KinEng E_bond E_angle Temp Bonds 
       0   -1409.5036     7454.427    9422.3362    2993.8868    5870.0437    225.80174    13800 
 1000000   -222.74505    11540.265    12943.427    3597.1889    8165.8211    310.18297    14052 
 2000000   -241.28738    11743.129    12992.975    3737.2501    8247.1658    311.37038    14014 
 3000000   -252.77222    11683.218     12957.29    3695.2265    8240.7633    310.51521    14041 
 4000000   -249.69387    11684.008    12976.201    3710.3928    8223.3091    310.96839    14005 
 5000000   -244.25214    11657.056    13088.168    3758.2965    8143.0121    313.65163    14010 
 6000000   -259.56655     11553.33    12983.616    3653.4195    8159.4769    311.14608    14056 
 7000000   -229.00257    11732.768    12922.756    3735.9317    8225.8391    309.68762    14018 
 8000000   -234.08685    11804.872    13025.299    3730.6278    8308.3308    312.14501    14042 
 9000000   -218.86184    11538.986    12955.448    3645.7096    8112.1383    310.47106    14044 
10000000   -223.05695    11671.985    12949.596    3697.6994    8197.3426    310.33082    14051 
11000000   -246.48071    11554.243     12920.09    3567.3002    8233.4231    309.62373    14063 
12000000   -246.03281     11610.98    12899.337    3656.3107    8200.7017    309.12639    14037 
13000000   -245.68334    11660.643    12933.722    3761.3131    8145.0129     309.9504    14029 
14000000   -269.03797    11587.976    12929.087    3686.4319    8170.5822    309.83932    14072 
15000000   -232.16664    11713.173     12907.36      3680.71    8264.6296    309.31866    14053 
16000000    -233.9387    11641.141    12945.688    3732.5114    8142.5681    310.23716    14025 
17000000   -257.07166    11607.141    12822.463    3562.8985    8301.3143    307.28414    14060 
18000000   -241.68287    11647.707     12926.54    3714.3409     8175.049    309.77829    14038 
19000000   -249.03153    11695.423     12912.18     3699.624    8244.8304    309.43417    14040 
20000000    -243.0925      11648.4    13014.011    3681.4537    8210.0385     311.8745    14041 
21000000   -233.68159    11733.989    12877.872    3793.8541    8173.8168    308.61197    14023 
22000000   -246.03627    11747.533    12816.573    3761.8028    8231.7665    307.14297    14039 
23000000   -246.69847    11836.333    12994.619     3797.675    8285.3562    311.40976    14021 
24000000   -240.56714    11763.967    12858.154    3780.5884    8223.9458    308.13945    14024 
25000000   -223.59103    11539.002    13134.747    3622.0822    8140.5106    314.76786    14050 
26000000   -235.75981    11635.441    13061.308    3673.1095    8198.0912    313.00793    14056 
27000000   -247.64749    11539.252     12946.48    3631.3191    8155.5805    310.25615    14064 
28000000   -242.92092    11500.457    12994.822    3578.1413    8165.2366    311.41463    14075 
29000000   -236.19719    11713.159    12918.739    3705.7924    8243.5635    309.59135    14073 
30000000   -223.54749    11625.632    13023.593    3661.1105    8188.0686    312.10411    14061 
31000000   -233.69597    11536.175    12877.388    3659.8516    8110.0196    308.60038    14063 
32000000   -234.48291    11590.604    12977.163    3652.5218    8172.5654    310.99144    14031 
33000000   -233.04565    11613.305    12858.758    3623.7219    8222.6285    308.15393    14030 
34000000   -266.59614    11807.271    12905.624    3746.2587    8327.6084    309.27705    14057 
35000000   -243.26928    11611.976    12844.581    3664.6679    8190.5778    307.81417    14044 
36000000   -241.39532    11621.817    12970.052    3666.4668    8196.7457    310.82103    14038 
37000000   -249.23028    11545.153     12843.16    3604.6183    8189.7645    307.78013    14065 
38000000    -241.8919    11756.638    12873.664    3740.8101    8257.7202    308.51114    14033 
39000000     -231.584    11530.354    13025.754    3643.8007    8118.1372    312.15591    14068 
40000000   -226.89586    11795.799    12894.968    3710.2631    8312.4321    309.02168    14072 
41000000   -260.70997    11621.464     12960.23    3668.0908    8214.0828    310.58565    14073 
42000000   -256.97532    11642.104    12918.628    3616.2901    8282.7892    309.58869    14020 
43000000   -217.48725    11638.067    12973.469    3680.7536    8174.8005    310.90291    14026 
44000000   -259.31344    11665.652     12733.52    3648.9278    8276.0373    305.15266    14053 
45000000    -234.5544    11720.666    12858.808    3684.9161    8270.3047    308.15512    14044 
46000000   -233.99331    11570.704    13059.746    3605.1499    8199.5477    312.97052    14053 
47000000    -239.5353    11352.823    12863.741     3578.851    8013.5072    308.27334    14056 
48000000   -222.32221    11692.034    12986.098    3655.9804    8258.3757    311.20556    14037 
49000000   -241.64075    11737.562     13023.76    3741.9831    8237.2196    312.10812    14029 
50000000   -201.17516    11611.177    12851.793    3726.1871    8086.1646    307.98701    14035 
51000000   -244.84689    11671.181    13056.898    3639.0496    8276.9784    312.90226    14025 
52000000   -246.63513    11527.563     12891.09     3627.587    8146.6107    308.92874    14043 
53000000   -249.90321    11703.178    12867.781    3670.3245    8282.7566    308.37016    14026 
54000000   -256.75765    11719.658    12954.771    3757.7249    8218.6909    310.45483    14024 
55000000   -254.95749    11644.413    12894.076    3670.3957    8228.9751    309.00031    14044 
56000000   -220.96533    11628.334    12891.647     3644.209    8205.0902    308.94211    14055 
57000000   -238.48492    11683.907    13011.585    3669.0352    8253.3569    311.81634    14048 
58000000   -231.47228    11657.318    12981.995    3674.7661    8214.0242    311.10725    14050 
59000000   -209.99164     11694.38    12934.366    3652.2034    8252.1683    309.96583    14042 
60000000   -257.25547    11553.476    13002.197    3600.5273    8210.2045    311.59136    14048 
61000000   -234.16361    11583.745    12894.789    3676.5346    8141.3743     309.0174    14057 
62000000   -245.39272    11672.958    12939.627    3586.9195    8331.4315    310.09192    14037 
63000000   -233.65604    11792.607    13016.469    3757.1034    8269.1594     311.9334    14028 
64000000   -236.86274    11569.598    12927.269    3739.8296    8066.6313    309.79575    14013 
65000000   -227.44383    11754.213    12997.967    3819.0753    8162.5817    311.48999    13999 
66000000    -209.7515    11630.579    12970.037     3691.449    8148.8811    310.82068    14030 
67000000    -229.2152    11716.591    13019.409    3708.4389    8237.3676    312.00386    14027 
68000000   -223.93468    11744.937    12992.371    3767.0447    8201.8272    311.35591    14018 
69000000   -238.06577    11609.909    12805.056    3586.8038    8261.1714    306.86698    14037 
70000000   -235.97812    11709.111    12951.986    3733.1136    8211.9753    310.38809    14057 
71000000   -268.40063    11733.824    12911.289    3666.5461    8335.6784     309.4128    14058 
72000000   -244.91863    11606.039    12902.284    3623.2219    8227.7356    309.19702    14057 
73000000    -232.3078     11730.35    12809.009    3693.8911    8268.7667    306.96173    14060 
74000000    -232.5298    11645.411    12898.797    3651.1792    8226.7617    309.11345    14044 
75000000   -241.03736    11630.279    13031.037    3723.1589    8148.1577    312.28251    14047 
76000000    -235.0839    11547.989     13012.98    3648.3527      8134.72    311.84979    14063 
77000000    -268.3088    11526.202    12821.113    3682.1427    8112.3682    307.25179    14045 
78000000   -213.80727     11608.16    12910.643    3595.7017    8226.2655    309.39734    14073 
79000000    -221.2799    11741.856    12928.344    3799.4277     8163.708    309.82153    14017 
80000000    -264.2523    11511.243    12845.101    3654.5332    8120.9619    307.82664    14042 
81000000   -256.80013     11559.65    13006.589    3732.1177    8084.3328    311.69663    14016 
82000000   -224.96597    11737.492    12922.653    3729.5046    8232.9537    309.68515    14039 
83000000   -223.75669    11672.263    12957.605    3711.5389    8184.4808    310.52275    14022 
84000000   -223.88477    11853.371    13040.612     3768.505    8308.7509    312.51197    14019 
85000000   -245.63348    11681.947    13031.104    3697.7535    8229.8272    312.28412    14050 
86000000   -244.33986    11541.866    12850.836    3636.7077    8149.4982    307.96408    14064 
87000000   -266.04776    11701.517    12897.084    3625.3471    8342.2176     309.0724    14074 
88000000    -200.6029    11705.241    12937.264    3695.1279    8210.7163    310.03528    14048 
89000000   -213.55817    11577.552    12878.636    3672.1298    8118.9804    308.63029    14080 
90000000   -244.70469    11639.288    12827.336       3661.2    8222.7927    307.40092    14075 
91000000   -227.75888    11569.754     12902.51    3653.6268     8143.886    309.20242    14049 
92000000   -240.35653    11479.264    12876.759    3502.6627     8216.958    308.58531    14067 
93000000    -245.0308    11737.241    12895.269    3797.6099    8184.6619     309.0289    14035 
94000000   -230.76353    11557.994    12942.102    3606.3036    8182.4537    310.15124    14062 
95000000   -243.30058    11737.448    12928.171     3726.499    8254.2496    309.81737    14059 
96000000   -239.92766    11623.872     12967.69    3678.9097    8184.8904    310.76444    14049 
97000000   -210.15708    11658.599    12745.171    3661.1679    8207.5877    305.43186    14057 
98000000   -228.74985    11619.819    12865.888    3638.8721    8209.6969    308.32479    14033 
99000000   -243.43726    11810.527    12952.054    3779.9921    8273.9723    310.38971    14026 
100000000   -243.03048    11511.119    12846.195    3617.8588    8136.2906    307.85285    14022 
101000000    -245.1339    11625.586     13069.61    3607.7925    8262.9274    313.20688    14036 
102000000   -265.76671    11740.257    12789.258    3625.9385    8380.0854    306.48839    14058 
103000000   -247.61414    11509.841    12805.663     3636.684    8120.7715    306.88154    14069 
104000000   -234.93722     11648.08     12961.85    3757.3701    8125.6473    310.62448    14043 
105000000   -215.44955    11482.087    12837.418    3675.2816    8022.2545    307.64251    14056 
106000000   -245.12084    11411.896    12949.118    3520.8922    8136.1249    310.31935    14099 
107000000   -246.54146    11600.004    12849.441    3651.3536    8195.1922    307.93064    14079 
108000000   -239.47303    11564.167     12891.49     3619.016    8184.6244    308.93832    14073 
109000000    -256.8822     11790.76    12774.272    3733.8961    8313.7463    306.12926    14054 
110000000   -263.50553     11671.41    13084.115    3706.8298     8228.086    313.55449    14033 
111000000   -219.96846    11775.885    12954.663    3706.5164    8289.3369    310.45225    14038 
112000000   -231.62631    11764.136    12997.661    3724.1054    8271.6573    311.48267    14023 
113000000   -227.64434    11611.564    13016.996    3611.3936    8227.8147    311.94603    14049 
114000000   -254.91421    11689.332    12999.609    3667.0485    8277.1973    311.52935    14058 
115000000    -224.8369    11610.276     12882.83    3592.6407    8242.4725     308.7308    14042 
116000000   -237.47169    11691.977    12976.983    3778.1337    8151.3145    310.98713    14035 
117000000   -244.39037    11750.566     13072.66    3729.3662    8265.5897    313.27999    14020 
118000000   -245.43261    11724.844    12981.215    3727.0557    8243.2212    311.08856    14048 
119000000   -236.51626    11773.242    12779.377    3688.1774     8321.581    306.25159    14005 
120000000   -241.59229    11646.809    12817.708    3665.9319    8222.4693    307.17019    14053 
121000000   -251.15583    11766.361    12937.348    3729.8291    8287.6872     310.0373    14042 
122000000    -241.2281    11593.868    12962.953    3641.0101    8194.0859    310.65092    14049 
123000000   -237.16313    11603.367    12807.427    3651.9265     8188.604     306.9238    14056 
124000000   -242.22616    11717.309    12771.661    3790.3206     8169.215    306.06668    14048 
125000000   -227.92722    11664.427    13026.162    3707.2116    8185.1431    312.16569    14058 
126000000   -240.24464    11590.111    12807.196    3713.6841    8116.6712    306.91826    14043 
127000000   -244.13427    11564.442    12952.181     3586.782     8221.794    310.39276    14062 
128000000   -246.27233    11437.013    12957.336     3614.345      8068.94     310.5163    14082 
129000000   -244.77542    11574.069    12814.548    3620.7853    8198.0596    307.09446    14065 
130000000    -254.8207    11630.489    12850.562    3680.4059    8204.9039    307.95751    14031 
131000000   -202.40447    11645.327    12994.386    3629.0728    8218.6589    311.40418    14053 
132000000   -230.22488    11651.802    12737.516    3668.3817    8213.6447    305.24842    14051 
133000000   -227.18184    11545.837    12819.171    3576.9372    8196.0819    307.20524    14056 
134000000   -254.26455    11750.151    12976.278    3709.9557    8294.4602    310.97025    14025 
135000000   -229.19543    11656.672    12887.371    3676.3525    8209.5146    308.83963    14029 
136000000   -242.55336     11678.77    12905.612     3614.824    8306.4998    309.27677    14047 
137000000    -237.4767    11648.108    13016.834    3717.3361     8168.249    311.94213    14059 
138000000   -237.57325    11603.487     12911.15    3719.9589    8121.1016    309.40948    14044 
139000000   -247.88002    11572.503    13006.897    3553.0029      8267.38      311.704    14076 
140000000   -242.33999    11716.228    13009.048    3697.2296    8261.3381    311.75556    14050 
141000000   -252.33692    11694.412      12943.6    3668.8789    8277.8702    310.18712    14055 
142000000   -246.60481    11580.461    12909.417     3693.076    8133.9894    309.36795    14037 
143000000   -231.97924    11571.783    12895.284    3646.3387    8157.4236    309.02925    14036 
144000000   -239.94755    11572.663    12878.182    3598.0911    8214.5192    308.61943    14064 
145000000   -241.08359     11668.83     12700.32    3738.1779    8171.7356    304.35704    14053 
146000000   -258.33069    11595.757    12766.427    3689.3686    8164.7189    305.94125    14042 
147000000   -249.54892    11646.099    12889.263    3626.0694    8269.5787    308.88496    14056 
148000000   -237.47811    11503.452    12883.313    3591.3689    8149.5609    308.74237    14074 
149000000   -242.97423    11531.288    12967.583    3642.7839    8131.4786    310.76186    14045 
150000000   -250.88418    11689.648     12932.17    3712.5133     8228.019     309.9132    14058 
151000000   -238.02652    11525.073    12878.122    3669.2732    8093.8263    308.61797    14074 
152000000   -239.83015    11787.867     12974.72    3743.4651    8284.2325    310.93291    14039 
153000000   -263.88535    11518.212    12945.504    3631.1819    8150.9152    310.23276    14059 
154000000   -241.06466    11645.134    12939.602    3793.2602    8092.9387    310.09131    14040 
155000000   -265.50537    11718.186    12893.812    3686.9107    8296.7809    308.99398    14047 
156000000   -237.19038    11656.562    12954.972    3730.7769    8162.9759    310.45965    14078 
157000000    -232.2503    11618.777    12858.828    3616.0172    8235.0098    308.15561    14069 
158000000   -236.49794    11650.162    13137.382    3683.1401    8203.5197    314.83102    14033 
159000000   -249.65171    11661.539    12909.186    3638.8575    8272.3332     309.3624    14068 
160000000   -250.82162    11642.451    13039.724    3680.0435    8213.2289    312.49069    14039 
161000000   -234.46707    11487.973    12894.857    3637.9872    8084.4529    309.01901    14027 
162000000   -236.48587    11624.482    13023.213    3611.1322    8249.8356    312.09502    14037 
163000000   -252.31082    11631.073    12731.143    3726.3767     8157.007    305.09569    14039 
164000000   -235.08579    11817.532    12786.966    3685.4792    8367.1388    306.43348    14033 
165000000   -241.55923    11601.037    12964.063    3568.3585    8274.2374     310.6775    14047 
166000000   -232.80445    11671.646    12898.681    3714.7543    8189.6958    309.11067    14038 
167000000    -244.3209    11675.769    13114.403    3664.9996    8255.0906    314.28035    14045 
168000000   -238.29506    11590.878    12910.713    3635.0924    8194.0805    309.39901    14048 
169000000   -221.59387    11578.772      12955.1    3599.9975    8200.3684    310.46272    14075 
170000000   -242.91428    11626.462    12994.573    3728.4861    8140.8905    311.40867    14032 
171000000   -239.04876     11618.81    12947.611    3570.4467    8287.4118    310.28326    14075 
172000000   -237.71674    11673.432    12915.104     3691.376    8219.7725    309.50423    14051 
173000000   -254.33332    11642.104    12877.895    3674.0509    8222.3863    308.61254    14034 
174000000   -226.52178    11666.289    12813.934    3666.8899    8225.9212    307.07975    14040 
175000000   -237.43849    11653.431    12846.872    3753.7018    8137.1675    307.86909    14042 
176000000   -240.94292    11691.665    13037.245    3769.0665     8163.541    312.43129    14036 
177000000   -252.91511    11593.789    12952.037    3574.1879    8272.5158    310.38931    14066 
178000000   -257.03604    11687.322    12885.682    3770.8152    8173.5426    308.79916    14021 
179000000   -232.93959    11758.479    12849.512    3738.6086    8252.8098    307.93235    14028 
180000000   -236.11378    11700.318    12973.491    3744.7997    8191.6319    310.90345    14001 
181000000   -245.05935    11602.568     13028.21    3685.0293    8162.5977    312.21476    14034 
182000000   -257.22723    11824.582    12977.497    3772.6303     8309.179    310.99946    14023 
183000000   -251.17759    11725.466    12975.727    3742.0699     8234.574    310.95704    14014 
184000000   -246.33704    11691.678    13006.434    3682.3107    8255.7043    311.69291    14043 
185000000   -237.26886    11660.413      12933.6    3704.6756    8193.0067    309.94748    14032 
186000000   -262.95516    11682.048    13004.087    3718.9905    8226.0131    311.63666    14060 
187000000   -229.35694    11643.231    13031.854    3644.7046    8227.8836    312.30209    14073 
188000000   -244.34806    11710.995    12991.679    3768.7091    8186.6343    311.33931    14038 
189000000   -241.42236    11735.793    12877.251    3765.2766    8211.9389    308.59711    14009 
190000000   -240.13882    11735.172    12887.381    3770.3767    8204.9337    308.83987    14040 
191000000   -234.27696    11689.986    12830.983    3721.7142     8202.549     307.4883    14048 
192000000   -264.37767    11698.389    13115.431    3700.0753    8262.6914    314.30497    14035 
193000000   -234.20739    11548.888    12972.372     3636.417    8146.6787    310.87662    14073 
194000000   -228.50727    11658.525    13147.833    3585.1832    8301.8491    315.08147    14061 
195000000   -239.99733    11701.485    13003.636    3712.7081     8228.774    311.62586    14060 
196000000   -240.19842    11477.458     13051.19    3558.7071    8158.9492    312.76546    14064 
197000000   -227.57562    11617.683    12846.944    3608.7599    8236.4985     307.8708    14067 
198000000   -213.46442    11645.557    12868.165    3700.2347    8158.7871    308.37936    14061 
199000000   -219.10664    11467.388    12967.116    3572.8938    8113.6012    310.75067    14060 
200000000   -240.85378    11687.581     12911.17     3709.103    8219.3319    309.40997    14046 
201000000   -240.95385    11642.476    12936.665    3631.5127    8251.9173    310.02094    14061 
202000000   -243.65563    11505.242    12883.965     3632.979    8115.9182    308.75801    14061 
203000000   -249.51523    11607.315    12979.578    3561.0299    8295.8006    311.04931    14058 
204000000   -253.38164    11734.263    12864.029    3765.1674    8222.4777    308.28025    14053 
205000000   -242.56914    11558.975    12808.059    3640.1542    8161.3897    306.93895    14050 
206000000   -237.70688    11601.418    13023.065    3677.9515    8161.1733    312.09146    14012 
207000000   -230.16979    11662.061    12810.266     3668.698    8223.5328    306.99184    14059 
208000000   -236.74381    11681.341    12971.289    3710.0723    8208.0129    310.85068    14036 
209000000   -261.44154    11798.816    12840.504    3633.2662    8426.9912    307.71648    14036 
210000000    -214.3224    11606.597    12873.087    3761.9678    8058.9513    308.49731    14024 
211000000   -236.16886    11690.626    13118.394    3745.3218    8181.4732    314.37598    14050 
212000000   -240.38022    11626.469    12889.708    3666.7892    8200.0601    308.89563    14041 
213000000   -246.29061    11639.739     12896.59    3658.6398    8227.3895    309.06056    14024 
214000000   -228.25375    11825.003    12813.236    3777.6184     8275.638    307.06302    14033 
215000000   -231.99466    11663.896    12938.176    3668.9972    8226.8933    310.05714    14059 
216000000   -271.71059    11638.015    12848.455    3651.6699    8258.0561    307.90701    14053 
217000000   -237.84547    11683.447    12964.103    3802.5417    8118.7508    310.67847    14018 
218000000   -247.49888    11667.135    12839.235    3717.9499    8196.6835    307.68607    14018 
219000000   -251.36466    11517.204    13182.585      3638.25    8130.3187    315.91429    14052 
220000000   -242.27957    11603.482      12869.6    3674.4641    8171.2972    308.41375    14037 
221000000   -257.18876    11793.555    12899.714    3780.4421    8270.3014    309.13543    14040 
222000000   -246.48915    11638.803     13028.83    3719.2839    8166.0086    312.22961    14067 
223000000   -249.21517    11561.429    12912.577    3597.0749    8213.5696    309.44368    14080 
224000000    -245.0461    11580.587    12855.583    3694.3717    8131.2614    308.07784    14034 
225000000   -258.67663    11785.904    12998.451     3723.045    8321.5352    311.50161    14033 
226000000   -243.57762    11682.125    12923.787    3720.3434    8205.3591    309.71231    14024 
227000000   -234.37887    11729.056    13035.067    3765.9325    8197.5028    312.37909    14039 
228000000    -248.6379    11637.546    12986.009    3745.3921    8140.7917    311.20344    14004 
229000000   -239.85954    11683.143    13025.832    3736.0008    8187.0015    312.15777    14039 
230000000    -256.7065    11647.972    12859.501    3610.0036    8294.6745    308.17173    14048 
231000000   -244.82635     11705.04    12821.924    3685.2658     8264.601    307.27122    14061 
232000000   -235.60093    11719.779    12994.284    3686.0275    8269.3528    311.40174    14050 
233000000    -246.1385     11643.86    13014.726    3632.7362    8257.2626    311.89162    14036 
234000000   -235.47548    11605.506    12881.065    3530.6505    8310.3308     308.6885    14042 
235000000   -215.09472    11580.066    12930.715    3665.6454    8129.5157    309.87833    14045 
236000000   -250.21603    11616.489    12866.919    3656.8931    8209.8117     308.3495    14037 
237000000   -249.59221    11621.498    12930.944    3623.3848    8247.7057    309.88382    14056 
238000000   -211.31313    11597.617    13029.486    3650.7146    8158.2155    312.24535    14051 
239000000   -237.36907    11675.383    12961.006    3741.6104    8171.1415    310.60424    14035 
240000000   -251.89383    11544.077    12911.248    3558.5778    8237.3934    309.41183    14054 
241000000   -238.78282    11696.408    13028.852    3699.7767    8235.4139    312.23015    14038 
242000000   -272.22777    11563.897    13090.022    3596.9382    8239.1869    313.69607    14052 
243000000   -239.03864     11749.79    12960.813    3763.6745    8225.1538    310.59963    14043 
244000000   -246.12582    11480.623    12822.289    3611.3745    8115.3746    307.27997    14049 
245000000   -230.54892    11563.152    12905.888    3678.9499    8114.7507    309.28338    14023 
246000000   -232.68877    11569.191     12867.13    3660.3432    8141.5362    308.35456    14061 
247000000   -246.84756    11789.303    13060.748    3745.8839    8290.2666    312.99453    14015 
248000000   -217.99333    11591.117     12991.36    3604.6469    8204.4632    311.33166    14015 
249000000    -230.4193    11606.887    12929.498    3666.5822     8170.724    309.84918    14025 
250000000   -250.02067    11830.568    12933.255    3783.2988    8297.2903    309.93921    13998 
251000000   -245.47058     11649.27    12868.417    3661.2833    8233.4572    308.38539    14059 
252000000   -223.32282    11695.295    12968.199    3862.5887    8056.0291    310.77662    14017 
253000000   -234.83501    11593.635    12959.044    3669.7174    8158.7523    310.55723    14062 
254000000   -243.92154     11711.95    12967.507    3704.4106    8251.4609    310.76005    14041 
255000000   -218.44159     11660.23    12967.086    3762.2065    8116.4654    310.74995    14034 
256000000   -249.98909    11741.542    13102.017    3828.3762     8163.155    313.98351    14019 
257000000   -232.19334    11644.792    12974.446    3698.8351    8178.1506    310.92634    14021 
258000000   -247.49523    11724.947    13149.096    3727.2155     8245.227    315.11175    14037 
259000000   -232.50649     11679.12    12838.269    3643.2472    8268.3796    307.66292    14049 
260000000   -240.41389    11726.964    12733.951    3683.3274    8284.0502    305.16298    14062 
261000000   -247.88264    11524.936     12787.89    3667.3219    8105.4966    306.45562    14017 
262000000   -225.04029    11692.857    13056.027     3739.978    8177.9194    312.88139    14046 
263000000   -210.60443    11633.342    12855.052     3641.381    8202.5652    308.06512    14034 
264000000   -223.83919     11532.72    12800.632    3614.1293    8142.4297    306.76097    14052 
265000000   -218.54139     11615.16    12838.834    3680.9335     8152.768    307.67647    14027 
266000000   -221.13672     11812.98    12895.209    3746.1388     8287.978    309.02746    14015 
267000000   -250.07324    11808.173    12958.896    3784.7632     8273.483    310.55369    14043 
268000000   -249.99094    11571.765    12898.364    3681.9369     8139.819    309.10307    14048 
269000000   -259.46522      11627.7    12832.849    3624.3017    8262.8638    307.53303    14042 
270000000    -234.0712    11755.576    13019.581    3773.1516     8216.496    312.00797    14026 
271000000   -223.99116    11705.195    12982.895    3691.7624    8237.4239     311.1288    14056 
272000000   -243.10094    11584.029    12935.293    3738.3516    8088.7782    309.98805    14040 
273000000   -230.90546    11568.248    12912.634    3617.9709    8181.1821    309.44505    14063 
274000000   -234.80705    11606.576    12940.151    3687.2745    8154.1089    310.10447    14068 
275000000   -235.88792    11731.338    12928.688    3728.6773    8238.5485    309.82975    14056 
276000000   -258.23645    11593.139    12997.641    3741.2763    8110.0988    311.48219    14024 
277000000   -253.53784    11769.704    12982.402    3748.7424    8274.4998    311.11699    14038 
278000000   -238.94652    11743.696    13060.823    3757.4682    8225.1743    312.99633    14021 
279000000   -230.41317    11643.738     12910.17     3657.867    8216.2842      309.386    14031 
280000000   -237.57318    11592.085    12909.467    3601.0403    8228.6181    309.36914    14074 
281000000   -249.50736    11626.815    12908.826    3680.8629     8195.459    309.35379    14047 
282000000   -245.53075    11667.764    12849.199    3696.6565    8216.6388    307.92485    14037 
283000000   -256.73091    11698.389    13009.053    3719.3112     8235.809    311.75568    14056 
284000000   -246.93042    11697.287    12669.599    3774.3958    8169.8217    303.62081    14028 
285000000   -247.88659    11471.396    12978.821    3484.2952    8234.9872    311.03118    14086 
286000000   -251.03954    11680.104    12833.416    3685.0436    8246.0996    307.54661    14028 
287000000   -225.44748    11530.957    12953.657    3607.3893    8149.0149    310.42814    14062 
288000000   -223.75236    11512.483    13020.089    3653.5586    8082.6764    312.02016    14071 
289000000    -216.1484    11693.015    12939.768    3639.8621    8269.3016     310.0953    14047 
290000000   -251.11815    11673.376    12963.857     3671.884    8252.6098    310.67257    14063 
291000000    -243.4924    11722.109    12908.644    3712.4372    8253.1639    309.34941    14035 
292000000   -234.53335    11609.589    12919.816    3656.3457    8187.7771    309.61714    14054 
293000000   -239.70759    11782.948    12856.672    3763.0024     8259.653    308.10395    14021 
294000000   -227.26823    11568.423    12731.834    3589.5226    8206.1688    305.11226    14045 
295000000    -263.0131    11663.069    12916.772    3683.0331    8243.0492    309.54419    14053 
296000000   -249.05553    11657.053    13034.181    3677.4782      8228.63    312.35786    14039 
297000000   -230.97299     11468.34    12860.327    3612.9237    8086.3894    308.19153    14062 
298000000   -239.94434    11751.931    13057.799    3657.7619    8334.1131    312.92386    14048 
299000000   -249.02358     11716.19    12863.541    3710.4877    8254.7262    308.26855    14062 
300000000   -216.40447    11715.188    12860.579    3766.5499    8165.0428    308.19756    14041 
301000000   -219.14526    11686.781    12839.644    3763.6391    8142.2876    307.69587    14049 
302000000    -229.6685    11589.024     12896.48    3687.0186    8131.6738    309.05792    14052 
303000000   -221.13377    11720.487     12857.59    3728.6083    8213.0125    308.12595    14036 
304000000   -235.28434    11576.947    12880.283    3738.2937     8073.938    308.66976    14056 
305000000   -241.87144    11595.939    12996.068    3641.6204      8196.19     311.4445    14079 
306000000   -237.56555    11741.123     12951.17     3671.587    8307.1016    310.36854    14059 
307000000   -243.24137    11678.775    12892.565    3702.0623    8219.9541    308.96409    14048 
308000000   -227.80859    11614.971    12943.554    3640.2048    8202.5743    310.18602    14048 
309000000   -232.46354    11558.631     12833.75     3544.902    8246.1922    307.55462    14067 
310000000   -228.57117    11733.294    12813.156    3691.6356    8270.2295    307.06109    14052 
311000000   -232.32742    11574.689    13016.006    3703.7376    8103.2784     311.9223    14075 
312000000   -219.70615    11673.693    13064.385    3622.4106    8270.9887    313.08167    14028 
313000000   -254.74487    11585.605    13001.971    3576.0873    8264.2621    311.58595    14090 
314000000   -227.90703    11526.663    12776.776    3661.6176    8092.9521    306.18926    14056 
315000000   -233.12397    11515.328    12932.278    3518.2324    8230.2194     309.9158    14040 
316000000   -228.28751    11684.709      12854.2    3703.1221    8209.8743    308.04469    14024 
317000000   -232.81472    11591.485    12861.878    3640.0136    8184.2865     308.2287    14057 
318000000   -226.81967    11559.504     13001.04    3678.1554    8108.1679    311.56365    14049 
319000000   -238.32668    11516.962    12849.348    3522.7183      8232.57    307.92842    14074 
320000000   -229.26572    11700.095    12899.564    3644.4723    8284.8882    309.13184    14052 
321000000     -242.969    11512.284    12920.667    3620.5918    8134.6613    309.63756    14073 
322000000    -255.3962    11694.121    12934.924    3692.9885    8256.5283     309.9792    14043 
323000000   -241.36204    11555.622    12873.327    3660.0041    8136.9799    308.50306    14044 
324000000   -218.80103    11559.649    12923.798    3651.5107    8126.9392    309.71259    14046 
325000000   -219.16138    11659.231    12876.959    3661.6055     8216.787    308.59011    14058 
326000000   -244.75744    11490.126    13014.927    3582.7944    8152.0895    311.89645    14061 
327000000   -246.08478    11718.753    13031.083    3766.7109    8198.1264     312.2836    14031 
328000000   -236.65336     11590.17    12850.237    3598.2598    8228.5631    307.94972    14058 
329000000   -251.89306     11539.66    12962.754    3620.1877    8171.3651    310.64614    14039 
330000000   -251.93247    11566.182    12975.238    3606.5428    8211.5713     310.9453    14086 
331000000   -230.07654    11628.409    12919.138    3654.2733    8204.2125    309.60091    14054 
332000000   -238.55539     11650.48    13028.891    3658.8686    8230.1666    312.23108    14039 
333000000   -237.01761     11648.92    12941.045    3702.4754    8183.4619     310.1259    14020 
334000000   -227.01069    11694.888    12828.651     3694.023     8227.876    307.43242    14025 
335000000    -233.2502    11775.911    12946.759    3746.6731     8262.488    310.26282    14020 
336000000   -255.37663    11549.947    12842.217    3683.6476     8121.676    307.75754    14059 
337000000     -234.993    11750.852    12967.349    3795.5983    8190.2472    310.75626    14021 
338000000   -240.17378    11549.234    12827.224    3647.3359    8142.0715    307.39824    14041 
339000000   -254.10225    11765.444    12988.676    3731.0733    8288.4725    311.26736    14051 
340000000    -232.1328    11533.345    12899.086    3614.9401    8150.5375    309.12038    14053 
341000000    -268.4833    11785.614    12994.476    3793.9084    8260.1888    311.40634    14012 
342000000   -252.00751    11684.418     12715.11    3678.2298    8258.1961    304.71147    14066 
343000000   -239.92831    11674.142    12933.669    3697.5884    8216.4819    309.94913    14026 
344000000   -255.22684    11677.654    12743.158    3738.3382    8194.5425    305.38364    14020 
345000000   -259.99357    11686.903     12944.14    3691.7974    8255.0991    310.20006    14022 
346000000   -248.94337     11555.11    12966.616    3569.6928    8234.3601    310.73869    14050 
347000000   -227.27227    11576.862    12856.108    3682.7796     8121.355    308.09041    14056 
348000000   -237.48781    11636.865     12908.13    3644.2684    8230.0844    309.33711    14059 
349000000   -229.30324    11477.199    12997.208    3586.4699    8120.0324    311.47181    14043 
350000000   -257.81897    11498.737    12891.399    3591.3562    8165.2001    308.93616    14049 
351000000   -230.15204    11892.663     13069.72     3823.214    8299.6014    313.20953    14022 
352000000   -236.99869    11704.839    12898.339    3760.6939    8181.1439    309.10247    14024 
353000000   -242.65568    11505.815    12937.857     3635.242    8113.2284     310.0495    14042 
354000000   -248.62224    11588.662    12939.506    3655.2579    8182.0259    310.08902    14051 
355000000   -233.38463    11596.904    12812.945    3648.4485    8181.8402    307.05604    14032 
356000000   -244.61315    11663.168    13058.768    3648.4194    8259.3618    312.94708    14055 
357000000   -253.72104     11709.83     13027.62    3767.2266    8196.3245    312.20063    14045 
358000000   -236.11999    11738.435    12825.385    3765.7309    8208.8241    307.35415    14020 
359000000   -257.23537    11543.908    12823.439    3689.4742    8111.6692    307.30754    14022 
360000000   -256.01194    11520.856    12950.193    3651.3417    8125.5263    310.34514    14049 
361000000   -235.96377    11609.953    13142.921    3779.6847    8066.2325    314.96376    14017 
362000000   -257.42374    11734.003    12914.266     3743.709    8247.7178    309.48415    14024 
363000000   -254.22746    11660.911    12897.905    3690.8368    8224.3019    309.09207    14027 
364000000   -230.28068    11790.472      12998.8     3694.412     8326.341    311.50996    14033 
365000000   -241.88618     11669.45    12898.087    3688.7279    8222.6082    309.09643    14047 
366000000   -234.18902    11756.498    13056.489    3647.4325    8343.2543    312.89246    14053 
367000000   -221.80356    11630.169    12890.746     3612.872    8239.1005     308.9205    14061 
368000000   -241.46491    11757.747    12917.997    3673.9666    8325.2448    309.57356    14063 
369000000   -204.99274    11705.419    12931.643    3726.1448    8184.2667    309.90058    14035 
370000000   -250.26697    11589.171    13014.318     3688.239    8151.1989    311.88185    14048 
371000000   -256.90598    11755.491     12848.01    3738.2826    8274.1141    307.89636    14026 
372000000   -249.55233    11563.528    12850.699    3672.1236    8140.9563     307.9608    14037 
373000000   -235.07234    11531.053    12963.951     3661.587    8104.5388    310.67482    14049 
374000000   -231.64149    11622.668    12886.518    3626.5301    8227.7798    308.81919    14038 
375000000   -215.94451    11687.939    12758.844     3679.895    8223.9885    305.75954    14051 
376000000   -233.59485    11548.294     13002.41    3525.8133    8256.0761    311.59648    14065 
377000000   -240.72746    11647.864    12961.353    3704.2086    8184.3828    310.61256    14030 
378000000   -234.41447    11539.875     12768.98    3552.2608    8222.0286    306.00244    14068 
379000000   -210.39423    11650.846    12961.344    3747.6842    8113.5563    310.61235    14002 
380000000   -231.41285    11649.887    12994.961    3748.5643    8132.7359    311.41796    14015 
381000000   -223.45472     11679.69    12857.006    3761.2906     8141.854    308.11194    14034 
382000000   -251.19074    11745.787    12873.894     3798.223    8198.7551    308.51666    14007 
383000000   -245.84901    11719.756     12854.57     3766.912    8198.6933    308.05356    14028 
384000000   -243.14904    11740.613    12998.458    3643.9729     8339.789    311.50177    14047 
385000000   -241.64231    11726.296    12958.826    3783.3496    8184.5884    310.55201    14025 
386000000   -239.06287    11616.114    12978.315     3688.097    8167.0797    311.01905    14039 
387000000   -230.13422    11728.288    12986.891     3702.428    8255.9945    311.22456    14031 
388000000   -213.90164    11698.163    12895.715    3617.3482    8294.7166    309.03958    14058 
389000000   -239.63631    11676.461    12844.815    3638.6593    8277.4383     307.8198    14021 
390000000   -231.33687     11573.79    12925.896    3673.8653    8131.2615    309.76287    14059 
391000000   -236.42964    11625.408    12881.477    3682.4005     8179.437    308.69838    14022 
392000000   -247.10931    11783.092    12795.808     3793.406    8236.7954    306.64537    14028 
393000000   -259.37747    11562.066    12798.501    3692.9882    8128.4557    306.70989    14034 
394000000   -237.93322    11601.947    12972.887    3586.9814     8252.899    310.88898    14042 
395000000   -229.96238     11646.68    12839.772    3779.6869    8096.9553    307.69893    14046 
396000000   -226.23821    11843.403    12973.385    3736.0927    8333.5481    310.90092    14034 
397000000   -248.26271    11700.802    12797.082    3768.0625    8181.0025    306.67589    14035 
398000000   -247.40203    11729.631    13000.424    3744.1409    8232.8925     311.5489    14027 
399000000   -226.63762    11792.216    12999.207    3761.3017    8257.5523    311.51972    14031 
400000000   -257.28713    11678.992    12870.673    3693.6738    8242.6058    308.43947    14030 
401000000   -232.95638    11695.365    12963.548    3720.0418    8208.2792    310.66517    14043 
402000000   -235.93768    11745.106    12832.676    3702.4114    8278.6321    307.52889    14053 
403000000   -239.38038    11613.592    12985.697    3716.2547    8136.7175    311.19595    14025 
404000000   -226.54583    11765.184    13032.449    3797.3613    8194.3687    312.31634    14051 
405000000   -248.45513     11630.85    12952.639    3621.5417    8257.7638    310.40373    14025 
406000000   -225.52021    11553.778    12985.957    3614.3408    8164.9572    311.20218    14047 
407000000     -242.062    11645.768    12871.541    3632.6208    8255.2093    308.46026    14061 
408000000   -227.75071    11460.423    12818.787    3524.3314     8163.842    307.19603    14084 
409000000   -233.30455    11584.242    12807.553    3611.5136    8206.0325    306.92684    14057 
410000000   -244.33246    11634.217      12869.6    3658.0389    8220.5107    308.41376    14044 
411000000   -243.29543    11669.706    12892.024    3733.5553    8179.4458    308.95113    14030 
412000000   -229.11421    11569.321    12933.364    3661.5283    8136.9072    309.94181    14021 
413000000   -225.40256    11621.805    12940.476    3660.3001    8186.9073    310.11225    14068 
414000000   -248.54945    11657.608     12992.31    3698.1846    8207.9727    311.35443    14071 
415000000   -256.29198      11585.2    12962.471    3624.3751    8217.1166    310.63937    14041 
416000000   -250.13317    11642.925    13112.375    3687.7243     8205.334    314.23175    13996 
417000000   -245.85853    11717.688    13105.693    3698.5707    8264.9759    314.07161    14055 
418000000    -243.0294    11772.322    12858.552    3762.0699    8253.2812    308.14898    14031 
419000000   -242.09515    11619.252    12619.786    3612.2436    8249.1035    302.42708    14057 
420000000    -225.5045    11636.319    12988.034     3672.664    8189.1595    311.25196    14025 
421000000   -250.16448    11827.281    12862.223    3832.5018    8244.9434    308.23698    14035 
422000000   -250.97492    11701.383    12803.057    3617.7864    8334.5717    306.81907    14070 
423000000   -219.71493    11667.016    12940.059     3730.917    8155.8136    310.10227    14061 
424000000   -232.58521    11598.987    12984.933    3670.6061    8160.9664    311.17765    14034 
425000000   -238.98313    11593.319    12989.861    3647.1619    8185.1403    311.29576    14050 
426000000    -253.7365    11424.744     12866.21    3542.1154    8136.3648    308.33251    14041 
427000000   -219.14482    11689.736    12954.412    3636.2193    8272.6617    310.44622    14064 
428000000   -247.99979    11628.134    13004.778    3672.9333    8203.2004    311.65322    14041 
429000000   -232.83947    11766.796    13148.977    3838.2845    8161.3506    315.10888    14027 
430000000   -235.32304    11572.699    12879.452    3692.6727    8115.3495    308.64985    14029 
431000000   -243.06225    11643.216    12982.756    3699.1417    8187.1361    311.12549    14040 
432000000   -244.70801    11783.865    12818.751      3735.83    8292.7427    307.19517    14037 
433000000   -230.01793    11864.484    13014.768     3849.993    8244.5085    311.89264    14040 
434000000   -217.76365    11598.547    12862.595    3638.2928    8178.0181    308.24588    14035 
435000000   -244.88346    11784.236    13008.739    3739.3365    8289.7827    311.74815    14049 
436000000   -236.41119    11572.014    12680.826     3747.961    8060.4641    303.88988    14051 
437000000   -240.91601    11649.888    12817.363    3668.2805    8222.5233    307.16191    14073 
438000000   -234.24992    11616.754    13016.272    3627.3912    8223.6127    311.92867    14038 
439000000   -236.09708     11429.89    13011.656    3556.0987    8109.8888    311.81806    14069 
440000000   -226.43732    11734.177    13118.439    3693.9982    8266.6161    314.37707    14033 
441000000   -260.73433    11739.566     12897.45    3750.2691    8250.0312    309.08115    14028 
442000000   -218.77601    11649.922    12973.576    3695.7309     8172.967    310.90548    14040 
443000000   -244.08546    11692.498    12972.709    3666.3503    8270.2331     310.8847    14036 
444000000   -244.62352    11558.167    12888.834    3638.8504    8163.9405    308.87469    14038 
445000000   -220.94717    11686.132    12775.825    3720.5876    8186.4918    306.16647    14037 
446000000   -246.75757    11684.159    12893.925    3742.2313    8188.6853    308.99669    14061 
447000000   -245.93203    11697.994    13046.295    3718.0981    8225.8276    312.64817    14021 
448000000   -209.36967    11581.424    12831.071    3655.7007    8135.0935    307.49042    14053 
449000000   -241.50065    11665.602    12841.312    3646.1226    8260.9801    307.73583    14057 
450000000   -246.44108    11586.766    12910.276    3683.1324    8150.0745    309.38854    14061 
451000000   -250.37525    11672.517    12997.193    3716.4752    8206.4168    311.47146    14027 
452000000   -232.09105     11652.48    12909.612    3662.0324    8222.5391    309.37262    14055 
453000000   -259.49465    11724.468    12848.038    3818.2231    8165.7398    307.89703    14042 
454000000   -231.31414    11585.261    12933.034    3624.9047    8191.6707    309.93391    14062 
455000000   -219.89243    11650.713    12912.575    3593.8189     8276.786    309.44364    14089 
456000000   -215.39812    11730.307    13011.648    3679.3811    8266.3242    311.81787    14055 
457000000    -224.9283    11674.116    12889.192    3690.5684    8208.4761    308.88327    14061 
458000000   -230.89881     11600.75    12986.066    3627.9756    8203.6735     311.2048    14045 
459000000    -224.3261    11459.954    12969.237    3532.6892    8151.5911     310.8015    14075 
460000000   -223.25956    11493.409    13038.723    3627.0139    8089.6546     312.4667    14058 
461000000   -221.18535    11597.956    12880.091    3605.3735     8213.768    308.66516    14084 
462000000   -248.09857    11556.943    13060.698    3570.6857    8234.3563    312.99332    14051 
463000000   -261.79397    11445.283    13042.685    3548.2452    8158.8313    312.56165    14089 
464000000   -250.21102    11633.316    12855.383    3635.7811    8247.7464    308.07306    14064 
465000000   -225.62467    11755.754    12900.702    3863.9324    8117.4466     309.1591    14033 
466000000    -245.7658    11631.082    12899.573    3657.4937    8219.3539    309.13203    14062 
467000000   -282.14944    11548.539     12857.75    3735.3407    8095.3481    308.12978    14014 
468000000   -223.13152    11637.665    13044.722    3728.2526    8132.5443    312.61047    14047 
469000000    -268.2299    11573.896    12934.893    3686.2254    8155.9004    309.97848    14035 
470000000   -235.91858    11656.092    12955.587    3734.6286    8157.3819    310.47439    14003 
471000000   -245.87158    11726.221    13048.374    3718.7142     8253.378    312.69797    14055 
472000000   -246.20147    11652.639    12898.241    3643.2967    8255.5439    309.10011    14053 
473000000   -215.93648    11733.272    12902.078    3760.4901    8188.7185    309.19207    14011 
474000000    -249.3947    11762.907    12888.098    3758.0884    8254.2132    308.85705    13994 
475000000   -233.79183    11673.553    12915.579    3618.7034    8288.6413    309.51562    14060 
476000000   -215.57641    11636.765    12924.712    3677.8005    8174.5413    309.73449    14034 
477000000   -247.75073    11651.094    12930.019    3737.8286    8161.0164    309.86168    14040 
478000000   -243.58187    11666.055    12876.366    3718.8896     8190.747     308.5759    14041 
479000000   -244.28354    11747.499    12804.339    3769.1833    8222.5994    306.84981    14030 
480000000   -230.41746    11758.978    12852.602    3808.2204    8181.1751    308.00641    14035 
481000000   -253.23815    11498.934    12845.292    3715.8124    8036.3592    307.83123    14022 
482000000   -247.33669     11594.33    12926.263      3666.95    8174.7164    309.77166    14062 
483000000   -255.50554    11588.839    12906.827    3656.7171    8187.6279    309.30587    14039 
484000000   -245.93627    11726.521    12755.821    3728.9731    8243.4837    305.68709    14044 
485000000   -225.31063    11554.694    13031.682    3627.5633    8152.4416    312.29796    14061 
486000000   -246.79968    11625.578     12984.56    3709.5994    8162.7787    311.16872    14037 
487000000   -257.38895    11731.125    13034.308    3705.4808    8283.0336    312.36089    14063 
488000000   -239.34266    11637.531    12847.702    3694.6077    8182.2664    307.88897    14036 
489000000   -244.94421      11686.7    12878.077    3647.9985     8283.646    308.61691    14059 
490000000   -215.55792    11600.674    12988.894    3602.4711    8213.7604    311.27257    14064 
491000000   -238.86631    11621.624    12956.018    3597.4336    8263.0563    310.48471    14057 
492000000   -251.22308    11627.843    13049.664    3689.2047    8189.8615     312.7289    14040 
493000000   -239.28879    11624.884    12882.575    3630.7167    8233.4562     308.7247    14049 
494000000   -242.36696     11602.48    13054.094    3617.8623    8226.9849    312.83506    14054 
495000000    -253.6483     11527.03    12982.507    3701.3458    8079.3326    311.11951    14044 
496000000   -223.40904    11523.788    12922.201    3600.2403    8146.9565    309.67432    14065 
497000000   -228.81951    11600.406    13133.597    3669.9389     8159.287    314.74031    14050 
498000000   -242.04776    11599.457     12887.82    3630.8285    8210.6759    308.85038    14031 
499000000   -243.32976    11564.742    12943.214    3668.0289    8140.0429    310.17787    14058 
500000000   -236.51533    11498.025    12874.886    3525.0336    8209.5071    308.54043    14111 
Loop time of 98785.1 on 28 procs for 500000000 steps with 14000 atoms

Performance: 10932.822 ns/day, 0.002 hours/ns, 5061.492 timesteps/s
99.4% CPU use with 28 MPI tasks x no OpenMP threads

MPI task timing breakdown:
Section |  min time  |  avg time  |  max time  |%varavg| %total
---------------------------------------------------------------
Pair    | 7104.1     | 7549.5     | 8638.7     | 282.3 |  7.64
Bond    | 5492.3     | 5658       | 8250.3     | 664.8 |  5.73
Neigh   | 22361      | 22533      | 22797      |  78.9 | 22.81
Comm    | 33454      | 35911      | 37169      | 395.1 | 36.35
Output  | 0.59298    | 0.59366    | 0.5942     |   0.0 |  0.00
Modify  | 20334      | 20502      | 21087      | 109.5 | 20.75
Other   |            | 6631       |            |       |  6.71

Nlocal:    500 ave 523 max 484 min
Histogram: 4 3 4 4 5 2 1 1 2 2
Nghost:    392 ave 533 max 263 min
Histogram: 1 0 4 4 5 8 5 0 0 1
Neighs:    2060.54 ave 2489 max 1739 min
Histogram: 3 4 1 5 4 6 1 1 0 3

Total # of neighbors = 57695
Ave neighs/atom = 4.12107
Ave special neighs/atom = 6.40171
Neighbor list builds = 99878855
Dangerous builds = 0
System init for write_restart ...
Total wall time: 27:26:27
