LAMMPS (5 Jun 2019)
Reading data file ...
  orthogonal box = (-420 -420 -420) to (420 420 420)
  2 by 2 by 7 MPI processor grid
  reading atoms ...
  14000 atoms
  scanning bonds ...
  51 = max bonds/atom
  scanning angles ...
  1 = max angles/atom
  reading bonds ...
  13800 bonds
  reading angles ...
  13600 angles
Finding 1-2 1-3 1-4 neighbors ...
  special bond factors lj:   0          0          0         
  special bond factors coul: 0          0          0         
  2 = max # of 1-2 neighbors
  2 = max # of 1-3 neighbors
  4 = max # of 1-4 neighbors
  56 = max # of special neighbors
  special bonds CPU = 0.0017979 secs
  read_data CPU = 0.0821298 secs
Finding 1-2 1-3 1-4 neighbors ...
  special bond factors lj:   1          1          1         
  special bond factors coul: 0          0          0         
  2 = max # of 1-2 neighbors
  2 = max # of 1-3 neighbors
  4 = max # of 1-4 neighbors
  56 = max # of special neighbors
  special bonds CPU = 0.000763799 secs
WARNING: Using 'neigh_modify every 1 delay 0 check yes' setting during minimization (../min.cpp:168)
Neighbor list info ...
  update every 1 steps, delay 0 steps, check yes
  max neighbors/atom: 2000, page size: 100000
  master list distance cutoff = 26.9
  ghost atom cutoff = 26.9
  binsize = 13.45, bins = 63 63 63
  1 neighbor lists, perpetual/occasional/extra = 1 0 0
  (1) pair lj/cut, perpetual
      attributes: half, newton on
      pair build: half/bin/newton
      stencil: half/bin/3d/newton
      bin: standard
Setting up cg style minimization ...
  Unit style    : real
  Current step  : 0
Per MPI rank memory allocation (min/avg/max) = 1.164 | 13.81 | 17.68 Mbytes
Step Temp E_pair E_mol TotEng Press 
       0            0 1.097855e+12      2649600 1.0978577e+12 5.0804878e+08 
    3165            0    -1749.261     5102.442     3353.181 0.0087270459 
Loop time of 0.686736 on 28 procs for 3165 steps with 14000 atoms

99.1% CPU use with 28 MPI tasks x no OpenMP threads

Minimization stats:
  Stopping criterion = energy tolerance
  Energy initial, next-to-last, final = 
     1.09785765867e+12      3353.38932291      3353.18099319
  Force two-norm initial, final = 8.92234e+10 1.58028
  Force max component initial, final = 1.04805e+09 0.193454
  Final line search alpha, max atom move = 0.612771 0.118543
  Iterations, force evaluations = 3165 3624

MPI task timing breakdown:
Section |  min time  |  avg time  |  max time  |%varavg| %total
---------------------------------------------------------------
Pair    | 0.053691   | 0.1653     | 0.2882     |  16.4 | 24.07
Bond    | 0.014869   | 0.044309   | 0.072912   |   7.2 |  6.45
Neigh   | 0.094419   | 0.095636   | 0.096921   |   0.2 | 13.93
Comm    | 0.096125   | 0.22601    | 0.37657    |  16.7 | 32.91
Output  | 0          | 0          | 0          |   0.0 |  0.00
Modify  | 0          | 0          | 0          |   0.0 |  0.00
Other   |            | 0.1555     |            |       | 22.64

Nlocal:    500 ave 826 max 174 min
Histogram: 1 3 4 4 2 2 8 1 1 2
Nghost:    338.893 ave 565 max 156 min
Histogram: 3 3 2 1 6 7 2 2 1 1
Neighs:    3508.14 ave 5788 max 1093 min
Histogram: 1 4 2 5 2 1 6 2 0 5

Total # of neighbors = 98228
Ave neighs/atom = 7.01629
Ave special neighs/atom = 5.82857
Neighbor list builds = 221
Dangerous builds = 0
Setting up Verlet run ...
  Unit style    : real
  Current step  : 3165
  Time step     : 0.1
Per MPI rank memory allocation (min/avg/max) = 1.128 | 14 | 16.55 Mbytes
Step Temp E_pair E_mol TotEng Press 
    3165            0    -1749.261     5102.442     3353.181 0.0087270459 
   13165    224.51918    -1387.473    8895.1376    16876.482   -1.8588227 
Loop time of 1.17984 on 28 procs for 10000 steps with 14000 atoms

Performance: 73.230 ns/day, 0.328 hours/ns, 8475.742 timesteps/s
99.5% CPU use with 28 MPI tasks x no OpenMP threads

MPI task timing breakdown:
Section |  min time  |  avg time  |  max time  |%varavg| %total
---------------------------------------------------------------
Pair    | 0.052571   | 0.17974    | 0.3307     |  18.7 | 15.23
Bond    | 0.035352   | 0.10324    | 0.17038    |  10.9 |  8.75
Neigh   | 0.0020729  | 0.0021527  | 0.0022284  |   0.1 |  0.18
Comm    | 0.2167     | 0.40901    | 0.60118    |  16.8 | 34.67
Output  | 3.1405e-05 | 5.4158e-05 | 7.6845e-05 |   0.0 |  0.00
Modify  | 0.084909   | 0.24243    | 0.40979    |  16.5 | 20.55
Other   |            | 0.2432     |            |       | 20.61

Nlocal:    500 ave 828 max 175 min
Histogram: 1 3 4 4 2 2 7 2 1 2
Nghost:    339.036 ave 564 max 158 min
Histogram: 3 3 1 3 4 8 2 2 1 1
Neighs:    3521.46 ave 5807 max 1123 min
Histogram: 2 3 2 5 2 1 5 3 0 5

Total # of neighbors = 98601
Ave neighs/atom = 7.04293
Ave special neighs/atom = 5.82857
Neighbor list builds = 5
Dangerous builds = 0
4000 atoms in group rxnSites
Neighbor list info ...
  update every 1 steps, delay 1 steps, check yes
  max neighbors/atom: 2000, page size: 100000
  master list distance cutoff = 26.9
  ghost atom cutoff = 26.9
  binsize = 13.45, bins = 63 63 63
  2 neighbor lists, perpetual/occasional/extra = 1 1 0
  (1) pair lj/cut, perpetual
      attributes: half, newton on
      pair build: half/bin/newton
      stencil: half/bin/3d/newton
      bin: standard
  (2) fix bond/create/random, occasional, copy from (1)
      attributes: half, newton on
      pair build: copy
      stencil: none
      bin: none
Setting up Verlet run ...
  Unit style    : real
  Current step  : 0
  Time step     : 25
Per MPI rank memory allocation (min/avg/max) = 17.88 | 18.29 | 18.88 Mbytes
Step E_pair PotEng KinEng E_bond E_angle Temp Bonds 
       0    -1387.473    7507.6645    9368.8172    3004.7671    5890.3705    224.51918    13800 
 1000000   -253.02204    11693.748    13034.733    3710.2589    8236.5109    312.37108    14033 
 2000000   -260.57804    11828.469    12870.655    3773.9205    8315.1268    308.43904    14028 
 3000000   -239.24515    11797.061    13008.222     3816.571     8219.735    311.73575    14040 
 4000000   -256.83592    11731.158    12989.128    3786.4211    8201.5724    311.27819    14020 
 5000000   -225.36567    11819.934    12885.142    3818.3684    8226.9316     308.7862    14011 
 6000000   -252.40647    11614.847    13017.099    3691.0148     8176.239    311.94849    14034 
 7000000   -244.07741    11728.522    12971.448    3740.7239    8231.8754    310.85448    14018 
 8000000   -259.16863    11569.213    13095.802    3609.2281    8219.1533    313.83458    14053 
 9000000   -252.16641     11682.23    13060.133    3684.3017    8250.0946    312.97978    14051 
10000000   -272.11003     11627.71    12919.407    3697.3384    8202.4816    309.60736    14038 
11000000   -223.23511    11803.253    12984.605    3791.7967     8234.691    311.16979    14022 
12000000   -242.47288    11537.701    13032.465    3590.8918    8189.2823    312.31672    14025 
13000000   -247.30577    11658.092    12996.569    3749.0367    8156.3613    311.45651    14026 
14000000   -236.16053    11758.597    12957.803    3707.0586    8287.6984    310.52749    14034 
15000000   -227.56099    11573.547    13143.961    3759.1904    8041.9178    314.98867    14028 
16000000   -217.02761    11703.509    12871.395    3788.5544    8131.9825    308.45677    14016 
17000000   -228.87955    11789.203    13038.351    3668.7578    8349.3249    312.45779    14056 
18000000   -236.56965    11570.978    13009.812    3643.2697    8164.2783    311.77387    14032 
19000000   -218.01809    11590.101    13009.939    3613.8053    8194.3141    311.77691    14054 
20000000   -249.55257    11729.905    12923.683    3691.2394    8288.2181    309.70982    14029 
21000000   -242.80609    11692.409    13060.509    3641.5751    8293.6405     312.9888    14039 
22000000     -243.224    11754.905    12929.077    3703.2791    8294.8497     309.8391    14063 
23000000   -229.81217    11588.336    12729.977    3591.9354    8226.2128    305.06775    14055 
24000000   -259.53171    11457.189    13067.488    3675.5071    8041.2133    313.15604    14051 
25000000   -248.65577    11745.532    12996.728    3626.1969     8367.991    311.46032    14059 
26000000   -229.72972    11495.354    12942.243    3619.3356     8105.748    310.15462    14057 
27000000   -230.48172    11652.501    12773.254    3643.1023    8239.8804    306.10487    14043 
28000000   -222.26037    11711.034    12687.969    3707.3568    8225.9373    304.06106    14035 
29000000    -221.8843    11780.864    13088.195    3711.2194    8291.5292    313.65229    14019 
30000000   -239.68621    11688.447    12860.262    3692.5548    8235.5786    308.18998    14031 
31000000   -243.25045    11792.788    12928.769    3820.9029    8215.1353    309.83172    14036 
32000000   -239.36988    11829.094    12812.156    3765.7484    8302.7156    307.03713    14005 
33000000   -227.61221    11719.694    12930.669    3734.8013    8212.5053    309.87725    14032 
34000000   -246.60558    11670.166    13114.328    3713.2846    8203.4871    314.27854    14028 
35000000   -263.38346    11733.608    12892.478    3743.2442    8253.7475    308.96202    14048 
36000000   -237.83698    11923.298    12870.863     3772.284    8388.8514    308.44402    14031 
37000000   -245.30903    11685.629    12932.246    3673.8922    8257.0457    309.91503    14043 
38000000   -235.35915    11451.607    12922.076    3609.1387    8077.8276    309.67131    14068 
39000000    -225.7376    11765.057    13003.764    3714.1879    8276.6071    311.62892    14065 
40000000   -235.85939    11504.717    12922.499    3583.6134    8156.9625    309.68145    14065 
41000000    -233.1233    11717.883     13046.25    3757.9182    8193.0881    312.64708    14038 
42000000   -220.76824    11665.565    12861.788    3662.6589    8223.6745    308.22653    14051 
43000000   -254.04529     11550.27    12844.445     3617.881    8186.4345    307.81092    14036 
44000000   -223.88866    11679.829    12946.401     3656.616    8247.1017    310.25426    14053 
45000000   -230.57633    11603.836     12956.71    3676.4366     8157.976    310.50129    14035 
46000000   -246.13469    11641.131    13036.735    3710.0001    8177.2657    312.41907    14046 
47000000   -231.62088    11676.193    12906.882    3623.0515    8284.7627    309.30719    14061 
48000000   -219.02859    11659.445    12910.657    3744.8851    8133.5885    309.39767    14043 
49000000     -247.805    11542.807    13091.374    3693.4976    8097.1146    313.72846    14031 
50000000   -253.75148    11667.458     12929.24    3676.0655    8245.1445    309.84298    14041 
51000000   -236.87809    11591.055    12932.997    3717.0526    8110.8807    309.93304    14035 
52000000   -250.22159    11875.349    12946.012    3788.9811    8336.5898    310.24492    14025 
53000000   -222.38931    11648.211    12965.457    3600.7806    8269.8201    310.71091    14037 
54000000   -252.54654     11693.04    13030.274    3707.3238    8238.2631    312.26423    14023 
55000000   -218.87393    11556.092    12971.489    3677.4422    8097.5242    310.85547    14049 
56000000   -241.87823    11646.702     12909.69    3625.0076    8263.5729     309.3745    14050 
57000000   -231.30952    11600.378    12913.848    3720.4195    8111.2683    309.47413    14031 
58000000   -245.25971      11607.6    13035.314    3668.9962    8183.8638    312.38501    14050 
59000000   -242.35952     11738.37    12940.529    3693.7946    8286.9345    310.11353    14054 
60000000      -236.02    11583.703    12991.948     3739.061    8080.6616    311.34576    14024 
61000000   -228.24801    11605.809    12824.299    3699.6686    8134.3881    307.32813    14049 
62000000   -219.65167    11476.058    13223.894    3584.8883     8110.821    316.90424    14058 
63000000   -235.30082    11665.257    12926.882     3690.858       8209.7     309.7865    14029 
64000000     -257.723    11678.314    12914.716    3745.2449    8190.7926    309.49494    14038 
65000000   -247.31548    11652.549    12961.629     3715.129     8184.735    310.61918    14040 
66000000   -229.80888    11497.331     12876.43    3582.7198      8144.42    308.57742    14067 
67000000   -220.44981     11558.75    12929.596    3623.8867    8155.3134    309.85154    14077 
68000000   -268.25842    11695.317    12930.372     3696.927     8266.648    309.87012    14059 
69000000   -237.51742    11611.066    13127.233    3644.9047     8203.679    314.58779    14029 
70000000   -248.52743     11681.21    12836.789     3659.491    8270.2461    307.62745    14041 
71000000   -264.82717    11522.609    12845.592    3624.2916    8163.1446     307.8384    14048 
72000000   -222.70157    12046.619    12913.255    3903.7653    8365.5553    309.45993    14006 
73000000   -242.82927    11817.698    13003.455    3742.7866    8317.7411    311.62153    14034 
74000000   -233.72467    11630.514    12913.853     3653.246     8210.993    309.47425    14049 
75000000   -224.86962    11598.887    12954.993    3640.5531    8183.2037    310.46016    14044 
76000000    -231.2892      11666.2    13091.983    3746.2091    8151.2802    313.74306    14030 
77000000   -238.61911    11819.548    12948.203    3792.4976    8265.6694    310.29743    14004 
78000000   -225.05946    11675.002    12860.742    3693.3806    8206.6805    308.20148    14015 
79000000   -259.12227    11665.287    12979.217    3657.0294    8267.3797    311.04067    14056 
80000000   -220.22599    11608.874    12891.181    3626.3197    8202.7803    308.93092    14056 
81000000    -238.1535    11824.287    12993.911    3831.2507    8231.1894     311.3928    13998 
82000000   -227.58027    11717.596    12867.478    3759.5113    8185.6647    308.36291    14014 
83000000   -224.23838    11736.575    12844.832    3691.7313    8269.0824    307.82019    14029 
84000000   -264.45442    11777.454    13002.229    3722.2849    8319.6231    311.59213    14033 
85000000   -230.89328      11822.8    12863.942    3878.7331    8174.9602    308.27817    13997 
86000000   -229.18893    11698.636    13007.478    3697.0782    8230.7464    311.71793    14024 
87000000   -220.15692    11706.029    12853.868    3759.5089    8166.6772    308.03674    14055 
88000000    -226.3032    11677.287    12879.182    3668.1098    8235.4803    308.64338    14047 
89000000   -231.23133    11617.539    12830.091    3706.8133    8141.9571    307.46694    14046 
90000000   -241.45268    11607.509    12959.341    3667.4716    8181.4902    310.56434    14069 
91000000   -248.89002    11700.897    12931.633    3711.7595    8238.0279    309.90035    14031 
92000000   -230.12572    11783.995    12868.626    3777.1265    8236.9945    308.39041    14033 
93000000   -237.92473     11873.82    12807.693    3757.7252    8354.0198    306.93017    14016 
94000000   -238.40606    11716.939    12858.673    3713.0319    8242.3135    308.15188    14040 
95000000   -254.99725    11643.898    13000.415    3688.6013    8210.2936    311.54866    14059 
96000000   -256.01165    11676.126    13034.149     3700.174    8231.9632    312.35709    14033 
97000000   -237.29036    11682.767    12829.858     3708.854    8211.2029    307.46136    14024 
98000000   -238.53794    11722.573    12947.765    3791.5984    8169.5127    310.28694    14025 
99000000    -245.3617    11691.181    12956.834    3785.8628    8150.6798    310.50427    14028 
100000000   -232.61277    11639.897    12889.802    3718.8371    8153.6724    308.89788    14038 
101000000   -220.57986    11640.468    12880.287    3614.8808    8246.1675    308.66987    14065 
102000000   -234.10119    11814.465    12978.332    3737.2755    8311.2909    311.01947    14026 
103000000    -246.1034     11578.87    13232.699    3631.0386    8193.9345    317.11525    14048 
104000000   -221.18489    11543.328    12938.615     3623.467    8141.0455    310.06766    14055 
105000000   -211.95898    11592.824    12955.403     3673.958    8130.8248    310.46998    14047 
106000000   -257.62549    11744.325    12920.677    3691.4286    8310.5219     309.6378    14052 
107000000   -239.16523    11615.049    12937.167     3684.656    8169.5584    310.03295    14066 
108000000   -251.18915    11681.903    12818.634    3717.1623    8215.9294    307.19237    14051 
109000000   -235.11891    11597.452    12982.001    3631.8276    8200.7431    311.10738    14057 
110000000    -258.2858    11732.475    12803.238    3724.6863    8266.0743    306.82343    14025 
111000000   -248.49515    11631.407    13028.389    3629.2837    8250.6186    312.21904    14039 
112000000   -233.61075    11623.119    12933.735    3588.4892    8268.2403     309.9507    14065 
113000000   -229.30135    11662.476    13100.478    3645.6031    8246.1744    313.94663    14055 
114000000   -256.16616    11823.754    12930.928    3780.4047    8299.5157    309.88344    14045 
115000000   -237.74124    11611.086    12826.295    3671.4787     8177.349    307.37596    14058 
116000000   -243.73686    11690.363    12919.252    3672.8626    8261.2369    309.60363    14036 
117000000   -240.69813    11634.039    12826.952    3696.9448    8177.7921    307.39171    14066 
118000000   -243.94717    11767.566    12856.566    3660.2822    8351.2314    308.10139    14068 
119000000   -228.60162    11688.573    12941.984    3629.6673    8287.5071    310.14841    14053 
120000000    -251.2335    11568.377    12866.901    3626.0419    8193.5689    308.34907    14086 
121000000   -237.72654    11715.859    12900.606    3734.3159      8219.27    309.15679    14014 
122000000   -241.92729    11673.385    12835.067    3609.3199    8305.9925    307.58617    14057 
123000000   -217.11707    11671.048    12918.129    3703.8274    8184.3378    309.57673    14050 
124000000   -244.18145      11564.4    12820.224    3644.8358    8163.7454    307.23047    14051 
125000000   -237.98456    11709.643    12957.629     3668.628    8278.9999    310.52332    14039 
126000000   -229.97386    11583.079    12976.266    3626.2802    8186.7726    310.96995    14059 
127000000   -255.04017    11531.578    12914.042    3652.3937    8134.2246    309.47877    14036 
128000000   -249.18711    11566.703    12768.102    3677.2034    8138.6869    305.98141    14043 
129000000   -231.30958    11478.965     12952.14     3550.643    8159.6314    310.39178    14060 
130000000   -230.81254    11711.607     12918.26    3694.9054    8247.5143    309.57986    14067 
131000000    -226.2563     11562.71    12985.792    3641.8175    8147.1491    311.19824    14052 
132000000   -244.97095     11716.41    12924.992    3650.7599    8310.6207    309.74119    14069 
133000000   -228.33245    11678.485    13062.479     3684.661    8222.1562    313.03601    14030 
134000000   -246.15678    11713.805     12891.42    3710.3007    8249.6616    308.93666    14040 
135000000   -246.88183    11724.488    12903.095    3786.6107    8184.7594    309.21645    14029 
136000000   -219.50799    11604.112    13040.944     3718.356    8105.2638    312.51994    14030 
137000000   -257.33102    11645.996    12862.951    3686.1009    8217.2259    308.25441    14064 
138000000   -242.13874    11680.814    13007.069    3794.8928    8128.0596    311.70814    14025 
139000000   -259.62722    11690.364     12868.88    3718.3035    8231.6876    308.39649    14021 
140000000   -248.89387    11613.701    13030.912    3633.5237    8229.0714    312.27952    14038 
141000000   -235.48284    11589.119    12946.684    3725.7648    8098.8372    310.26102    14049 
142000000   -218.81405    11672.706    13012.938    3668.7811    8222.7387    311.84877    14047 
143000000    -236.3217     11589.36    13041.794    3595.5655     8230.116    312.54029    14048 
144000000   -244.37256    11721.645    13058.295     3683.613    8282.4046    312.93574    14053 
145000000   -249.64928    11731.825    12933.989    3723.2495    8258.2253     309.9568    14046 
146000000   -225.75078    11482.037    13004.749    3615.0758     8092.712    311.65253    14040 
147000000   -238.54281    11699.433    12929.901    3725.6892    8212.2861    309.85883    14049 
148000000   -237.37436    11584.347    12959.435    3642.9903    8178.7314     310.5666    14063 
149000000    -235.4291    11718.414    13040.269    3626.7808    8327.0625    312.50375    14058 
150000000   -246.20037     11656.82    12985.449    3665.6712    8237.3494    311.19001    14023 
151000000   -250.87767    11569.285    12903.124    3657.9209    8162.2415    309.21714    14060 
152000000   -250.91294    11587.927    12963.707    3580.7055    8258.1345    310.66899    14081 
153000000   -244.14041    11685.741    12952.635    3664.1042    8265.7768    310.40365    14031 
154000000   -222.41429    11659.882    12987.563    3690.7937    8191.5024    311.24067    14038 
155000000   -243.99771     11709.28    12815.634    3838.9671    8114.3103    307.12048    14006 
156000000   -236.08614    11735.351    12835.728    3742.0592    8229.3778    307.60203    14013 
157000000   -229.51997    11841.359    12918.989    3876.3134    8194.5659    309.59733    14009 
158000000   -257.45088    11683.142    12887.596    3697.4631    8243.1295    308.84501    13999 
159000000   -242.17418    11669.809    12865.821    3656.7386    8255.2447    308.32319    14046 
160000000    -259.8911    11448.954    12996.041    3638.7977    8070.0478    311.44386    14043 
161000000   -256.91528    11687.839    12990.397    3788.4873    8156.2665    311.30859    14006 
162000000   -249.73719    11645.647    13175.833    3703.6026    8191.7812    315.75248    14023 
163000000   -256.44747    11593.429    12895.626    3715.9446    8133.9319    309.03746    14026 
164000000   -260.55959    11602.607    12916.337    3648.0456    8215.1206    309.53379    14012 
165000000   -203.19217    11560.852    12977.959    3636.8899    8127.1543    311.01053    14062 
166000000   -246.98276    11608.226    12858.737    3714.9516    8140.2573    308.15342    14026 
167000000    -251.4832    11703.492    12965.463    3687.4571    8267.5183    310.71106    14032 
168000000   -255.59164     11616.82    13001.511    3668.1612    8204.2501    311.57493    14054 
169000000   -238.13567    11648.892    13079.019    3648.4226    8238.6051    313.43237    14055 
170000000   -233.64049    11725.941    12835.314    3744.0281    8215.5533    307.59211    14038 
171000000   -235.78438    11823.884    12839.899    3849.7178    8209.9509    307.70198    14023 
172000000   -210.72666    11852.266    12911.898    3807.7093    8255.2838     309.4274    14011 
173000000   -220.30557    11722.496    12990.311    3773.7542     8169.047    311.30654    14011 
174000000   -218.65378    11702.063    12989.873    3811.1827     8109.534    311.29604    14027 
175000000   -249.61852    11720.106    12863.001    3707.3884    8262.3365    308.25561    14041 
176000000   -240.58597    11535.988    12851.212    3554.0688    8222.5047    307.97308    14028 
177000000   -257.14309    11899.859    12923.078    3815.1702    8341.8322    309.69533    14012 
178000000   -228.72277    11581.259    12904.204    3640.4072     8169.575    309.24303    14032 
179000000   -223.99297    11565.244    12906.851    3681.2644    8107.9724    309.30646    14053 
180000000   -225.18926    11694.199    12705.372    3680.0168    8239.3719    304.47811    14037 
181000000   -244.62028    11595.558    13111.447    3704.2713    8135.9073    314.20949    14028 
182000000   -235.44243    11769.932    12942.012    3708.1951     8297.179    310.14906    14025 
183000000   -200.89947    11592.213    13075.394     3666.986    8126.1263     313.3455    14062 
184000000   -241.77215    11604.582    12977.638    3588.2802    8258.0742    311.00282    14053 
185000000   -216.20777    11659.423    12906.858    3662.2099    8213.4209    309.30661    14040 
186000000   -247.42078    11876.976    13058.368    3767.3441    8357.0523    312.93749    14023 
187000000   -243.59105    11672.736    12908.747    3666.2867    8250.0399    309.35188    14037 
188000000   -237.33737    11588.312    13065.565      3669.01    8156.6396    313.10995    14048 
189000000   -240.32387    11703.447    12868.752    3637.5918    8306.1788    308.39343    14047 
190000000    -234.2813    11717.508    12887.073    3667.2796    8284.5095    308.83249    14043 
191000000   -240.69673    11654.742    12957.358    3652.1054    8243.3337    310.51682    14054 
192000000   -244.36765    11716.711    13122.974    3706.4813    8254.5969    314.48572    14018 
193000000   -245.65384      11552.7     12849.65    3628.2526    8170.1013    307.93565    14056 
194000000   -230.76324      11466.4    12915.475    3692.3208    8004.8423    309.51313    14049 
195000000   -252.12165    11660.167    12892.059    3695.9677     8216.321    308.95196    14072 
196000000   -254.14285    11645.418    13064.275    3739.0478    8160.5128    313.07904    14037 
197000000   -237.70553    11581.012    12803.399    3658.6235    8160.0935    306.82728    14040 
198000000   -236.88573    11656.602    12941.889     3766.737     8126.751    310.14612    14029 
199000000   -243.08967    11683.899    12929.823    3710.3785    8216.6104    309.85696    14032 
200000000   -233.50002     11772.96    12842.228     3761.733    8244.7267     307.7578    14032 
201000000   -230.44441    11594.716     12934.86    3621.6351    8203.5249    309.97768    14044 
202000000   -247.99725     11498.04    12866.082    3519.0701    8226.9676    308.32944    14048 
203000000    -237.5402    11596.572    12857.229    3670.4526    8163.6596    308.11729    14040 
204000000   -252.16066    11635.153     12921.11    3710.9456    8176.3677    309.64816    14056 
205000000   -265.89012    11686.333    12972.486    3820.2881    8131.9355    310.87937    14011 
206000000     -267.117    11674.613     12828.97    3692.3143    8249.4161    307.44007    14046 
207000000   -234.55519    11717.162    12857.824    3765.8217    8185.8958    308.13155    14031 
208000000   -241.67036    11715.865     12903.95    3764.6217    8192.9132    309.23693    14021 
209000000   -243.90841    11520.982    13126.929    3657.6368    8107.2537    314.58051    14043 
210000000   -236.23365     11689.24    12863.566    3776.7913    8148.6825    308.26914    14026 
211000000   -240.31195     11647.87    13103.194    3611.9573    8276.2251    314.01173    14069 
212000000   -267.21768    11664.044    12933.241     3695.043    8236.2187    309.93888    14059 
213000000   -237.71449    11860.755    12988.378    3783.5747    8314.8948     311.2602    14034 
214000000   -270.12827    11560.504    12934.554    3598.4315    8232.2006    309.97035    14028 
215000000   -230.32721    11658.353    12980.494    3682.1357    8206.5447    311.07127    14030 
216000000   -236.03993    11517.971    12871.023     3628.738    8125.2733    308.44785    14066 
217000000   -260.35044     11671.02    12831.527    3713.4015    8217.9686    307.50136    14026 
218000000    -229.4764    11641.095    12917.277    3719.0411    8151.5298     309.5563    14023 
219000000   -237.96996    11728.373    12797.136    3712.7244    8253.6188     306.6772    14042 
220000000   -255.41418    11560.101    12997.182    3641.6712    8173.8437    311.47118    14048 
221000000   -249.29199    11673.686    12856.259    3686.2734    8236.7047    308.09403    14046 
222000000   -248.45857    11535.982    12961.465    3668.0059    8116.4346    310.61524    14044 
223000000   -253.78728    11797.224    12914.765    3740.7324     8310.279     309.4961    14010 
224000000   -236.63885    11649.539    12928.692    3664.6889    8221.4892    309.82987    14042 
225000000   -258.45913     11683.44    12944.342    3770.4121    8171.4871    310.20491    14020 
226000000    -240.5173    11741.624    12812.658    3755.8863     8226.255    307.04915    14018 
227000000   -254.85343    11623.138    13042.215    3662.9414    8215.0499    312.55038    14040 
228000000   -238.16654    11660.795    13082.062    3701.2212    8197.7401     313.5053    14070 
229000000   -276.82194    11569.337    13076.999    3666.3478    8179.8116    313.38396    14039 
230000000   -245.28017    11766.569    12868.212    3698.3717    8313.4773    308.38049    14018 
231000000   -236.58964    11755.601    13081.247    3762.8844    8229.3063    313.48576    14031 
232000000   -254.89967    11582.064    12958.437    3686.6925    8150.2708     310.5427    14056 
233000000   -257.21965    11659.433    12838.145     3717.745    8198.9079    307.65995    14023 
234000000   -246.62582    11712.072     13013.99    3629.4027    8329.2949    311.87399    14067 
235000000   -253.31644    11621.604    12890.131    3650.7848    8224.1357    308.90578    14043 
236000000   -253.34591    11826.402    12920.523    3743.2185    8336.5293    309.63411    14028 
237000000   -254.74771    11733.452     12821.96    3687.0808    8301.1186    307.27209    14057 
238000000   -247.28043    11776.362    13021.694     3791.268    8232.3741    312.05861    14046 
239000000   -245.40976    11667.985    12852.023    3664.8773    8248.5176    307.99253    14049 
240000000   -229.82569    11659.244    12977.341    3720.4621    8168.6074    310.99571    14020 
241000000   -238.24411    11561.378     12985.02    3631.0407    8168.5813    311.17974    14041 
242000000    -253.1732    11569.851    13070.118    3607.4798    8215.5448    313.21908    14062 
243000000   -241.66935    11673.573    12870.015    3704.0162    8211.2259    308.42369    14035 
244000000   -254.17703    11644.536    12874.519    3716.3993    8182.3142    308.53163    14041 
245000000   -250.86788    11803.928    12740.286    3800.8998    8253.8962    305.31481    14045 
246000000   -252.80332    11525.435    12911.056    3596.2872    8181.9514    309.40724    14050 
247000000   -237.70618    11640.286    12895.249    3709.3977    8168.5945    309.02843    14021 
248000000   -264.19449    11671.513    12823.773    3718.8801    8216.8273    307.31552    14045 
249000000   -250.39128    11570.099    12851.032    3639.1042    8181.3863    307.96878    14036 
250000000   -252.82645    11673.354    12803.335    3665.7381    8260.4426    306.82574    14039 
251000000   -228.33773    11662.354    12947.251    3634.6999    8255.9921    310.27461    14032 
252000000   -236.67217    11700.278    12966.744     3707.565    8229.3853    310.74175    14025 
253000000   -230.53782    11632.881    12835.379    3668.0163    8195.4028    307.59367    14036 
254000000   -226.10426    11752.984    12798.005    3769.6485    8209.4402    306.69801    14035 
255000000   -238.02562    11678.877    12882.448    3685.1345    8231.7677    308.72166    14026 
256000000   -248.94146    11734.043    12964.397     3768.096    8214.8885    310.68552    14002 
257000000   -222.82098    11636.754    12964.839    3759.3797    8100.1957     310.6961    14000 
258000000   -239.78015    11578.737    12959.474     3646.924    8171.5928    310.56755    14032 
259000000   -229.20653     11601.23     12942.86     3556.186    8274.2508    310.16939    14033 
260000000   -232.08169    11711.947    12973.137    3677.8703    8266.1583    310.89496    14051 
261000000   -245.98569    11773.876    12958.474    3747.7929    8272.0686    310.54357    14038 
262000000   -255.83621    11725.862    12843.542    3730.5593    8251.1389    307.78928    14022 
263000000   -245.24327     11625.04    12923.809    3580.5211    8289.7624    309.71285    14080 
264000000    -221.9115    11728.453    12802.011    3672.5606    8277.8034    306.79401    14051 
265000000   -234.77406    11582.481    12859.532    3660.7684    8156.4867    308.17247    14052 
266000000   -250.90053    11595.464    12961.961    3673.9205    8172.4437    310.62713    14040 
267000000   -241.88929    11684.977    13035.479    3693.5728    8233.2931    312.38897    14070 
268000000   -244.41876    11758.521    13008.302    3748.2732    8254.6667    311.73769    14047 
269000000   -250.54121    11544.403    13009.251    3660.4795    8134.4651    311.76042    14043 
270000000   -228.99937    11582.956    12896.367    3679.4513    8132.5041    309.05521    14053 
271000000   -239.25029    11819.897    12975.869     3753.054    8306.0931    310.96044    14041 
272000000    -238.2989    11781.221    12781.425    3757.8554     8261.664    306.30069    14045 
273000000   -259.21051    11629.521    12857.317    3666.8461    8221.8852     308.1194    14042 
274000000   -218.27073    11696.636    12994.062    3735.4626    8179.4441    311.39641    14020 
275000000   -232.31172    11651.957    12786.001    3632.9485    8251.3203    306.41034    14073 
276000000   -242.02611    11565.261    12836.093    3622.9208    8184.3665    307.61078    14086 
277000000   -238.48597    11687.383    13014.152    3733.5126    8192.3566    311.87787    14042 
278000000   -236.19714    11721.608    12949.917     3702.517    8255.2883    310.33851    14045 
279000000   -259.67497    11652.221    12702.762    3626.7274    8285.1684    304.41555    14076 
280000000   -260.54757    11649.642    13031.267    3677.3057    8232.8843    312.28802    14057 
281000000   -250.18109    11682.517    12982.355    3706.2431    8226.4552    311.11588    14042 
282000000   -236.64598    11740.301    12872.398    3737.1767    8239.7705     308.4808    14022 
283000000   -233.28182    11786.766     12945.65    3724.6763    8295.3712    310.23626    14042 
284000000   -223.04441    11672.915    12815.401    3613.0865    8282.8733    307.11489    14045 
285000000   -245.85259    11505.759     12859.67    3629.1651     8122.446    308.17577    14044 
286000000    -276.9024    11774.452    12763.832    3709.1898    8342.1651    305.87906    14043 
287000000   -237.50474    11616.031    12924.519    3640.7728    8212.7629    309.72987    14063 
288000000   -255.77511    11558.855    12962.411    3660.3434    8154.2868    310.63791    14053 
289000000   -235.47985    11779.283    12905.632    3856.8041    8157.9583    309.27723    14007 
290000000   -249.85974    11641.191     12960.77     3726.633    8164.4181     310.5986    14036 
291000000    -240.3799     11788.89    13057.433    3847.0919    8182.1778    312.91508    14023 
292000000   -235.16119    11744.766    13000.633    3654.2727    8325.6544     311.5539    14023 
293000000   -251.32093    11783.366    12902.911     3749.044    8285.6432    309.21204    14020 
294000000   -235.10166    11487.275     13017.87    3602.2537    8120.1234    311.96698    14030 
295000000   -246.29371    11603.144    12917.051    3679.5432    8169.8943    309.55088    14039 
296000000   -221.19677    11519.262    13045.975    3617.5049    8122.9542     312.6405    14069 
297000000   -243.31291    11686.898        12970      3773.08    8157.1311    310.81978    14034 
298000000   -220.99204    11681.052    12988.328     3664.399    8237.6448    311.25901    14051 
299000000   -244.76136    11698.599    12861.247     3662.845    8280.5151    308.21358    14034 
300000000   -242.85399    11678.765    12855.739    3737.5651    8184.0536    308.08157    14039 
301000000    -233.6133    11852.292    13012.734    3799.2509    8286.6539    311.84388    14024 
302000000   -250.80029    11728.423    12850.739    3740.5674    8238.6561    307.96177    14016 
303000000   -262.69059     11727.71    13011.887    3773.4561    8216.9444    311.82358    14015 
304000000   -245.02563    11872.391    12982.902    3721.4549    8395.9613    311.12899    14058 
305000000    -265.3843     11714.21    12975.376    3670.1977    8309.3968    310.94863    14053 
306000000   -243.44815    11614.696    12954.731    3656.6217    8201.5222    310.45387    14069 
307000000   -214.40732    11613.549    12835.071    3676.0793     8151.877    307.58627    14058 
308000000   -245.53352    11720.828      12800.5    3769.0682    8197.2929    306.75781    14020 
309000000   -235.59921    11578.636     12880.75    3677.9358    8136.2991    308.68095    14051 
310000000   -243.17851     11651.61    12850.805    3786.5117    8108.2767    307.96334    14043 
311000000   -230.86527    11539.976    13142.865    3596.1205    8174.7209    314.96242    14047 
312000000   -231.22755     11758.67     13027.11    3749.7109    8240.1863    312.18841    14050 
313000000   -209.33575    11563.978    12967.572    3675.0603    8098.2534    310.76161    14080 
314000000   -224.43287    11627.815    12946.372    3627.6578    8224.5897    310.25356    14052 
315000000   -247.44587    11709.975     12990.44    3687.9111    8269.5096    311.30963    14041 
316000000   -254.21028    11622.616    12847.012    3713.9774    8162.8491    307.87243    14032 
317000000    -256.7274    11667.364    12809.355    3717.4286    8206.6631    306.97002    14044 
318000000   -262.63083    11584.815    12951.152    3740.6188    8106.8274    310.36811    14048 
319000000    -238.6258    11690.498    12874.304     3639.379    8289.7448    308.52647    14054 
320000000   -250.05091    11666.676    12797.355    3655.7836    8260.9431    306.68244    14043 
321000000     -241.897    11686.974    12806.029    3602.7815    8326.0896     306.8903    14039 
322000000   -234.35265    11562.438    13037.152    3642.2141     8154.577    312.42906    14050 
323000000    -218.6336    11563.876     12886.81    3673.7321    8108.7778    308.82619    14061 
324000000   -230.85623    11760.154    12905.754    3812.9597    8178.0504    309.28017    14027 
325000000   -239.95321    11634.785    12964.335    3730.5659     8144.172    310.68403    14033 
326000000   -236.55935    11570.791    12994.657    3605.4249    8201.9254    311.41068    14029 
327000000    -222.1789    11529.696     12888.23     3714.951    8036.9235    308.86021    14042 
328000000   -254.04658    11758.834    12740.994    3707.8017    8305.0793    305.33177    14015 
329000000   -227.11856    11788.857    13001.512    3739.2938    8276.6819    311.57497    14021 
330000000   -264.88175    11640.809    12962.383    3765.9431    8139.7479    310.63725    14027 
331000000   -224.97816    11619.127    12819.397    3686.0485    8158.0565    307.21067    14038 
332000000    -229.2517    11664.923     13026.34     3666.343    8227.8318    312.16995    14063 
333000000   -215.87261    11654.017    12808.854    3765.7734    8104.1157      306.958    14043 
334000000   -230.82751    11657.004    12788.115    3636.4545    8251.3768      306.461    14044 
335000000   -229.52095    11540.903    13009.505     3650.686    8119.7384    311.76651    14046 
336000000   -235.64496    11629.009    12975.757    3744.1582    8120.4953    310.95774    13996 
337000000   -249.67333    11614.314     12971.16    3755.1741    8108.8135    310.84758    14028 
338000000   -215.34419    11587.519    12892.549    3636.3273    8166.5355    308.96372    14035 
339000000   -256.40107    11692.924    12917.599    3640.0529    8309.2726    309.56403    14031 
340000000   -238.12052    11674.977    12785.992    3657.8915    8255.2057    306.41012    14044 
341000000   -242.44452    11642.059    12893.888    3757.4813    8127.0219    308.99579    14024 
342000000   -239.55314    11609.798      12981.3     3761.091    8088.2603    311.09059    14026 
343000000   -237.74928    11619.352    12993.587     3645.875     8211.226    311.38505    14049 
344000000   -256.28331    11622.037    13012.978    3658.6876    8219.6328    311.84975    14023 
345000000   -227.46464     11803.16    12940.919    3733.5735    8297.0512    310.12288    14038 
346000000   -217.68901    11655.278    13034.914     3607.102    8265.8651    312.37542    14042 
347000000   -239.64742    11790.881    12846.791    3797.7174    8232.8107    307.86715    14043 
348000000   -246.00157    11635.943    13053.722    3609.8284     8272.116    312.82614    14046 
349000000   -241.89132    11498.355    12888.878    3582.3898    8157.8562    308.87574    14062 
350000000    -223.1509    11629.647    12922.381    3717.6547    8135.1428    309.67863    14025 
351000000   -237.73443     11759.96    12925.957     3739.957     8257.737    309.76432    14062 
352000000   -237.41662    11635.833    12870.814     3791.923    8081.3263    308.44285    14055 
353000000   -246.98332    11607.957    12955.346    3618.1905    8236.7495    310.46862    14056 
354000000    -233.3554    11748.748     12995.29    3742.0553    8240.0481    311.42585    14044 
355000000   -251.71401    11664.188    12828.208     3654.623    8261.2786     307.4218    14042 
356000000   -227.14773    11673.832    12879.854     3644.192    8256.7881    308.65948    14076 
357000000   -228.19554    11605.849    12930.527    3636.8586    8197.1857    309.87384    14051 
358000000   -245.92743    11629.263    12899.326    3704.2811    8170.9089    309.12612    14044 
359000000   -205.65829    11707.008    12987.201    3725.1604    8187.5056      311.232    14047 
360000000   -263.33654    11723.067    12898.535    3685.8351    8300.5689    309.10716    14057 
361000000    -268.2449    11619.008    12947.853    3649.6467     8237.606    310.28906    14035 
362000000   -235.89617    11717.335    12873.705    3763.4474    8189.7836    308.51214    14046 
363000000   -236.28567    11676.367      12976.1    3712.7897    8199.8635    310.96597    14037 
364000000   -238.01349    11636.481    12919.714    3691.4783    8183.0157    309.61472    14035 
365000000   -252.18312    11551.791    12869.816    3624.1392     8179.835    308.41894    14065 
366000000   -239.44076    11562.219    13108.749    3663.3553    8138.3049    314.14483    14068 
367000000   -233.49993    11569.873    12966.632    3692.6186    8110.7539    310.73909    14031 
368000000   -243.55914     11695.36    12883.943     3755.472    8183.4468    308.75747    14026 
369000000   -239.24943    11799.072    12995.895    3781.5229     8256.799    311.44036    14032 
370000000   -225.99884    11695.391    13024.025    3639.6457    8281.7437    312.11446    14048 
371000000   -238.20097    11721.506    12969.053    3775.5053     8184.202    310.79708    14020 
372000000   -258.60545    11622.892    12855.876    3695.9594    8185.5377    308.08486    14034 
373000000    -241.9488    11611.555    12974.782     3678.681    8174.8228    310.93439    14049 
374000000   -233.76039    11658.498    12871.787     3667.591    8224.6676    308.46617    14031 
375000000   -246.39606    11646.136    12746.864    3668.8981    8223.6342    305.47243    14064 
376000000   -214.07464     11796.25    12873.345    3748.0436    8262.2815     308.5035    14031 
377000000   -228.78211    11625.652    12960.618    3654.2532    8200.1807    310.59495    14055 
378000000   -247.44502      11752.8     12908.62    3723.5404    8276.7042    309.34884    14049 
379000000   -242.57047    11667.704    12825.883    3605.4753    8304.7996     307.3661    14044 
380000000   -227.86474    11601.851    12850.666    3685.4389    8144.2765       307.96    14046 
381000000   -249.79506    11456.655     12974.98    3568.5797    8137.8701    310.93914    14096 
382000000   -251.58521    11559.916    12974.534    3735.3955    8076.1062    310.92844    14036 
383000000   -233.04301     11672.89    13068.555    3698.4907    8207.4422     313.1816    14024 
384000000   -227.91863    11764.062    12869.517    3721.5392    8270.4415    308.41175    14036 
385000000   -257.87036    11520.432    12882.684    3595.0545    8183.2477     308.7273    14034 
386000000   -250.32831    11597.672    13091.542    3655.1941    8192.8059    313.73249    14010 
387000000   -247.32014    11799.533      13046.1    3701.6055    8345.2481    312.64348    14045 
388000000   -239.29299    11665.546    12901.509     3663.414    8241.4246    309.17844    14058 
389000000   -247.97637    11676.876    12888.316    3736.2357    8188.6165    308.86227    14031 
390000000   -249.18835    11591.116    12934.532    3550.1478    8290.1562    309.96981    14060 
391000000   -227.48441    11438.931    12995.583    3587.8974     8078.518    311.43287    14072 
392000000   -229.20351    11690.017     12720.23    3685.9093    8233.3115    304.83418    14042 
393000000   -226.37889    11568.745    12793.388    3610.8552    8184.2689    306.58737    14069 
394000000   -251.20141    11849.264    12918.983    3810.7078    8289.7575     309.5972    14031 
395000000   -238.75596    11751.257     12861.03    3696.4745    8293.5383    308.20837    14024 
396000000    -225.4561    11648.082    13105.214    3624.1012     8249.437    314.06012    14043 
397000000   -244.17422    11773.382    12797.937    3819.3379    8198.2185    306.69639    14035 
398000000   -232.06897    11590.788    12953.783    3680.7026    8142.1548    310.43116    14030 
399000000   -249.96422    11634.254    12967.593    3703.7744    8180.4435    310.76211    14034 
400000000   -253.21795    11678.293    12903.789    3717.7836     8213.727    309.23307    14020 
401000000   -258.19692    11582.491    13009.848    3594.4418    8246.2462    311.77472    14074 
402000000   -220.72234    11770.361    13044.497     3758.442    8232.6416    312.60508    14011 
403000000    -243.1384    11624.258    13010.393    3735.9025    8131.4934    311.78779    14019 
404000000   -206.92951    11746.079    12817.974    3673.7462    8279.2621    307.17657    14052 
405000000   -213.21721    11738.599     12941.02    3728.2541    8223.5623    310.12529    14034 
406000000   -232.61183    11673.535    12824.908    3729.9516    8176.1954    307.34272    14009 
407000000   -215.41099    11750.754    12985.661    3693.8082    8272.3564    311.19509    14026 
408000000   -237.82142    11675.711    12900.412    3687.8315    8225.7012    309.15215    14040 
409000000   -235.29228    11602.772    13105.692    3662.2574    8175.8072    314.07158    14039 
410000000   -222.31799     11617.67    12752.209    3672.7219    8167.2665    305.60054    14062 
411000000   -228.71657    11765.974     12963.95    3763.7616    8230.9294     310.6748    14052 
412000000   -255.80215    11636.984    12979.077    3743.2996     8149.487    311.03731    14014 
413000000   -248.21528    11560.664    12877.862    3624.3698    8184.5098    308.61176    14068 
414000000   -236.05185    11574.009    12846.882    3689.0883    8120.9727    307.86932    14070 
415000000   -239.36916     11598.38    12977.995    3588.6307    8249.1189    311.01139    14043 
416000000    -233.1115    11653.874    12816.673     3669.605    8217.3806    307.14539    14051 
417000000   -243.62297    11600.948    12955.084    3685.5819    8158.9893    310.46234    14043 
418000000    -260.0366    11704.942    12843.334    3714.5426    8250.4359     307.7843    14037 
419000000    -237.9704    11915.916    12921.615    3867.4669    8286.4199    309.66027    14005 
420000000   -249.74208    11490.661    12887.047     3602.197     8138.206    308.83186    14058 
421000000   -219.30074    11766.323    13071.005    3755.6729    8229.9506    313.24033    14060 
422000000   -251.73375    11765.393    13028.176    3645.9683    8371.1588    312.21396    14063 
423000000   -233.31875    11729.919    12987.719    3735.9675    8227.2703    311.24442    14049 
424000000   -218.39386    11721.892     12961.14    3712.7854    8227.5001    310.60746    14023 
425000000   -247.11578    11545.959    12875.665    3661.1388    8131.9364     308.5591    14026 
426000000   -231.13578    11716.159    12948.485    3694.4434    8252.8517    310.30419    14051 
427000000   -238.12942     11647.92    12997.163    3647.7901    8238.2596    311.47075    14080 
428000000   -239.91153    11644.585    12856.311    3719.1617    8165.3351    308.09529    14056 
429000000   -257.18627     11606.92     12936.18    3776.4792    8087.6267     310.0093    14058 
430000000    -248.3129    11686.859     12915.92    3697.0541    8238.1179    309.52379    14056 
431000000    -223.4651    11507.893    12871.639    3676.1788    8055.1792    308.46263    14048 
432000000   -246.81309    11753.348    12957.333    3768.9527    8231.2086    310.51623    14032 
433000000   -246.34542    11679.241    13001.379    3776.5021    8149.0849    311.57176    13992 
434000000   -253.57613    11791.576    12796.346    3794.2166    8250.9359    306.65824    14028 
435000000   -228.59305    11662.411    12948.709    3719.4502    8171.5538    310.30956    14029 
436000000   -247.09134    11826.256    12994.359    3741.4446    8331.9023    311.40353    14039 
437000000    -235.3617    11620.507    12951.655    3643.0098    8212.8586    310.38017    14052 
438000000   -248.70596     11601.52    12840.586    3597.9892    8252.2364    307.71844    14046 
439000000   -234.38226    11757.647    12878.436     3679.114    8312.9154     308.6255    14048 
440000000   -271.70366    11716.364    12841.494    3786.1681    8201.8995    307.74021    14004 
441000000    -256.8678    11627.229    12843.996    3584.8983    8299.1988    307.80018    14059 
442000000   -259.22551    11652.464    13202.162    3697.8525     8213.837    316.38343    14014 
443000000   -254.42047    11763.961     12959.82     3710.588    8307.7939    310.57582    14020 
444000000   -236.75919    11674.965    12960.031    3611.5057     8300.219    310.58088    14056 
445000000   -232.03222     11652.13    12887.791    3693.9964    8190.1657     308.8497    14041 
446000000   -227.09544    11553.995    12953.069    3617.2336    8163.8567    310.41404    14060 
447000000   -234.57274    11605.614    12855.314    3623.3373    8216.8499     308.0714    14067 
448000000   -247.50771    11641.246    12891.089    3775.8808    8112.8727    308.92872    14038 
449000000   -260.01106    11659.429    12768.144    3673.0303    8246.4097    305.98242    14041 
450000000   -225.56969    11646.164    13000.253    3790.9028     8080.831    311.54479    14030 
451000000   -234.75922    11656.021    12870.634    3685.8982    8204.8824    308.43853    14045 
452000000   -238.17371    11748.737    12916.637    3758.3424    8228.5687    309.54098    14032 
453000000   -227.18479    11583.147    13010.864     3707.197    8103.1345    311.79908    14024 
454000000    -281.3864    11787.692    12922.498    3780.8146    8288.2635    309.68143    14029 
455000000   -230.45946    11721.775    12817.674    3817.9171    8134.3177    307.16938    14019 
456000000   -220.99971    11630.092    12818.309    3569.4611     8281.631    307.18458    14063 
457000000   -257.93432    11713.674     12997.37    3748.4078    8223.2009    311.47571    14032 
458000000   -237.36875     11916.69    12971.471    3813.8215    8340.2377    310.85505    14035 
459000000   -254.55814    11724.815    12944.499    3677.6022    8301.7714    310.20868    14033 
460000000   -243.65911    11779.524    13018.394    3794.3735    8228.8097    311.97953    14033 
461000000   -265.15721    11576.085    12831.692    3626.4325    8214.8097    307.50529    14058 
462000000   -249.38081    11486.146    12979.911    3634.7774    8100.7491    311.05729    14034 
463000000   -236.02463    11537.614     13002.84    3623.5019    8150.1364    311.60679    14054 
464000000   -249.22092    11634.667     12848.96    3713.0233    8170.8644    307.91913    14035 
465000000   -238.16858    11626.315    12957.995     3674.121    8190.3624    310.53209    14030 
466000000   -235.09125    11743.654    13032.013    3688.8257    8289.9199    312.30591    14037 
467000000   -224.62462    11657.716    12790.762    3628.9677    8253.3731    306.52443    14044 
468000000    -234.1416    11636.666    12875.525    3675.6928    8195.1144    308.55575    14042 
469000000   -235.57771    11860.266    12941.778    3772.1171    8323.7263    310.14345    14023 
470000000   -232.81772    11675.862    12889.149     3632.948    8275.7322    308.88224    14050 
471000000   -234.04563    11651.982    13141.525    3767.7327    8118.2944     314.9303    14031 
472000000   -225.86119    11680.423    12896.298    3688.6415    8217.6428    309.05357    14046 
473000000   -236.65644    11834.368    12904.738    3761.0855     8309.939    309.25581    14029 
474000000   -224.18255    11694.657    12761.946    3697.0166    8221.8231    305.83387    14050 
475000000   -244.46839    11732.117    12971.853     3738.899    8237.6866    310.86419    14023 
476000000   -241.88451    11680.653    12960.935    3726.9787    8195.5592    310.60255    14032 
477000000   -220.50561    11534.323    12825.704    3660.8383    8093.9899    307.36182    14040 
478000000   -233.18187     11597.68    13035.199    3656.9144    8173.9476    312.38224    14015 
479000000   -253.53397    11663.165    13073.745    3728.8327    8187.8665    313.30599    14007 
480000000   -246.63119     11661.59    12943.325    3769.6169    8138.6043    310.18054    14004 
481000000   -240.74939    11613.083    12903.092      3685.75     8168.082    309.21638    14036 
482000000   -243.91002    11535.774    12994.212    3620.8815    8158.8021    311.40002    14062 
483000000   -245.94056    11598.682    12968.952    3633.9234    8210.6994    310.79467    14073 
484000000   -253.20389    11723.882    12969.057    3726.8903    8250.1956     310.7972    14042 
485000000   -252.40132    11680.088    12910.587    3636.8348    8295.6548      309.396    14059 
486000000   -221.90054     11520.64    12914.708    3539.4874    8203.0536    309.49473    14089 
487000000   -255.84778     11449.88    12857.226    3608.8298    8096.8979    308.11722    14061 
488000000   -252.14022    11604.034    13090.133    3623.7308    8232.4432    313.69872    14060 
489000000   -247.65578    11507.246    12920.398    3573.9858    8180.9164    309.63111    14045 
490000000   -251.47213    11589.939    12938.273    3693.5716      8147.84    310.05946    14063 
491000000   -234.10197    11594.886    13060.792    3599.5385    8229.4496    312.99557    14072 
492000000   -238.49111    11612.023    12935.437    3568.5796    8281.9349    309.99151    14057 
493000000     -241.172    11605.464    12989.811    3608.4957    8238.1404    311.29456    14042 
494000000   -241.09232    11542.859    13099.233     3596.155    8187.7961     313.9168    14063 
495000000   -268.08503     11693.12    12975.914    3681.7911    8279.4142    310.96152    14054 
496000000   -263.67724    11663.824    12885.307     3815.122    8112.3788    308.79016    14041 
497000000   -216.33052    11677.149    12872.306    3691.8486    8201.6305     308.4786    14082 
498000000   -245.77738    11619.247    12907.934     3635.382    8229.6422    309.33242    14062 
499000000   -231.71133    11560.499    12940.312    3718.3633    8073.8475    310.10833    14030 
500000000   -239.48975    11690.262    12981.873     3677.497    8252.2548    311.10431    14042 
Loop time of 108737 on 28 procs for 500000000 steps with 14000 atoms

Performance: 9932.203 ns/day, 0.002 hours/ns, 4598.242 timesteps/s
99.2% CPU use with 28 MPI tasks x no OpenMP threads

MPI task timing breakdown:
Section |  min time  |  avg time  |  max time  |%varavg| %total
---------------------------------------------------------------
Pair    | 7166.3     | 7820       | 10178      | 796.1 |  7.19
Bond    | 5581.9     | 6093.3     | 10915      |1809.1 |  5.60
Neigh   | 22848      | 23056      | 23340      |  82.9 | 21.20
Comm    | 34435      | 42484      | 44572      |1079.4 | 39.07
Output  | 0.65843    | 0.6588     | 0.65949    |   0.0 |  0.00
Modify  | 21452      | 21580      | 21890      |  73.5 | 19.85
Other   |            | 7704       |            |       |  7.08

Nlocal:    500 ave 549 max 436 min
Histogram: 2 0 0 2 6 6 6 3 1 2
Nghost:    409.286 ave 498 max 227 min
Histogram: 1 0 0 1 2 4 8 5 3 4
Neighs:    2080.29 ave 2595 max 1518 min
Histogram: 1 1 2 8 0 4 7 1 2 2

Total # of neighbors = 58248
Ave neighs/atom = 4.16057
Ave special neighs/atom = 6.27543
Neighbor list builds = 99871386
Dangerous builds = 0
System init for write_restart ...
Total wall time: 30:12:19
