LAMMPS (5 Jun 2019)
Reading data file ...
  orthogonal box = (-420 -420 -420) to (420 420 420)
  2 by 2 by 7 MPI processor grid
  reading atoms ...
  14000 atoms
  scanning bonds ...
  51 = max bonds/atom
  scanning angles ...
  1 = max angles/atom
  reading bonds ...
  13800 bonds
  reading angles ...
  13600 angles
Finding 1-2 1-3 1-4 neighbors ...
  special bond factors lj:   0          0          0         
  special bond factors coul: 0          0          0         
  2 = max # of 1-2 neighbors
  2 = max # of 1-3 neighbors
  4 = max # of 1-4 neighbors
  56 = max # of special neighbors
  special bonds CPU = 0.707057 secs
  read_data CPU = 0.98932 secs
Finding 1-2 1-3 1-4 neighbors ...
  special bond factors lj:   1          1          1         
  special bond factors coul: 0          0          0         
  2 = max # of 1-2 neighbors
  2 = max # of 1-3 neighbors
  4 = max # of 1-4 neighbors
  56 = max # of special neighbors
  special bonds CPU = 0.00069551 secs
WARNING: Using 'neigh_modify every 1 delay 0 check yes' setting during minimization (../min.cpp:168)
Neighbor list info ...
  update every 1 steps, delay 0 steps, check yes
  max neighbors/atom: 2000, page size: 100000
  master list distance cutoff = 26.9
  ghost atom cutoff = 26.9
  binsize = 13.45, bins = 63 63 63
  1 neighbor lists, perpetual/occasional/extra = 1 0 0
  (1) pair lj/cut, perpetual
      attributes: half, newton on
      pair build: half/bin/newton
      stencil: half/bin/3d/newton
      bin: standard
Setting up cg style minimization ...
  Unit style    : real
  Current step  : 0
Per MPI rank memory allocation (min/avg/max) = 1.164 | 13.81 | 17.68 Mbytes
Step Temp E_pair E_mol TotEng Press 
       0            0 1.097855e+12      2649600 1.0978577e+12 5.0804878e+08 
    3165            0    -1749.261     5102.442     3353.181 0.0087270459 
Loop time of 1.12224 on 28 procs for 3165 steps with 14000 atoms

99.2% CPU use with 28 MPI tasks x no OpenMP threads

Minimization stats:
  Stopping criterion = energy tolerance
  Energy initial, next-to-last, final = 
     1.09785765867e+12      3353.38932291      3353.18099319
  Force two-norm initial, final = 8.92234e+10 1.58028
  Force max component initial, final = 1.04805e+09 0.193454
  Final line search alpha, max atom move = 0.612771 0.118543
  Iterations, force evaluations = 3165 3624

MPI task timing breakdown:
Section |  min time  |  avg time  |  max time  |%varavg| %total
---------------------------------------------------------------
Pair    | 0.049769   | 0.16922    | 0.30498    |  16.8 | 15.08
Bond    | 0.015073   | 0.045591   | 0.077849   |   7.3 |  4.06
Neigh   | 0.10134    | 0.10408    | 0.10623    |   0.4 |  9.27
Comm    | 0.21571    | 0.35067    | 0.50036    |  13.7 | 31.25
Output  | 0          | 0          | 0          |   0.0 |  0.00
Modify  | 0          | 0          | 0          |   0.0 |  0.00
Other   |            | 0.4527     |            |       | 40.34

Nlocal:    500 ave 826 max 174 min
Histogram: 1 3 4 4 2 2 8 1 1 2
Nghost:    338.893 ave 565 max 156 min
Histogram: 3 3 2 1 6 7 2 2 1 1
Neighs:    3508.14 ave 5788 max 1093 min
Histogram: 1 4 2 5 2 1 6 2 0 5

Total # of neighbors = 98228
Ave neighs/atom = 7.01629
Ave special neighs/atom = 5.82857
Neighbor list builds = 221
Dangerous builds = 0
Setting up Verlet run ...
  Unit style    : real
  Current step  : 3165
  Time step     : 0.1
Per MPI rank memory allocation (min/avg/max) = 1.128 | 14 | 16.55 Mbytes
Step Temp E_pair E_mol TotEng Press 
    3165            0    -1749.261     5102.442     3353.181 0.0087270459 
   13165     222.9534   -1387.7768    8942.9814    16858.684   -1.7395381 
Loop time of 1.75398 on 28 procs for 10000 steps with 14000 atoms

Performance: 49.259 ns/day, 0.487 hours/ns, 5701.309 timesteps/s
99.2% CPU use with 28 MPI tasks x no OpenMP threads

MPI task timing breakdown:
Section |  min time  |  avg time  |  max time  |%varavg| %total
---------------------------------------------------------------
Pair    | 0.052424   | 0.18372    | 0.35199    |  18.9 | 10.47
Bond    | 0.035538   | 0.10566    | 0.18037    |  11.1 |  6.02
Neigh   | 0.0018452  | 0.0019186  | 0.0020016  |   0.1 |  0.11
Comm    | 0.56833    | 0.79826    | 0.949      |  12.0 | 45.51
Output  | 9.2949e-05 | 0.00012144 | 0.00015358 |   0.0 |  0.01
Modify  | 0.084253   | 0.24773    | 0.42181    |  16.8 | 14.12
Other   |            | 0.4166     |            |       | 23.75

Nlocal:    500 ave 829 max 171 min
Histogram: 1 3 4 4 2 2 8 1 1 2
Nghost:    338.25 ave 561 max 159 min
Histogram: 4 2 3 0 6 7 2 2 1 1
Neighs:    3515.71 ave 5793 max 1078 min
Histogram: 1 3 3 5 2 1 5 3 0 5

Total # of neighbors = 98440
Ave neighs/atom = 7.03143
Ave special neighs/atom = 5.82857
Neighbor list builds = 4
Dangerous builds = 0
4000 atoms in group rxnSites
Neighbor list info ...
  update every 1 steps, delay 1 steps, check yes
  max neighbors/atom: 2000, page size: 100000
  master list distance cutoff = 26.9
  ghost atom cutoff = 26.9
  binsize = 13.45, bins = 63 63 63
  2 neighbor lists, perpetual/occasional/extra = 1 1 0
  (1) pair lj/cut, perpetual
      attributes: half, newton on
      pair build: half/bin/newton
      stencil: half/bin/3d/newton
      bin: standard
  (2) fix bond/create/random, occasional, copy from (1)
      attributes: half, newton on
      pair build: copy
      stencil: none
      bin: none
Setting up Verlet run ...
  Unit style    : real
  Current step  : 0
  Time step     : 25
Per MPI rank memory allocation (min/avg/max) = 17.87 | 18.28 | 18.83 Mbytes
Step E_pair PotEng KinEng E_bond E_angle Temp Bonds 
       0   -1387.7768    7555.2046    9303.4797    3067.4476    5875.5338     222.9534    13800 
 1000000   -265.66158    11647.894    13054.167    3684.1849    8229.3705     312.8368    14021 
 2000000   -246.78149    11591.595     12924.86    3629.6869    8208.6899    309.73803    14050 
 3000000   -234.58201    11638.513    12957.276    3720.1403    8152.9548    310.51488    14035 
 4000000   -225.66298    11772.486    12816.885    3770.2105    8227.9383    307.15047    14024 
 5000000   -244.20741    11638.063     12823.64    3672.4084    8209.8624    307.31235    14033 
 6000000   -226.84086    11679.001    12912.644    3632.6768    8273.1655    309.44529    14063 
 7000000   -243.08479    11682.401    12965.336    3651.7194    8273.7667    310.70801    14057 
 8000000   -236.58939    11589.725    12743.092    3640.7775    8185.5369    305.38205    14087 
 9000000   -244.83396    11643.753    13030.161    3742.4893    8146.0972    312.26151    14047 
10000000   -253.65945    11615.497    13139.393    3676.1571    8192.9989     314.8792    14059 
11000000   -233.40947    11526.691    12931.051    3565.4388    8194.6612    309.88639    14055 
12000000   -236.25473    11681.409    12991.709    3706.7423    8210.9215    311.34004    14026 
13000000   -248.94133    11617.075      12923.2    3664.7796    8201.2367    309.69824    14034 
14000000   -251.14445    11484.555    12922.717    3540.1209    8195.5786    309.68668    14059 
15000000   -235.41163    11714.362    12947.994    3648.5484     8301.225    310.29243    14085 
16000000   -210.18235    11613.449    12960.953    3706.6112    8117.0206    310.60299    14053 
17000000   -225.65393    11591.115    12785.219    3671.9516    8144.8175    306.39161    14025 
18000000   -215.30695    11659.011    12889.486     3692.512    8181.8056    308.89031    14047 
19000000   -224.26409    11690.574    12935.979     3667.549     8247.289    310.00449    14061 
20000000   -233.01863    11791.274    12897.098    3739.1498    8285.1425    309.07274    14054 
21000000   -230.49638    11607.335    12823.167    3661.4259    8176.4057    307.30101    14039 
22000000   -242.07952    11662.603    13082.073     3742.875    8161.8079    313.50557    14050 
23000000   -245.63277    11709.328    12886.213    3644.2648    8310.6956    308.81187    14047 
24000000    -259.0016    11613.111    12897.909    3686.0634    8186.0493    309.09217    14060 
25000000   -227.75411    11646.633    12957.096    3748.1868       8126.2    310.51054    14034 
26000000   -242.91987    11577.682    12995.074    3688.6736    8131.9286    311.42068    14036 
27000000   -226.88479    11568.094    12945.381    3679.4284    8115.5508    310.22981    14076 
28000000   -239.65701    11738.737    13065.103    3740.4377    8237.9563    313.09889    14019 
29000000   -233.04304    11725.517    12958.356    3638.4864    8320.0732    310.54074    14057 
30000000   -242.98107    11661.571    12973.564    3540.7679    8363.7837    310.90521    14099 
31000000   -258.43872    11401.253    12928.356    3559.4789     8100.213    309.82181    14086 
32000000   -258.83718    11570.307    12872.844    3656.4415     8172.703    308.49148    14056 
33000000   -252.05267    11677.641    12983.973    3720.6905    8209.0033    311.15465    14035 
34000000   -249.09765    11582.544    12969.564    3642.0918    8189.5496    310.80933    14039 
35000000   -244.15209    11579.555      12951.3    3642.6514    8181.0562    310.37166    14056 
36000000   -239.13259    11609.656    12935.154    3646.4142    8202.3739    309.98472    14043 
37000000   -228.85799    11491.852    12910.815    3569.5076    8151.2025    309.40145    14080 
38000000   -224.54945    11549.515    12878.874    3609.0369    8165.0279    308.63599    14049 
39000000     -239.364    11798.697     12838.23    3773.8467    8264.2147    307.66198    14053 
40000000   -232.50288    11690.166    12873.017    3748.3627    8174.3064    308.49564    14032 
41000000   -240.38599    11694.058    13003.842    3728.3895    8206.0542     311.6308    14040 
42000000   -247.43652    11609.652    12776.655    3672.6566    8184.4322    306.18636    14053 
43000000   -228.74942    11615.266      12917.5    3676.2867    8167.7287    309.56164    14035 
44000000    -249.4697    11656.925    12818.634    3710.5693    8195.8251    307.19237    14048 
45000000   -240.84936    11664.008      13077.1    3795.0809    8109.7764     313.3864    14032 
46000000   -249.51832    11789.573    13019.257    3745.9092    8293.1818    312.00022    14027 
47000000   -238.47677    11835.406    12804.786    3702.6934    8371.1891    306.86051    14039 
48000000   -254.25183    11627.777    13046.392    3734.8167    8147.2116    312.65048    14031 
49000000   -229.79806    11625.611    12887.022    3664.6937    8190.7149    308.83125    14070 
50000000   -223.53922    11762.139    12928.894    3784.7123    8200.9664     309.8347    14032 
51000000    -243.2126    11670.482    12998.246    3762.8489    8150.8459    311.49669    14033 
52000000   -241.82016    11558.279    12934.385     3623.206    8176.8929     309.9663    14037 
53000000   -229.39688      11528.7    12791.658    3676.7786    8081.3178    306.54591    14047 
54000000   -229.05257    11784.442    12967.893    3716.8004    8296.6937    310.76928    14053 
55000000   -228.14897    11822.714    12817.007    3635.4024     8415.461    307.15339    14056 
56000000   -227.45964    11751.133    12897.947    3738.1707    8240.4219    309.09308    14040 
57000000   -234.03357    11554.999    12980.036    3640.5202    8148.5125     311.0603    14068 
58000000   -275.44302    11545.056    12876.828    3660.1248    8160.3741    308.58697    14053 
59000000   -226.99786    11537.222    13022.162    3572.7282    8191.4912    312.06982    14077 
60000000   -259.05595    11703.565    12977.931    3703.2014    8259.4196    311.00984    14033 
61000000   -275.33278    11611.328    12872.385    3658.2058    8228.4553    308.48049    14062 
62000000   -256.52021    11705.063    12872.091    3778.3703    8183.2124    308.47344    14023 
63000000   -248.35947    11747.906    12973.679     3688.403    8307.8623    310.90795    14037 
64000000   -228.97859    11803.896     12996.33     3761.898    8270.9766    311.45077    14026 
65000000   -260.82402    11777.707    12935.723    3794.1507    8244.3799    309.99835    14020 
66000000   -224.18424    11708.671    12913.914    3727.8231     8205.032    309.47571    14050 
67000000   -233.01388    11445.965     12974.73    3565.5355    8113.4435    310.93313    14045 
68000000   -234.14558    11569.009    12966.089    3705.5074    8097.6473    310.72605    14061 
69000000   -241.86254    11682.977    12951.348    3711.9098      8212.93    310.37281    14045 
70000000   -246.19438    11763.902    12867.969     3698.236    8311.8609    308.37467    14039 
71000000    -221.8928    11674.465    12890.545     3761.127    8135.2307    308.91569    14039 
72000000   -247.10148    11647.571    12961.795    3635.8974    8258.7747    310.62316    14053 
73000000   -255.16806    11759.502    13033.365    3742.8068    8271.8628     312.3383    14022 
74000000    -233.1951    11719.787    12929.557    3717.5523      8235.43     309.8506    14065 
75000000   -240.63179    11760.147    12943.328     3725.326     8275.453    310.18062    14064 
76000000   -237.54341    11659.749    12946.896    3746.1426    8151.1495     310.2661    14031 
77000000   -242.52438    11563.188    12885.322    3733.1054    8072.6068    308.79053    14040 
78000000   -261.03334    11712.265    13024.747    3771.0595    8202.2385    312.13178    14034 
79000000    -252.9969    11791.858    13016.563     3759.977    8284.8781    311.93566    14020 
80000000   -252.35099    11670.693    13086.119    3673.4944    8249.5494    313.60252    14067 
81000000   -208.24462    11587.446    12828.223    3638.6574     8157.033    307.42218    14049 
82000000   -242.99808    11550.573      12922.8    3678.1602    8115.4104    309.68867    14061 
83000000   -254.77494    11533.394    13013.886    3611.4276    8176.7408    311.87149    14041 
84000000      -257.35    11557.242    12979.755    3653.5298    8161.0618    311.05356    14043 
85000000   -248.53623    11837.693     12948.38    3760.5217    8325.7076    310.30168    14018 
86000000   -250.27159    11663.251    12866.608    3691.6746    8221.8482    308.34205    14023 
87000000   -227.87697    11493.711    13005.737    3587.2228    8134.3657    311.67622    14070 
88000000   -220.74206    11571.625    12869.148    3675.4352    8116.9323    308.40292    14052 
89000000   -230.51618    11577.723    12959.098    3666.0521    8142.1875    310.55853    14045 
90000000   -232.62719    11500.515    12985.938    3590.1802    8142.9624    311.20173    14045 
91000000    -240.8694    11670.764    12826.351     3783.412    8128.2216    307.37731    14038 
92000000   -248.95791    11556.924     12841.24     3594.046    8211.8361    307.73411    14063 
93000000   -237.50633     11562.38    12949.466    3568.4759    8231.4104    310.32771    14079 
94000000    -246.0707    11457.407    12982.909     3626.586    8076.8914    311.12915    14059 
95000000   -257.51578    11590.322    13101.094    3621.8407    8225.9975     313.9614    14065 
96000000   -252.07743    11786.333     13000.64    3770.5036    8267.9065    311.55406    14043 
97000000   -273.12578    11441.103    12995.635    3580.5754    8133.6535    311.43411    14061 
98000000    -232.1422    11579.408    13024.238    3720.1721    8091.3777    312.11958    14041 
99000000   -250.28446    11575.157     12833.25    3665.0197    8160.4217    307.54263    14025 
100000000   -244.14822    11684.067    12807.093    3711.4182     8216.797    306.91581    14043 
101000000   -233.86614    11663.474    12916.007    3651.5665    8245.7739    309.52588    14047 
102000000    -234.0018    11798.882    12958.763    3825.3848    8207.4994    310.55051    14039 
103000000   -244.17498    11684.447    12915.677    3668.5776    8260.0447    309.51797    14042 
104000000   -258.94329    11637.676    12953.319    3655.3066    8241.3123    310.42003    14043 
105000000   -234.16489    11813.099    12945.518    3818.7221    8228.5417     310.2331    14047 
106000000   -238.69217    11811.164    12968.303    3726.1581    8323.6978    310.77913    14030 
107000000   -237.76958    11653.806    12759.606    3648.7456    8242.8303     305.7778    14037 
108000000   -241.25304    11649.699      12896.7    3699.4641    8191.4876    309.06319    14039 
109000000   -223.99897    11794.962    12832.716    3706.5163    8312.4444    307.52984    14032 
110000000    -246.4334    11706.701    12910.628    3691.4921    8261.6422    309.39698    14039 
111000000   -219.54545    11665.765    12891.636    3729.2845    8156.0259    308.94184    14038 
112000000   -234.52816    11596.708    13047.342    3674.8338    8156.4027    312.67325    14032 
113000000   -256.68088    11715.503    12867.592    3725.4289    8246.7549    308.36563    14025 
114000000   -220.11795    11512.098    12863.618     3607.911    8124.3052    308.27039    14047 
115000000   -236.32095    11742.451    12779.825    3761.2797    8217.4925    306.26234    14017 
116000000   -244.81357    11563.486    12837.227    3648.2159     8160.084    307.63796    14035 
117000000    -220.1462    11684.224    13012.625     3768.708    8135.6622    311.84128    14025 
118000000   -227.48398    11699.213    13011.714    3649.5985    8277.0987    311.81946    14049 
119000000   -236.99925    11698.988    12827.689    3734.6979    8201.2898    307.40937    14055 
120000000   -251.66684    11853.632    12924.075    3843.8909    8261.4079    309.71923    14022 
121000000   -233.60223    11643.497    12928.408    3623.3268    8253.7726    309.82306    14053 
122000000   -241.70377    11525.852    13158.502    3565.0149    8202.5406    315.33715    14062 
123000000   -248.06356    11806.091    12928.362    3822.5071     8231.647    309.82196    14018 
124000000   -219.34647    11665.718    13001.753    3670.1347    8214.9302    311.58073    14041 
125000000   -253.91811    11531.213    13043.549    3586.3868    8198.7442    312.58236    14078 
126000000   -237.26145    11581.839    12943.837    3644.7328    8174.3676     310.1928    14036 
127000000   -247.45734    11665.128    13093.951    3709.2345    8203.3506    313.79021    14024 
128000000   -220.41304    11645.766    13021.345    3709.0832    8157.0962    312.05025    14038 
129000000   -235.34699    11703.103    12881.849    3705.5313    8232.9188    308.70729    14043 
130000000   -248.66304    11675.704    12965.993    3738.4682    8185.8993    310.72376    14048 
131000000   -248.33839    11558.165    13024.443    3679.4702    8127.0329    312.12449    14025 
132000000   -230.50489    11503.485    12941.095    3694.4193     8039.571    310.12709    14042 
133000000   -223.73028    11682.118    12978.995    3733.8923    8171.9563    311.03536    14035 
134000000    -241.7291     11551.47    13099.466    3627.7028    8165.4967    313.92239    14026 
135000000   -255.14485    11569.522    13043.039     3694.261    8130.4063    312.57012    14030 
136000000   -256.55909    11659.508    13077.482    3616.0325    8300.0343    313.39555    14047 
137000000   -246.60799    11737.329    13019.706    3712.5611    8271.3764    312.01098    14048 
138000000   -257.07864     11640.78     12863.07    3752.5659     8145.293    308.25726    14025 
139000000   -217.66713    11700.591    12923.624    3639.1198     8279.138    309.70841    14051 
140000000   -242.46109    11493.519    12903.059    3609.0486     8126.932    309.21559    14054 
141000000   -252.59285    11597.896    12939.277    3660.8152    8189.6735    310.08353    14066 
142000000   -239.57324    11585.341    12926.592    3667.4211    8157.4929    309.77953    14067 
143000000    -233.7607    11681.091    12807.798    3723.1416    8191.7102    306.93271    14037 
144000000   -245.52866    11580.753    12938.402     3777.609    8048.6722    310.06256    14046 
145000000   -248.82105    11649.034    12852.553    3760.7761     8137.079    308.00522    14029 
146000000   -234.26567    11748.433    12933.587    3662.1436    8320.5554    309.94716    14033 
147000000   -239.21226    11672.459    12879.586    3722.8822    8188.7894    308.65307    14035 
148000000   -244.24067    11539.014    12870.757    3619.4999    8163.7552    308.44149    14062 
149000000   -258.10803     11558.55    12937.245    3649.1211    8167.5368    310.03483    14065 
150000000   -229.30886    11776.372     12810.13    3721.7745    8283.9065    306.98859    14033 
151000000   -240.47882    11710.296    12844.338    3697.0241    8253.7507    307.80836    14039 
152000000   -250.22402    11502.076    12883.235    3663.8151    8088.4849    308.74051    14048 
153000000   -224.49285    11714.611    12784.288    3801.8593    8137.2444    306.36929    14019 
154000000   -228.68364    11702.927    13170.854    3666.9815    8264.6291    315.63315    14055 
155000000   -238.50765     11802.55     12724.69    3639.8079    8401.2501    304.94106    14052 
156000000   -209.52677    11754.817     12914.33    3774.5554     8189.788    309.48567    14025 
157000000     -226.536    11608.373    12948.645    3629.8048    8205.1038    310.30804    14061 
158000000   -227.26932    11753.995    12812.937    3690.1612    8291.1032    307.05586    14041 
159000000   -234.62714    11599.024    12886.944    3645.6164    8188.0352    308.82939    14048 
160000000   -231.74311    11579.964    12798.685    3697.4298    8114.2776    306.71432    14042 
161000000   -262.88809    11576.386    13088.453    3599.2691     8240.005    313.65846    14026 
162000000   -240.04219    11697.557    12904.917     3608.445    8329.1539     309.2601    14074 
163000000   -229.22575    11721.528    12986.077    3770.9496    8179.8041    311.20505    14020 
164000000   -240.05131    11582.535    13001.429    3662.3966    8160.1902    311.57297    14035 
165000000   -260.92463    11729.942    12984.484    3692.7081    8298.1581    311.16688    14040 
166000000   -248.14173    11458.082    12916.022    3664.7467    8041.4772    309.52624    14064 
167000000   -251.26733    11710.625    12985.426    3689.8896    8272.0025    311.18946    14058 
168000000   -196.77261    11520.387    12946.492    3649.4566    8067.7027    310.25642    14069 
169000000   -230.80552    11547.967    12914.101    3635.4817    8143.2905    309.48021    14062 
170000000   -259.91701    11617.304    13113.991    3661.0652    8216.1554    314.27047    14018 
171000000   -256.10575    11800.832    12900.614    3764.5306    8292.4075    309.15699    14051 
172000000    -256.0327     11710.49    12950.638    3705.2964    8261.2259    310.35579    14035 
173000000   -237.92899    11583.491     12831.45    3630.4806    8190.9398     307.4995    14053 
174000000   -241.60731    11628.675    12819.456    3711.4236    8158.8592    307.21208    14062 
175000000   -230.75011    11527.057    12928.927    3617.6519    8140.1552     309.8355    14072 
176000000   -231.17952     11585.15    13024.133    3719.0966    8097.2326    312.11705    14054 
177000000   -258.47001    11604.082    12949.366    3768.0711    8094.4813     310.3253    14042 
178000000   -240.17597    11792.784    12782.282    3676.3634    8356.5965    306.32123    14038 
179000000   -243.91786     11650.46    13057.088    3656.0467    8238.3307    312.90682    14062 
180000000   -231.36564    11651.263    12911.563    3692.4978    8190.1305    309.41938    14031 
181000000   -229.01694    11626.313    12951.978    3704.6663     8150.664     310.3879    14036 
182000000   -214.03934    11796.594     13004.97    3771.2442    8239.3888    311.65782    14017 
183000000   -216.61068    11501.618    12973.689    3622.5032    8095.7259    310.90819    14074 
184000000   -245.10269    11613.997     13067.51    3685.2016    8173.8979    313.15656    14053 
185000000   -258.02731    11817.577    12948.622    3758.1519     8317.452    310.30748    14048 
186000000   -230.87856    11595.927    13002.248    3667.1299    8159.6757     311.5926    14041 
187000000   -220.21518    11717.688    12910.393    3767.8487    8170.0549    309.39133    14024 
188000000    -237.9791    11645.516    12843.367    3747.4096    8136.0851    307.78508    14044 
189000000   -233.82814    11629.533    12911.116    3620.2437    8243.1176    309.40867    14057 
190000000   -235.53825    11703.635    12803.749    3722.2833    8216.8904    306.83566    14052 
191000000   -233.17937    11679.987    12973.779     3736.393     8176.773    310.91034    14047 
192000000   -247.07885    11559.896    12951.882    3604.2622     8202.713    310.38561    14074 
193000000    -243.2252    11581.314    13010.319     3617.475    8207.0646      311.786    14057 
194000000   -230.86463    11434.705    13025.696    3587.6368    8077.9331    312.15452    14035 
195000000   -252.67558    11649.755    12934.232    3740.3972     8162.033    309.96262    14048 
196000000   -258.83047    11636.736    12843.199    3733.3673    8162.1991    307.78107    14053 
197000000   -263.03753    11611.957    12939.861    3676.7897    8198.2044    310.09753    14032 
198000000   -212.72643    11738.811    12878.156    3689.9981    8261.5389     308.6188    14058 
199000000   -256.65613     11786.67    12888.753    3815.4609    8227.8656    308.87273    14034 
200000000   -248.92735    11608.468     12984.33    3618.3883    8239.0069     311.1632    14043 
201000000   -231.59955    11538.823    13023.008    3695.4346    8074.9879    312.09009    14043 
202000000   -247.11195    11541.792    12931.911    3664.0197    8124.8844    309.90701    14037 
203000000   -239.56101    11759.516    12842.688    3761.4827    8237.5947    307.76882    14006 
204000000   -235.01788    11486.711    12886.217     3715.262    8006.4669    308.81198    14040 
205000000   -243.35287    11740.459    12967.866    3707.7894    8276.0228    310.76864    14051 
206000000   -249.16518     11530.22    13070.094     3603.203    8176.1818    313.21849    14054 
207000000   -229.41731    11617.613    13018.527    3673.5294    8173.5007    311.98272    14052 
208000000   -246.14695    11523.152    12811.528    3712.6096    8056.6891    307.02207    14035 
209000000   -223.47011     11735.86    12867.832    3751.5503      8207.78    308.37139    14009 
210000000   -249.83891    11432.653    12916.032    3637.0353    8045.4563    309.52647    14053 
211000000   -239.39308    11685.383    12899.274    3717.0702    8207.7062    309.12488    14027 
212000000   -246.34121    11593.062    12879.989    3780.3375    8059.0657    308.66272    14013 
213000000   -239.09651    11605.084    13103.317    3665.4289    8178.7511    314.01466    14040 
214000000   -233.31923    11838.955    12906.468     3772.659    8299.6149    309.29727    14038 
215000000   -249.67381    11690.215    12981.911     3725.964    8213.9245    311.10523    14030 
216000000   -237.67313    11549.584    12775.916    3576.1638    8211.0933    306.16866    14059 
217000000   -226.73957    11738.801    12876.415    3710.5944    8254.9464    308.57707    14037 
218000000   -243.86175    11620.241    13007.216    3584.9382    8279.1645    311.71165    14079 
219000000   -243.80877    11694.588    12976.073    3686.4653    8251.9316    310.96532    14053 
220000000   -224.15387    11685.907    12875.437    3801.3392    8108.7215    308.55363    14015 
221000000   -222.90601    11777.117    12904.419    3759.7947    8240.2283    309.24816    14043 
222000000   -214.59543    11671.364    13040.487    3635.7582    8250.2009    312.50898    14044 
223000000   -197.69578    11620.051    12872.697    3675.7656    8141.9808    308.48796    14039 
224000000   -240.84997    11620.254    12960.225    3665.8449    8195.2595    310.58554    14039 
225000000   -226.12624    11690.395    12999.771    3711.5821    8204.9393    311.53322    14030 
226000000   -236.45908    11665.695    12864.006    3714.6708    8187.4837    308.27969    14036 
227000000   -239.28045    11630.775     12969.41    3678.4565    8191.5991    310.80564    14045 
228000000   -247.48627    11654.159    12946.716    3772.6532    8128.9919     310.2618    14028 
229000000   -237.43176    11688.628    13002.815    3790.9093    8135.1501    311.60618    13995 
230000000   -224.47126    11573.663    12977.596    3616.3788    8181.7551    311.00182    14055 
231000000     -226.997    11574.221    12875.948    3644.3844    8156.8337    308.56588    14059 
232000000   -223.63644    11546.285    12767.506    3729.5414    8040.3796    305.96711    14051 
233000000   -229.82846    11584.872    13058.141    3616.4945    8198.2058    312.93204    14072 
234000000   -243.63453    11720.018    12912.635    3776.0374    8187.6154    309.44507    14043 
235000000   -233.88095     11769.37    12878.829    3840.3355    8162.9156    308.63493    14012 
236000000   -231.89326    11783.891    13049.939    3748.4169    8267.3678    312.73549    14016 
237000000   -258.30089    11758.377    12901.249    3840.9992    8175.6783    309.17219    14026 
238000000   -222.34904    11503.674    12983.778    3721.2985    8004.7249    311.14996    14035 
239000000   -214.94432    11821.518    12875.947    3748.5977    8287.8647    308.56585    14038 
240000000   -236.50393    11647.982    12843.136    3638.1002    8246.3858    307.77955    14024 
241000000   -208.24207    11682.407    12907.502    3651.9659    8238.6833    309.32206    14065 
242000000   -229.60975    11611.474    13079.257    3580.4256    8260.6584    313.43809    14052 
243000000   -239.27689    11749.804    12793.726    3708.9009    8280.1799    306.59546    14024 
244000000   -221.28006    11661.131    13052.341    3731.1101    8151.3006    312.79305    14036 
245000000   -229.52104    11695.443    12866.972    3677.7851    8247.1788    308.35076    14046 
246000000     -258.053    11684.028    12972.141    3707.8577    8234.2234     310.8711    14029 
247000000   -232.98202     11767.32        12769    3787.7126    8212.5892    306.00292    14010 
248000000    -227.3975    11731.337    12953.181    3647.8359    8310.8982    310.41674    14055 
249000000   -237.90796    11594.265    13077.789    3684.9647    8147.2081    313.40291    14043 
250000000   -243.54531    11768.728    12972.823    3719.7577    8292.5154    310.88744    14031 
251000000   -261.28193    11654.156    13000.567    3672.8257     8242.612    311.55231    14057 
252000000   -240.88385    11686.672    12927.738    3705.8597    8221.6962    309.80701    14027 
253000000      -249.49    11829.852    13120.305    3715.2396    8364.1025    314.42177    14035 
254000000   -244.14469    11740.192    12934.841    3691.2113    8293.1254    309.97723    14050 
255000000    -238.4618    11705.406    12827.739    3699.6049    8244.2625    307.41058    14047 
256000000   -239.90692    11752.195    12999.097    3774.0441     8218.058    311.51708    14037 
257000000   -232.32852    11745.356    12831.349     3643.973    8333.7113    307.49707    14054 
258000000   -261.01994    11598.062    12935.804    3709.1834    8149.8986     310.0003    14025 
259000000    -242.3755    11694.406    12832.945    3806.8487    8129.9331    307.53534    14027 
260000000   -226.65592    11484.603    13083.671    3608.4038    8102.8549    313.54386    14063 
261000000   -234.09684    11498.861    12991.121    3596.1632    8136.7947    311.32594    14034 
262000000   -251.00702    11687.691    12993.732    3691.4025    8247.2955     311.3885    14028 
263000000   -242.88396    11820.049    12874.012    3834.6767     8228.256    308.51948    14034 
264000000   -234.86319    11942.404    13034.433    3803.6485    8373.6191    312.36391    14029 
265000000   -226.87153    11704.353    12887.773    3676.9465    8254.2783    308.84926    14031 
266000000   -236.29745    11761.047    12911.832    3709.4547    8287.8901    309.42582    14052 
267000000   -237.56902    11695.999    12957.505    3793.5382    8140.0301    310.52035    14024 
268000000   -218.55084    11622.266    13109.533    3680.3382    8160.4787    314.16362    14023 
269000000   -228.01007    11605.041    12866.504     3629.573    8203.4782    308.33955    14067 
270000000   -271.76409    11707.762    13011.881    3725.1996    8254.3264    311.82344    14050 
271000000   -244.74493    11663.064    12918.386    3692.8645    8214.9444    309.58288    14044 
272000000   -244.98764    11654.725    12798.161    3709.5911    8190.1213    306.70174    14039 
273000000   -222.07721     11693.65    13013.838    3670.5083    8245.2186    311.87034    14072 
274000000   -245.95216    11563.493    12841.043    3598.5718    8210.8735    307.72939    14073 
275000000   -234.60123    11582.386    12958.507    3698.5401    8118.4471    310.54437    14037 
276000000   -251.64226    11595.991    12860.723    3738.9896    8108.6433    308.20102    14032 
277000000   -226.98683    11669.713    13028.696    3660.4091    8236.2912    312.22642    14038 
278000000   -247.94493    11660.061    12875.474     3755.578    8152.4284    308.55453    14022 
279000000   -235.55337    11673.654    12815.425    3719.4942    8189.7133    307.11547    14037 
280000000   -248.83605    11558.068    12877.881    3596.3677    8210.5366     308.6122    14058 
281000000   -217.21932    11587.515    12934.474    3651.5267    8153.2071    309.96842    14061 
282000000   -257.18136    11830.677    12903.481    3728.5648    8359.2934    309.22569    14047 
283000000   -255.01413    11666.386    12878.525    3699.7459    8221.6542    308.62763    14036 
284000000   -229.17645    11783.803    12947.921    3800.5309    8212.4485    310.29068    14000 
285000000   -227.82614     11721.61    12899.302    3752.5616    8196.8747    309.12555    14024 
286000000   -258.13561    11639.487    13005.257    3724.1163    8173.5063     311.6647    14057 
287000000    -232.4106    11550.229    12968.147    3618.0997    8164.5399    310.77538    14083 
288000000   -230.69061    11681.165    12966.088    3678.6194     8233.236    310.72605    14047 
289000000   -235.51884    11765.311    12864.065    3829.8333    8170.9961     308.2811    14017 
290000000   -210.14046    11666.466    12734.169    3750.7061    8125.9004    305.16821    14039 
291000000   -244.39937    11642.434    12908.133    3635.8166     8251.017    309.33717    14041 
292000000   -219.42862    11628.185    13071.324    3694.5218    8153.0915    313.24797    14052 
293000000    -228.4152    11769.822    12878.505    3691.6934    8306.5435    308.62717    14077 
294000000   -249.14159    11642.339    12971.815    3732.0296    8159.4507    310.86328    14055 
295000000   -223.27253    11766.639    12936.936    3775.7543    8214.1573    310.02744    14056 
296000000   -257.30953    11811.435    13006.031    3783.7287    8285.0161    311.68325    14051 
297000000   -249.19903    11556.768    12789.025    3657.9158    8148.0511     306.4828    14032 
298000000   -235.03088    11589.587    12897.701    3688.9188    8135.6995    309.08717    14024 
299000000   -254.40112    11703.798    12873.725    3613.9606    8344.2386     308.5126    14063 
300000000    -224.1512    11662.999    12951.134    3692.5271    8194.6233    310.36767    14058 
301000000   -252.02399    11703.912    12940.396    3670.6358    8285.3006    310.11035    14043 
302000000   -222.52823    11589.577    13043.761    3664.8627    8147.2425    312.58745    14061 
303000000   -250.83131    11791.116    13013.393    3771.1399    8270.8076    311.85969    14041 
304000000   -246.63738    11625.863    12900.401    3653.1026    8219.3977    309.15189    14067 
305000000   -248.99314    11745.072    12996.252     3694.392    8299.6727     311.4489    14065 
306000000    -256.4326    11532.975    13043.091    3577.3457    8212.0618    312.57137    14061 
307000000   -224.47473    11535.894    13000.103    3608.9848     8151.384    311.54118    14046 
308000000   -244.11923    11655.272    12836.594    3653.4265    8245.9642    307.62278    14030 
309000000   -236.76223    11628.967    12964.409    3609.5376    8256.1919    310.68581    14057 
310000000   -234.32673    11470.323      13007.1    3554.9645    8149.6848    311.70887    14070 
311000000   -247.24645    11711.226    12990.693    3686.9455    8271.5268    311.31567    14025 
312000000   -238.76612     11602.26    12887.059    3686.1759    8154.8507    308.83216    14057 
313000000   -251.31142     11655.72    12880.267    3658.8802    8248.1516    308.66938    14026 
314000000   -236.24987    11735.544    13073.944    3675.3714    8296.4229    313.31075    14056 
315000000   -238.22586    11533.093    12849.191    3653.0098    8118.3088    307.92466    14021 
316000000   -244.07687    11655.285    13009.206    3639.9778    8259.3837    311.75934    14046 
317000000   -244.42295    11480.031     12854.05    3511.9021    8212.5523     308.0411    14069 
318000000   -242.71318    11838.945    12863.684    3850.1664    8231.4916    308.27197    14001 
319000000   -266.51804    11904.743    12973.309    3777.9513    8393.3097    310.89908    14020 
320000000   -251.21652    11643.863     12954.16    3721.0565    8174.0229     310.4402    14048 
321000000   -241.54528    11687.928    13003.977    3623.2736    8306.1993    311.63404    14056 
322000000   -234.63258    11491.335    12968.342    3531.0081    8194.9595    310.78005    14027 
323000000   -239.79662    11693.011    12992.772     3703.471    8229.3363    311.36552    14031 
324000000   -247.80232    11585.337    12828.442    3632.2575    8200.8813    307.42741    14031 
325000000   -247.75929    11697.056    12784.987    3710.0755    8234.7396    306.38603    14035 
326000000   -270.48736    11730.857      12927.6    3733.0546    8268.2898    309.80368    14033 
327000000   -223.97514    11564.485    12984.913    3716.1913    8072.2683    311.17718    14042 
328000000   -230.02794     11434.06    12994.769     3579.735    8084.3531    311.41338    14077 
329000000    -259.4697    11476.778    12760.688    3567.9205    8168.3273    305.80372    14081 
330000000   -266.96615    11651.178    12981.553     3644.375    8273.7687    311.09664    14100 
331000000   -222.32957    11726.288    12918.405     3768.394    8180.2236    309.58335    14032 
332000000   -245.89958    11613.917    12959.793    3584.0151    8275.8016    310.57519    14084 
333000000   -238.32408    11652.209     12957.24    3693.0161    8197.5174    310.51401    14062 
334000000   -243.31807    11678.567      12887.6    3645.2834    8276.6015    308.84511    14042 
335000000   -228.28758     11788.29    12952.632    3777.5345    8239.0431    310.40356    14062 
336000000   -224.16887    11542.849    12791.181    3600.3521    8166.6654    306.53447    14062 
337000000   -245.91903    11766.526    12874.481    3670.2701    8342.1747    308.53072    14061 
338000000   -216.23426    11722.578    12984.246    3845.0172    8093.7948     311.1612    14037 
339000000   -231.48999    11857.327    13160.749    3791.2954    8297.5218    315.39099    14014 
340000000   -237.28252    11622.436    12890.889    3642.4877    8217.2306    308.92393    14040 
341000000    -231.5386    11679.272    12944.847    3763.7217    8147.0894    310.21701    14017 
342000000   -225.48362    11830.802    12994.002    3731.8865    8324.3993    311.39497    14031 
343000000   -254.85477    11662.303    12826.812    3624.4646    8292.6931    307.38836    14045 
344000000   -236.71491    11613.867    12894.176    3699.5647    8151.0176    309.00271    14053 
345000000   -232.63292     11641.96    12964.926    3687.1143    8187.4786    310.69819    14052 
346000000   -250.12796     11499.98    12918.525    3589.7779    8160.3297    309.58621    14064 
347000000   -229.99153    11822.406    12895.774     3787.933    8264.4648    309.04101    14062 
348000000   -252.32517    11661.143    13033.508    3697.1181    8216.3496    312.34173    14064 
349000000   -270.20588    11652.813    12892.809    3727.3244    8195.6948    308.96993    14035 
350000000   -238.49424    11797.166    12976.011    3680.1612    8355.4987    310.96383    14060 
351000000   -240.46991    11692.282    13062.588    3749.5108    8183.2409    313.03862    14041 
352000000   -224.68962    11785.962    12915.373    3799.5007    8211.1507    309.51068    14019 
353000000   -256.29866    11668.744    12849.456    3685.3523      8239.69    307.93102    14037 
354000000   -238.15334    11678.836    12855.963    3681.3794    8235.6096    308.08695    14039 
355000000   -221.89521    11760.142    12993.822    3803.2311    8178.8056    311.39068    14051 
356000000   -246.54953    11689.809    12868.043     3775.474    8160.8842    308.37643    14031 
357000000    -247.6952    11695.317    12931.247    3739.2431     8203.769    309.89108    14070 
358000000   -229.72244    11752.855    12855.099    3684.6249    8297.9526    308.06624    14058 
359000000   -266.36634    11704.327    13067.526    3726.0515    8244.6415    313.15696    14049 
360000000   -233.22115    11607.047    12994.111    3636.1253    8204.1425    311.39759    14069 
361000000   -208.90954    11720.926    12983.624    3719.9067    8209.9292    311.14628    14065 
362000000   -193.93483    11775.298    12872.109    3652.7658     8316.467    308.47389    14060 
363000000   -238.91421    11757.927    12976.354    3688.0925    8308.7483    310.97207    14058 
364000000   -230.42462    11542.773    12890.163      3599.23    8173.9675    308.90654    14058 
365000000   -244.73622     11593.97    12967.432    3695.7864    8142.9199    310.75825    14036 
366000000   -218.21226     11671.49    13001.716    3710.7473    8178.9545    311.57984    14038 
367000000   -262.01355    11696.967    13066.154    3756.3596    8202.6213    313.12408    14033 
368000000   -231.61738    11744.778    12858.424    3760.0866    8216.3087    308.14591    14052 
369000000   -270.65336    11558.351     12885.43    3674.5525    8154.4521    308.79312    14061 
370000000    -233.3885    11668.285    12993.999    3630.7831    8270.8902    311.39491    14052 
371000000   -224.09559    11727.705    12916.822    3757.8928     8193.908     309.5454    14053 
372000000   -222.64128    11523.224    12956.999    3603.8255    8142.0399    310.50822    14058 
373000000   -251.06235    11711.538    13092.787    3714.4618    8248.1386    313.76232    14050 
374000000   -238.49725    11739.613    12838.391    3711.4569    8266.6534    307.66584    14044 
375000000   -243.32566    11726.267    12973.938    3703.6065     8265.986    310.91416    14073 
376000000   -244.07714    11632.151    13092.254    3645.4998    8230.7285    313.74954    14050 
377000000    -249.5114    11685.738    12995.291    3655.7307    8279.5191    311.42588    14037 
378000000   -242.06712    11680.841    12814.947    3715.3567    8207.5512    307.10401    14036 
379000000   -225.04373    11640.933      12819.5    3681.3074    8184.6698    307.21312    14061 
380000000   -240.01185    11687.367    12865.033      3667.34    8260.0384     308.3043    14043 
381000000   -228.67495    11611.687    12854.962    3638.9124    8201.4493    308.06295    14059 
382000000   -239.21897    11769.103    13063.942    3832.0092    8176.3132    313.07107    14032 
383000000   -226.68783    11601.309    12914.746    3627.8976    8200.0996    309.49564    14050 
384000000   -242.99196    11681.198    12994.314    3754.3557    8169.8346    311.40246    14007 
385000000   -229.99668     11815.98      12908.7    3667.0324    8378.9446    309.35077    14033 
386000000   -231.17378    11891.104    12924.011    3761.5262    8360.7521    309.71768    14015 
387000000   -237.50056    11713.441    12742.436    3665.1986    8285.7431    305.36634    14044 
388000000   -235.78515    11554.246    13016.805    3636.9116    8153.1199    311.94146    14042 
389000000   -223.04529    11905.219    12906.773    3791.1305    8337.1341    309.30459    14004 
390000000   -258.20769    11632.765    12808.216    3756.3503    8134.6224    306.94272    14037 
391000000   -241.70287    11701.253    12956.919    3728.7304    8214.2257    310.50632    14050 
392000000    -245.4516     11626.51    12939.993     3692.667    8179.2947    310.10069    14044 
393000000    -239.0949    11614.773    12875.399    3610.5162    8243.3521    308.55273    14039 
394000000   -214.84153    11673.561    12983.299    3740.0918    8148.3109    311.13849    14042 
395000000    -253.3221    11785.816    12942.676    3710.5056    8328.6322    310.16497    14034 
396000000   -257.11553    11667.689    13104.011    3620.9673    8303.8376     314.0313    14059 
397000000   -242.17921    11532.259     12911.58    3627.3634    8147.0749    309.41978    14050 
398000000   -234.23625    11558.844    12969.095    3713.7563    8079.3241    310.79809    14050 
399000000   -233.99837    11783.741    12925.858    3694.2703    8323.4694    309.76195    14054 
400000000   -234.84821    11574.801    12864.484     3581.774    8227.8756    308.29114    14066 
401000000   -234.23762    11611.369    13046.261    3673.0451    8172.5615    312.64735    14048 
402000000   -220.37901      11728.1    12954.108    3672.4529    8276.0259    310.43893    14051 
403000000   -224.67121    11501.354    13106.715    3663.6259    8062.3989    314.09609    14073 
404000000   -262.37414    11657.492    13008.047    3645.2022    8274.6643    311.73157    14050 
405000000   -251.66997    11584.421    12935.871    3617.0931    8218.9974    310.00189    14041 
406000000    -234.9583    11518.324    12971.434    3678.1917    8075.0908    310.85415    14038 
407000000    -231.0938    11592.479    12817.306    3663.0897    8160.4828    307.16056    14035 
408000000   -221.12825    11698.702    12816.788    3731.1911    8188.6389    307.14814    14059 
409000000   -225.75301    11708.367    13110.391    3713.3414    8220.7786    314.18419    14039 
410000000    -229.6186    11653.744     12917.14    3638.7524    8244.6104    309.55304    14051 
411000000   -240.83444    11648.885    12924.654    3709.4465     8180.273     309.7331    14059 
412000000   -225.01456    11626.021    12861.745    3642.5693    8208.4658    308.22551    14050 
413000000   -242.79509    11622.902    12901.254     3683.024    8182.6728    309.17233    14027 
414000000   -259.28031    11641.969    12919.704    3738.8427    8162.4071    309.61447    14023 
415000000    -225.1181    11835.678    12992.683    3793.2549    8267.5411    311.36337    13992 
416000000   -245.92812    11652.314    12881.808    3805.7564    8092.4862     308.7063    14031 
417000000   -253.62168    11801.297    12909.863    3821.3358    8233.5833    309.37863    14018 
418000000   -238.30718    11699.745    12988.353    3764.8689     8173.183    311.25961    14011 
419000000   -229.07505    11671.752    12956.988    3679.4881    8221.3392    310.50797    14037 
420000000   -239.65392    11809.513    12880.986    3789.6226    8259.5444    308.68661    14022 
421000000   -223.14313    11871.893    13085.996    3732.5398    8362.4964    313.59958    14064 
422000000   -244.47085    11673.766     13006.52     3682.792    8235.4453    311.69498    14035 
423000000    -215.7528     11648.68    13054.183    3614.3717     8250.061    312.83719    14032 
424000000   -231.20206    11719.232    12978.726    3754.6232    8195.8113     311.0289    14016 
425000000   -241.48072    11728.409    12950.023    3771.0348    8198.8553    310.34104    14014 
426000000   -222.29911    11633.337     13029.74    3741.3556    8114.2803    312.25142    14027 
427000000   -255.98833    11715.883    12849.583    3661.7698    8310.1018    307.93405    14053 
428000000   -224.80239    11540.668    12921.891     3589.045    8176.4251    309.66688    14063 
429000000   -248.31263    11611.911    13063.284    3707.1645    8153.0593     313.0553    14035 
430000000   -245.17806    11717.009    12836.191    3754.6395    8207.5479    307.61313    14027 
431000000   -251.66851    11650.162    12935.402    3714.9493    8186.8815    309.99066    14018 
432000000   -230.62455     11673.18    12907.446    3761.1553    8142.6494    309.32072    14017 
433000000   -220.01793    11568.277     12990.56     3643.001    8145.2939     311.3125    14065 
434000000   -242.77076    11629.188    13037.332    3682.2203    8189.7382    312.43337    14039 
435000000   -232.05323    11541.972    12939.843    3621.5351    8152.4904    310.09708    14042 
436000000   -256.95784    11616.661    13003.189    3651.8898    8221.7295    311.61514    14057 
437000000   -248.70615    11693.019    12957.467    3725.7177    8216.0077    310.51944    14031 
438000000   -230.63768    11528.199    12909.542    3618.6513    8140.1852    309.37093    14052 
439000000   -234.17962    11566.291    12965.229    3585.1935    8215.2775    310.70546    14054 
440000000   -247.83464    11716.238    12913.835    3800.9067     8163.166    309.47381    14034 
441000000   -260.35852    11693.027    12772.765    3699.9396    8253.4455    306.09315    14028 
442000000   -226.21606    11544.983    12987.201    3702.3725    8068.8264    311.23199    14029 
443000000   -255.59193    11721.027    12896.692    3713.6355    8262.9836      309.063    14021 
444000000   -239.92104     11636.15    13087.843    3696.2814    8179.7894    313.64384    14059 
445000000   -224.86445    11564.827    12859.028    3609.0486    8180.6431     308.1604    14055 
446000000   -251.66538    11604.867    12938.534    3706.7117    8149.8208    310.06572    14022 
447000000    -266.7074    11721.754    12925.813     3722.274     8266.187    309.76087    14033 
448000000   -262.12025    11739.127     13007.95     3849.833    8151.4138    311.72925    14011 
449000000   -244.72728    11792.206     12829.43    3744.5691     8292.364     307.4511    14010 
450000000   -224.57719    11518.774    12974.152    3679.6702    8063.6812    310.91929    14061 
451000000   -229.23351    11669.924    12870.264    3692.4512    8206.7067    308.42967    14039 
452000000   -239.92086    11548.302    12922.481     3645.151    8143.0723    309.68102    14041 
453000000    -256.1384    11788.781    12916.141    3705.7679    8339.1511    309.52909    14056 
454000000   -238.18783    11724.915    12871.739    3688.5339     8274.569    308.46501    14052 
455000000   -240.51738    11533.435    12980.495    3595.3881     8178.564     311.0713    14063 
456000000   -263.97815    11590.007     12958.72    3701.0312    8152.9538    310.54948    14057 
457000000   -244.81375    11905.299    13070.567    3790.5548    8359.5575    313.22984    14046 
458000000   -233.39903    11698.553    12940.804    3727.5681    8204.3835    310.12012    14023 
459000000   -240.85488    11827.448    12833.037    3805.1067    8263.1966    307.53754    14029 
460000000   -233.63458    11545.149    12986.539    3661.3753    8117.4086    311.21614    14049 
461000000   -240.42458    11599.095    12890.057    3689.0761    8150.4438      308.904    14023 
462000000   -243.47427    11664.531    12872.984    3752.6581    8155.3473    308.49486    14027 
463000000    -237.6674     11621.13    13184.065    3679.5361    8179.2611    315.94976    14057 
464000000   -244.61233    11633.667     13066.79    3610.8643    8267.4149    313.13932    14061 
465000000    -258.5348    11709.884    12974.281    3716.4335    8251.9853    310.92239    14042 
466000000    -258.3973    11547.251    12911.485    3667.2771    8138.3715     309.4175    14056 
467000000   -253.97477    11619.438    12890.509    3670.5968    8202.8158    308.91482    14019 
468000000   -214.82552    11695.156    12909.448    3724.3325    8185.6493    309.36869    14055 
469000000   -219.65759    11546.558    12886.485    3616.4862    8149.7297    308.81839    14054 
470000000   -220.66905     11572.65    12887.104    3772.2003    8021.1188    308.83324    14046 
471000000   -221.90294    11736.067    12901.093    3686.0939    8271.8756    309.16846    14030 
472000000    -245.4503    11508.325    13014.763    3585.0468    8168.7284     311.8925    14075 
473000000   -239.69322    11695.512    12982.851    3782.3387    8152.8666    311.12775    14031 
474000000   -219.50346    11670.552    12952.853    3648.3841     8241.671    310.40888    14079 
475000000   -221.02918    11590.495    13080.212    3650.8617    8160.6623    313.46096    14060 
476000000   -242.82788    11802.065    13024.131    3680.9385    8363.9549    312.11701    14035 
477000000   -234.61409    11626.289    12772.126    3643.1556    8217.7473    306.07784    14031 
478000000   -235.79233    11664.052     12866.79      3721.24    8178.6046    308.34642    14036 
479000000   -254.31463    11706.162    13017.608    3827.3689    8133.1075    311.96069    14055 
480000000   -227.15722     11618.83    12952.122    3635.2812    8210.7057    310.39135    14031 
481000000   -265.40963     11678.71    12934.162    3687.4715    8256.6479    309.96096    14022 
482000000    -260.4967    11747.587    12844.809    3750.8778    8257.2062    307.81964    14039 
483000000   -248.26287    11475.662    12958.585    3572.3797    8151.5454    310.54623    14101 
484000000   -263.50866     11552.17    12877.091    3582.6177    8233.0605    308.59326    14059 
485000000   -248.80561    11758.932      12805.7    3764.5476    8243.1901    306.88243    14036 
486000000   -216.94682     11625.29    12937.328    3621.4071    8220.8297    310.03683    14035 
487000000   -238.09048    11639.676    12770.124    3661.7345    8216.0322    306.02987    14066 
488000000   -252.38572    11594.737     12777.58    3627.2941    8219.8288    306.20854    14073 
489000000   -232.40145    11654.732    12940.097    3619.9679    8267.1653    310.10318    14045 
490000000   -236.91776    11508.575    12739.526    3563.9744    8181.5185    305.29659    14062 
491000000   -255.80817    11541.809    12887.363    3689.2013    8108.4162    308.83944    14031 
492000000   -226.23571    11676.955    12992.333    3723.1621    8180.0283    311.35499    14049 
493000000   -242.34454    11613.565    12903.049     3693.273    8162.6369    309.21534    14044 
494000000    -252.1863    11620.901    12824.597    3648.3087    8224.7789    307.33528    14052 
495000000   -228.63725    11641.409     12981.07    3683.8768    8186.1693    311.08508    14049 
496000000   -231.72177    11721.033    12850.241    3780.2628    8172.4924    307.94982    14023 
497000000   -216.76476     11662.16    12994.107    3671.1099    8207.8144     311.3975    14047 
498000000   -246.54599    11640.473    12875.513    3649.6727    8237.3462    308.55545    14042 
499000000   -227.91415    11483.148    12969.515    3571.2933    8139.7686    310.80817    14100 
500000000   -240.46854    11600.967    12855.338    3685.0733    8156.3626    308.07197    14045 
Loop time of 143518 on 28 procs for 500000000 steps with 14000 atoms

Performance: 7525.206 ns/day, 0.003 hours/ns, 3483.892 timesteps/s
99.2% CPU use with 28 MPI tasks x no OpenMP threads

MPI task timing breakdown:
Section |  min time  |  avg time  |  max time  |%varavg| %total
---------------------------------------------------------------
Pair    | 7198.2     | 7666.7     | 10848      | 729.1 |  5.34
Bond    | 5510.9     | 5839.4     | 11986      |1554.8 |  4.07
Neigh   | 24197      | 24574      | 25005      | 132.1 | 17.12
Comm    | 51608      | 57804      | 61535      | 995.5 | 40.28
Output  | 0.66282    | 0.66374    | 0.66487    |   0.1 |  0.00
Modify  | 26923      | 27137      | 27629      |  93.0 | 18.91
Other   |            | 2.05e+04   |            |       | 14.28

Nlocal:    500 ave 531 max 450 min
Histogram: 1 0 2 2 5 3 3 3 6 3
Nghost:    345.429 ave 549 max 189 min
Histogram: 2 2 4 2 9 5 1 1 1 1
Neighs:    2034.86 ave 2769 max 1723 min
Histogram: 5 5 5 4 6 1 1 0 0 1

Total # of neighbors = 56976
Ave neighs/atom = 4.06971
Ave special neighs/atom = 6.28014
Neighbor list builds = 99879038
Dangerous builds = 0
System init for write_restart ...
Total wall time: 39:52:02
