LAMMPS (5 Jun 2019)
Reading data file ...
  orthogonal box = (-420 -420 -420) to (420 420 420)
  2 by 2 by 7 MPI processor grid
  reading atoms ...
  14000 atoms
  scanning bonds ...
  51 = max bonds/atom
  scanning angles ...
  1 = max angles/atom
  reading bonds ...
  13800 bonds
  reading angles ...
  13600 angles
Finding 1-2 1-3 1-4 neighbors ...
  special bond factors lj:   0          0          0         
  special bond factors coul: 0          0          0         
  2 = max # of 1-2 neighbors
  2 = max # of 1-3 neighbors
  4 = max # of 1-4 neighbors
  56 = max # of special neighbors
  special bonds CPU = 0.00176521 secs
  read_data CPU = 0.0353536 secs
Finding 1-2 1-3 1-4 neighbors ...
  special bond factors lj:   1          1          1         
  special bond factors coul: 0          0          0         
  2 = max # of 1-2 neighbors
  2 = max # of 1-3 neighbors
  4 = max # of 1-4 neighbors
  56 = max # of special neighbors
  special bonds CPU = 0.000678898 secs
WARNING: Using 'neigh_modify every 1 delay 0 check yes' setting during minimization (../min.cpp:168)
Neighbor list info ...
  update every 1 steps, delay 0 steps, check yes
  max neighbors/atom: 2000, page size: 100000
  master list distance cutoff = 26.9
  ghost atom cutoff = 26.9
  binsize = 13.45, bins = 63 63 63
  1 neighbor lists, perpetual/occasional/extra = 1 0 0
  (1) pair lj/cut, perpetual
      attributes: half, newton on
      pair build: half/bin/newton
      stencil: half/bin/3d/newton
      bin: standard
Setting up cg style minimization ...
  Unit style    : real
  Current step  : 0
Per MPI rank memory allocation (min/avg/max) = 1.164 | 13.81 | 17.68 Mbytes
Step Temp E_pair E_mol TotEng Press 
       0            0 1.097855e+12      2649600 1.0978577e+12 5.0804878e+08 
    3165            0    -1749.261     5102.442     3353.181 0.0087270459 
Loop time of 0.686646 on 28 procs for 3165 steps with 14000 atoms

99.1% CPU use with 28 MPI tasks x no OpenMP threads

Minimization stats:
  Stopping criterion = energy tolerance
  Energy initial, next-to-last, final = 
     1.09785765867e+12      3353.38932291      3353.18099319
  Force two-norm initial, final = 8.92234e+10 1.58028
  Force max component initial, final = 1.04805e+09 0.193454
  Final line search alpha, max atom move = 0.612771 0.118543
  Iterations, force evaluations = 3165 3624

MPI task timing breakdown:
Section |  min time  |  avg time  |  max time  |%varavg| %total
---------------------------------------------------------------
Pair    | 0.050101   | 0.16472    | 0.29125    |  16.5 | 23.99
Bond    | 0.014842   | 0.044724   | 0.073433   |   7.3 |  6.51
Neigh   | 0.093086   | 0.094609   | 0.096883   |   0.3 | 13.78
Comm    | 0.092175   | 0.22372    | 0.38068    |  17.0 | 32.58
Output  | 0          | 0          | 0          |   0.0 |  0.00
Modify  | 0          | 0          | 0          |   0.0 |  0.00
Other   |            | 0.1589     |            |       | 23.14

Nlocal:    500 ave 826 max 174 min
Histogram: 1 3 4 4 2 2 8 1 1 2
Nghost:    338.893 ave 565 max 156 min
Histogram: 3 3 2 1 6 7 2 2 1 1
Neighs:    3508.14 ave 5788 max 1093 min
Histogram: 1 4 2 5 2 1 6 2 0 5

Total # of neighbors = 98228
Ave neighs/atom = 7.01629
Ave special neighs/atom = 5.82857
Neighbor list builds = 221
Dangerous builds = 0
Setting up Verlet run ...
  Unit style    : real
  Current step  : 3165
  Time step     : 0.1
Per MPI rank memory allocation (min/avg/max) = 1.128 | 14 | 16.55 Mbytes
Step Temp E_pair E_mol TotEng Press 
    3165            0    -1749.261     5102.442     3353.181 0.0087270459 
   13165    222.30993   -1373.0464    8856.1257    16759.708   -1.6772399 
Loop time of 1.18109 on 28 procs for 10000 steps with 14000 atoms

Performance: 73.153 ns/day, 0.328 hours/ns, 8466.782 timesteps/s
99.5% CPU use with 28 MPI tasks x no OpenMP threads

MPI task timing breakdown:
Section |  min time  |  avg time  |  max time  |%varavg| %total
---------------------------------------------------------------
Pair    | 0.054295   | 0.18082    | 0.33816    |  18.9 | 15.31
Bond    | 0.035475   | 0.10438    | 0.17116    |  11.2 |  8.84
Neigh   | 0.0020587  | 0.0021167  | 0.0021907  |   0.1 |  0.18
Comm    | 0.21818    | 0.41301    | 0.60881    |  16.9 | 34.97
Output  | 3.2281e-05 | 5.3718e-05 | 7.5374e-05 |   0.0 |  0.00
Modify  | 0.085312   | 0.24244    | 0.40118    |  16.4 | 20.53
Other   |            | 0.2383     |            |       | 20.17

Nlocal:    500 ave 826 max 172 min
Histogram: 1 3 4 4 2 2 7 2 1 2
Nghost:    338.321 ave 563 max 156 min
Histogram: 3 3 3 0 6 7 2 2 1 1
Neighs:    3515.5 ave 5767 max 1108 min
Histogram: 2 2 3 5 2 1 5 3 0 5

Total # of neighbors = 98434
Ave neighs/atom = 7.031
Ave special neighs/atom = 5.82857
Neighbor list builds = 5
Dangerous builds = 0
4000 atoms in group rxnSites
Neighbor list info ...
  update every 1 steps, delay 1 steps, check yes
  max neighbors/atom: 2000, page size: 100000
  master list distance cutoff = 26.9
  ghost atom cutoff = 26.9
  binsize = 13.45, bins = 63 63 63
  2 neighbor lists, perpetual/occasional/extra = 1 1 0
  (1) pair lj/cut, perpetual
      attributes: half, newton on
      pair build: half/bin/newton
      stencil: half/bin/3d/newton
      bin: standard
  (2) fix bond/create/random, occasional, copy from (1)
      attributes: half, newton on
      pair build: copy
      stencil: none
      bin: none
Setting up Verlet run ...
  Unit style    : real
  Current step  : 0
  Time step     : 25
Per MPI rank memory allocation (min/avg/max) = 17.87 | 18.29 | 18.83 Mbytes
Step E_pair PotEng KinEng E_bond E_angle Temp Bonds 
       0   -1373.0464    7483.0792    9276.6288    2999.7514    5856.3743    222.30993    13800 
 1000000   -226.58966    11714.137    12899.094    3694.1848    8246.5415    309.12055    14038 
 2000000   -264.15814    11714.507    12917.776    3764.4793    8214.1855    309.56826    14036 
 3000000   -253.43951    11649.866      12961.3    3645.2325    8258.0735    310.61129    14049 
 4000000   -257.70628    11718.342    12852.663    3753.4638    8222.5841    308.00786    14034 
 5000000    -229.6423    11661.244    12865.583    3729.1391    8161.7475    308.31749    14041 
 6000000   -252.41455    11635.573    12793.659    3686.7681    8201.2197    306.59386    14044 
 7000000   -244.14231    11646.195    13025.904    3700.6264    8189.7109    312.15951    14038 
 8000000   -251.48417    11640.038    13004.222    3671.6981    8219.8239    311.63989    14035 
 9000000   -224.98274     11727.13    12928.668    3727.2487    8224.8636    309.82929    14022 
10000000    -247.0914    11628.975    12841.103    3678.2058    8197.8601    307.73083    14071 
11000000   -251.63099     11669.89    12861.161     3674.792    8246.7287    308.21152    14043 
12000000   -221.45356    11743.557    12904.441    3702.1123    8262.8985    309.24871    14054 
13000000   -225.86991    11772.339     12977.53    3706.8354    8291.3739    311.00023    14055 
14000000   -253.37719    11742.148    12854.443    3715.9101    8279.6149    308.05051    14052 
15000000    -245.4549    11775.777    12830.671    3779.0879    8242.1444    307.48085    14021 
16000000   -240.22444    11655.822    13075.407    3674.7379    8221.3083    313.34581    14054 
17000000   -255.41917    11665.086    12894.027    3699.2217    8221.2836    308.99913    14012 
18000000    -242.5614    11627.822    12952.694    3722.6845     8147.699    310.40507    14022 
19000000   -270.10505    11749.088    13059.663    3738.0609    8281.1317    312.96853    14052 
20000000   -239.17931    11506.956    12984.652    3597.9267    8148.2088     311.1709    14068 
21000000    -248.8653    11569.854    13030.142    3716.6862    8102.0334    312.26105    14065 
22000000   -239.92049    11519.678    12951.444    3612.9038    8146.6944    310.37509    14078 
23000000   -233.67341    11521.788    12909.863     3580.686    8174.7757    309.37863    14049 
24000000   -234.96641    11785.525    12946.031    3753.2853    8267.2062    310.24539    14020 
25000000   -235.95988    11584.852    13040.331    3620.9613    8199.8505    312.50525    14051 
26000000   -227.34804    11590.568    12910.142     3702.805    8115.1109    309.38533    14036 
27000000   -245.98209    11799.652    12820.035    3771.7071    8273.9266    307.22595    14024 
28000000   -263.76991    11661.392      13048.8    3696.9706    8228.1916     312.7082    14045 
29000000   -211.43958    11598.545    13019.764    3602.5519    8207.4329    312.01236    14064 
30000000   -244.79131    11619.068    12884.496    3625.2557     8238.604    308.77072    14052 
31000000   -240.18818    11599.682    12964.282    3768.7548    8071.1158    310.68277    14045 
32000000    -222.0403    11467.232    12996.702    3537.1427    8152.1297    311.45968    14051 
33000000    -236.6491    11562.842    12837.601    3613.7687    8185.7228    307.64691    14068 
34000000   -234.80295    11503.106    12898.049    3604.6054    8133.3039    309.09551    14049 
35000000   -216.28336    11599.654    13045.373     3595.376    8220.5611    312.62607    14053 
36000000   -238.15115    11623.929    12953.709    3701.6896    8160.3908    310.42939    14016 
37000000   -252.56261      11758.5    12913.038    3665.6587    8345.4041    309.45472    14071 
38000000   -248.30746    11522.587    13056.119    3598.5028    8172.3915    312.88359    14050 
39000000   -240.14252    11730.984     12902.88     3780.454    8190.6725    309.21128    13992 
40000000   -240.11343     11638.72    12979.351     3748.512    8130.3218    311.04388    14011 
41000000   -252.75251    11762.905    13084.762    3699.7119    8315.9455    313.56999    14044 
42000000   -231.36201    11823.178     12871.05    3801.8942    8252.6455     308.4485    14019 
43000000   -223.18054     11729.35    12986.919    3785.0835    8167.4473    311.22524    14017 
44000000   -240.13257     11693.47    13033.163    3677.5295    8256.0733    312.33345    14033 
45000000   -234.20813    11818.393    13057.154    3741.0141    8311.5866     312.9084    14031 
46000000   -239.38683    11660.223    12948.841    3673.2993    8226.3103    310.31273    14060 
47000000   -243.91145    11700.356    12890.182    3784.2969    8159.9702    308.90698    14019 
48000000   -228.87445    11607.983    12839.348    3767.7154    8069.1423    307.68877    14009 
49000000   -248.60456    11633.303    12901.118    3680.7772      8201.13    309.16906    14031 
50000000   -243.89461    11786.855    13024.337    3758.0279    8272.7218    312.12194    14044 
51000000   -242.95605    11718.291    12932.669    3678.6319    8282.6148    309.92518    14036 
52000000    -236.3369    11708.497    12682.916    3737.8365    8206.9977    303.93995    14023 
53000000   -235.24619    11580.307    13000.341    3631.5481    8184.0054     311.5469    14068 
54000000   -248.17928    11605.527    12918.877    3623.6846    8230.0216    309.59464    14063 
55000000   -248.39286    11553.873    12833.286    3708.5703    8093.6953    307.54351    14024 
56000000   -247.17113    11668.981    13047.091    3743.7908    8172.3613    312.66724    14019 
57000000   -224.69035     11664.61     12903.56    3735.3499    8153.9506    309.22759    14038 
58000000    -239.1525    11717.059    12979.578    3687.5744    8268.6368    311.04932    14031 
59000000   -263.56817    11917.885    12842.339    3771.4085    8410.0449    307.76044    14021 
60000000   -261.41602     11590.88    12854.722    3616.3657    8235.9308    308.05722    14042 
61000000   -216.45081    11639.058     12889.75    3641.9271    8213.5817    308.89664    14044 
62000000   -243.41605    11762.546    12889.668     3835.177    8170.7854    308.89466    14020 
63000000   -228.38669    11723.702    12975.399     3746.201    8205.8875    310.94917    14028 
64000000   -246.09681    11408.024    12966.615    3616.7337    8037.3871    310.73867    14065 
65000000   -247.13069    11550.099    12940.033     3652.574    8144.6554    310.10165    14032 
66000000   -248.77296    11533.227    12916.713    3557.2581    8224.7419    309.54279    14039 
67000000   -245.26035    11763.838      12792.3    3782.1453    8226.9532     306.5613    14044 
68000000   -224.72486    11597.751    12927.686    3640.1713    8182.3047    309.80576    14061 
69000000   -226.85567    11812.317    12835.385    3854.2694    8184.9031     307.5938    14051 
70000000   -262.47958    11537.766    12967.123     3635.495    8164.7505    310.75084    14052 
71000000    -219.5846    11815.285    12948.358    3709.9283    8324.9416    310.30115    14034 
72000000   -222.39701    11778.325    13025.848    3716.3272    8284.3945    312.15815    14050 
73000000   -204.38466    11544.426    12853.122    3652.0572    8096.7533    308.01887    14054 
74000000   -238.84238    11563.932    13013.083     3666.152    8136.6222    311.85225    14050 
75000000   -248.94494    11637.797    12992.405     3683.679    8203.0628    311.35671    14052 
76000000   -244.78681    11712.132    12918.251    3758.7214    8198.1978    309.57964    14036 
77000000   -252.89467    11649.482    12924.249    3720.7855    8181.5914     309.7234    14042 
78000000   -229.91232    11679.608    12812.325    3716.9961    8192.5246    307.04117    14038 
79000000   -232.13926    11650.284    12828.438    3690.2821    8192.1412    307.42731    14035 
80000000   -228.82381    11816.904    12953.636    3759.8136    8285.9143    310.42764    14032 
81000000    -243.1525    11589.477    13084.468    3631.1162    8201.5129    313.56297    14051 
82000000   -230.47709    11606.485    13006.111    3736.2307    8100.7319    311.68518    14028 
83000000   -228.28399    11777.656    12870.251    3779.9331    8226.0073    308.42936    14044 
84000000   -246.16128    11603.656     12988.08     3648.255    8201.5623    311.25306    14058 
85000000   -240.14541    11556.229    12931.904     3644.641    8151.7334    309.90683    14060 
86000000   -234.18908    11751.645    12793.422     3729.329    8256.5049    306.58819    14019 
87000000   -242.11056    11598.054    12858.632    3618.8376    8221.3271    308.15091    14045 
88000000   -235.15677    11853.229    12906.547    3760.3168    8328.0693    309.29917    14058 
89000000    -237.0856    11730.588    12816.052    3720.2612    8247.4123    307.13049    14036 
90000000   -223.67149    11645.654    12987.488    3634.8876    8234.4382    311.23889    14053 
91000000   -227.34989    11612.868    13065.185    3682.5134     8157.704    313.10084    14071 
92000000   -247.96047    11755.703    13016.248    3800.0238    8203.6399     311.9281    14017 
93000000   -229.90033    11624.624    12855.448    3644.8217    8209.7027    308.07459    14026 
94000000   -245.62997    11764.986    12915.356     3770.003    8240.6134    309.51028    14037 
95000000   -244.52057    11714.332     12922.56    3716.9228    8241.9302    309.68291    14032 
96000000   -237.56014    11809.874    12737.094    3752.1111    8295.3227     305.2383    14030 
97000000   -252.82025    11647.007    12932.036    3687.0979    8212.7298       309.91    13995 
98000000   -213.40104    11653.655    12906.978    3669.9076    8197.1486    309.30951    14034 
99000000   -250.62185    11728.187    13083.437    3723.3689    8255.4402    313.53825    14021 
100000000     -217.328    11660.415     12991.97    3685.4337    8192.3094    311.34628    14027 
101000000   -229.88451    11629.274    13052.894    3637.7754    8221.3828    312.80629    14055 
102000000   -264.04711    11674.934    13091.023    3745.8456    8193.1354    313.72004    14061 
103000000    -245.0788    11712.069    12974.911    3708.6957    8248.4519    310.93749    14026 
104000000   -253.67802    11692.452    12971.585    3678.2858    8267.8446    310.85777    14040 
105000000    -264.3273    11648.703    12998.319    3651.6106      8261.42    311.49845    14049 
106000000   -246.11494    11678.289    12992.744     3747.477    8176.9271    311.36484    14037 
107000000   -250.10187    11684.533     12848.32    3743.4696    8191.1653    307.90379    14028 
108000000   -229.21846     11736.22    12830.012     3694.734    8270.7042    307.46505    14048 
109000000   -245.94697    11534.986    12881.819    3635.9239    8145.0086    308.70658    14057 
110000000   -272.21173    11655.488    13017.902    3718.8492    8208.8502    311.96775    14064 
111000000   -243.81228    11738.286    12882.279    3683.3692    8298.7294    308.71759    14040 
112000000   -242.70019    11550.082    12821.106    3679.0975    8113.6849     307.2516    14035 
113000000   -248.97039    11700.777    12862.479    3649.3492    8300.3979     308.2431    14019 
114000000   -246.30656    11737.765    12788.385    3637.4497    8346.6214    306.46747    14061 
115000000   -220.12476    11475.489    12949.864    3575.8387    8119.7755    310.33725    14060 
116000000   -245.83153    11684.898     12829.18    3723.7447    8206.9849     307.4451    14020 
117000000   -247.05056    11565.163    13044.943    3652.0293    8160.1848    312.61576    14067 
118000000   -229.76047    11662.694    12921.373    3635.2024    8257.2521    309.65447    14080 
119000000   -262.78251    11568.557    12954.686     3632.986    8198.3538     310.4528    14068 
120000000   -235.53433    11603.372    12777.147    3593.9983    8244.9084    306.19817    14094 
121000000    -254.0572    11590.884     13019.13    3639.7293    8205.2124    311.99717    14074 
122000000   -232.67985    11760.101    12916.768    3686.3006    8306.4804    309.54411    14061 
123000000   -246.06422    11626.719    13101.446    3645.3592    8227.4242    313.96983    14041 
124000000   -246.31786    11680.824    13041.207    3704.9776    8222.1638    312.52622    14064 
125000000   -243.27495    11686.718    12860.971    3666.0091    8263.9833    308.20696    14071 
126000000    -257.8743     11819.05    13020.635    3803.5561    8273.3684    312.03322    14024 
127000000   -251.13924    11842.845    13111.166    3741.1543    8352.8295    314.20277    14023 
128000000   -227.81025    11707.636    12983.388    3736.2493    8199.1965    311.14061    14017 
129000000   -237.07673    11791.138    12715.915    3717.3871    8310.8273    304.73078    14018 
130000000     -259.678    11725.994    12929.195    3830.7779    8154.8945    309.84192    14025 
131000000   -256.41121    11656.801    12916.591    3623.4136    8289.7987    309.53987    14054 
132000000   -227.89484    11678.681    12952.102    3726.5646    8180.0111    310.39087    14032 
133000000   -253.78969    11715.804    12863.946    3732.1989    8237.3945    308.27827    14047 
134000000   -226.37515    11688.766    12900.623     3687.555    8227.5863     309.1572    14022 
135000000   -264.38167    11780.402    13076.297    3702.9417     8341.842    313.36715    14012 
136000000   -235.29526    11599.462    12803.928    3667.1165    8167.6409    306.83996    14063 
137000000   -261.42891    11791.627    12921.811    3726.7938    8326.2624    309.66496    14021 
138000000   -208.21335    11803.513    12801.912    3769.8653    8241.8609    306.79164    14049 
139000000   -250.31369    11763.018    13052.826     3774.297    8239.0346    312.80467    14001 
140000000    -253.6626    11574.857    12908.712    3638.5401    8189.9793    309.35105    14066 
141000000   -233.59461    11548.251     12940.12    3759.3297    8022.5162    310.10374    14003 
142000000   -233.57158    11712.929    12894.061    3812.8491    8133.6514    308.99996    14023 
143000000   -237.08638    11755.144    12923.895    3863.4104    8128.8203     309.7149    14018 
144000000   -248.54011    11660.479     12946.98    3641.1221    8267.8966    310.26812    14046 
145000000   -248.51789    11592.153    12903.406     3624.367    8216.3042     309.2239    14061 
146000000   -258.34104    11590.614    12873.252    3666.8217    8182.1337    308.50126    14045 
147000000   -242.69075    11632.568    12820.525    3655.7805    8219.4779    307.23769    14043 
148000000   -237.70068    11637.995    12961.804    3607.5749    8268.1204    310.62338    14077 
149000000   -249.35116    11613.487    12823.182     3711.228    8151.6105    307.30135    14049 
150000000   -227.49747    11625.738    13063.789    3622.2873    8230.9483     313.0674    14029 
151000000   -253.59733    11621.155    13073.534    3640.3215    8234.4311    313.30094    14067 
152000000   -249.27392    11656.313    12770.916    3694.4385    8211.1481    306.04884    14031 
153000000   -228.00532    11628.037    12928.872    3628.3175    8227.7252    309.83416    14072 
154000000   -223.64256    11783.275     12923.29    3769.3715     8237.546     309.7004    14041 
155000000   -222.20655    11779.035      13078.3    3699.0915    8302.1504    313.41514    14028 
156000000    -211.9332    11703.082     12867.84    3708.5224    8206.4925    308.37157    14034 
157000000   -239.63842    11735.563    12942.738    3767.1851    8208.0161    310.16648    14005 
158000000   -228.59963    11571.053    12890.707    3644.9712    8154.6819    308.91956    14042 
159000000   -209.19795    11529.434    12830.329    3625.1146    8113.5173    307.47265    14073 
160000000   -225.50023    11581.322    12938.903    3650.8945    8155.9275    310.07457    14051 
161000000    -226.2496    11763.269    12951.662    3738.9306    8250.5885    310.38032    14012 
162000000   -257.67681    11677.045    12870.569    3744.3535    8190.3679    308.43698    14028 
163000000   -238.50769    11796.279    12830.033    3854.9574    8179.8292    307.46554    14016 
164000000   -252.73554    11703.066    12864.771    3792.9128    8162.8885    308.29803    14002 
165000000   -238.85267    11687.787    13005.876    3811.6003    8115.0394    311.67954    14014 
166000000   -231.22482    11627.315     12904.22    3755.4163    8103.1231     309.2434    14005 
167000000   -240.69961    11741.459    12775.679    3719.2447    8262.9142    306.16298    14039 
168000000   -232.62154    11753.121    12973.991    3760.2811    8225.4613    310.91544    14023 
169000000   -259.45165    11571.654    12950.324    3719.9283    8111.1772    310.34825    14029 
170000000   -234.57418    11694.398    12959.634    3673.9517    8255.0209    310.57138    14052 
171000000   -237.53427    11605.345    12912.382    3725.4884    8117.3908    309.43899    14044 
172000000   -240.18991     11809.59    12997.386    3754.3613    8295.4184    311.47607    14049 
173000000   -253.52513    11677.817    12949.909    3714.0462    8217.2964    310.33831    14062 
174000000   -241.74786    11732.501    12838.965    3701.1356    8273.1129     307.6796    14073 
175000000   -246.64756     11525.33    13040.103    3552.3134    8219.6639    312.49976    14095 
176000000   -241.44833    11647.449    12814.797    3707.0166    8181.8807    307.10043    14041 
177000000   -238.01884    11514.326    13121.899    3613.3606    8138.9842    314.45997    14081 
178000000   -213.24342    11638.226    12968.967    3785.9363    8065.5327    310.79504    14059 
179000000   -259.38016    11731.096     12992.61    3718.8241    8271.6522    311.36164    14046 
180000000   -226.37564    11668.561    12823.228    3701.3256    8193.6115    307.30246    14039 
181000000    -267.7242    11788.653    12942.108    3732.0703    8324.3072    310.15137    14023 
182000000   -220.77793    11684.895     12895.09      3712.49     8193.183    309.02462    14030 
183000000    -233.9539    11606.863    13102.141    3729.2612    8111.5554    313.98649    14025 
184000000   -261.52272    11868.713    13076.165    3823.6281    8306.6077    313.36398    14022 
185000000   -224.38655    11658.319    12915.131    3712.9476    8169.7577    309.50488    14035 
186000000   -225.40515    11711.912    12956.295    3659.3186    8277.9987    310.49136    14059 
187000000   -234.31841    11686.314    12903.186    3747.5102    8173.1218    309.21863    14044 
188000000   -241.14978    11554.847    12880.401    3722.3258    8073.6712    308.67259    14059 
189000000   -233.78447    11760.908    13028.374    3721.7358    8272.9569    312.21869    14023 
190000000   -228.86256    11605.686    12999.922    3671.9723    8162.5759    311.53685    14018 
191000000   -256.39185    11750.569    12911.131    3797.3582    8209.6029    309.40903    14025 
192000000    -260.9312    11578.798    13053.832     3770.895    8068.8337    312.82878    14046 
193000000   -240.17274     11612.62    12867.968    3665.9528    8186.8395    308.37464    14043 
194000000   -217.64927    11546.675    12984.524    3520.9669    8243.3576    311.16784    14070 
195000000   -237.34352    11498.714    12927.497    3579.4581    8156.5994    309.80122    14066 
196000000   -237.66237    11586.625    13053.665    3641.7756    8182.5114    312.82478    14048 
197000000   -210.11802    11582.912    12989.287    3630.5152    8162.5148    311.28199    14046 
198000000   -238.90313    11514.442    13024.627    3596.8212    8156.5238     312.1289    14061 
199000000   -233.04726    11649.494    12815.997    3671.5798    8210.9617    307.12917    14052 
200000000   -260.75668    11685.521    12911.828    3710.3966    8235.8814    309.42572    14041 
201000000   -236.89527    11640.406    13036.364     3721.881    8155.4206    312.41017    14056 
202000000   -245.65278     11564.24    12949.877    3704.9501    8104.9432    310.33754    14049 
203000000   -247.28002    11694.792    12987.264    3673.3511    8268.7207    311.23352    14049 
204000000   -217.91403    11754.397    12936.418    3691.2697    8281.0412    310.01502    14029 
205000000   -238.51172    11557.178    12895.766    3670.4171    8125.2732    309.04082    14056 
206000000   -247.78186    11512.193    12835.292    3617.9202    8142.0552    307.59158    14061 
207000000   -238.13268    11586.241    12806.655    3665.1383    8159.2353    306.90531    14070 
208000000   -284.12865    11533.798    13033.085    3648.4287    8169.4984    312.33158    14073 
209000000    -230.9426    11666.976    13014.811    3621.6328    8276.2854    311.89367    14078 
210000000   -266.03699    11664.197    12912.804    3708.9744    8221.2594    309.44911    14046 
211000000   -227.24303    11583.925    12822.425    3637.4004    8173.7679    307.28323    14045 
212000000   -243.08987    11618.639    12891.985    3715.8556    8145.8737    308.95019    14065 
213000000   -237.01028    11777.776    12801.506    3759.5329     8255.253    306.78192    14034 
214000000   -243.12012    11689.348     12938.74    3700.7567     8231.711    310.07066    14061 
215000000   -244.02748    11769.989    12951.474    3684.8498    8329.1667    310.37582    14036 
216000000    -249.2724    11732.049    13174.182    3671.1438    8310.1777    315.71292    14043 
217000000   -226.39946    11521.199     13029.97    3718.8922    8028.7065    312.25694    14047 
218000000   -225.08321    11577.263    12997.263    3607.7692    8194.5774    311.47312    14068 
219000000   -226.67198    11783.603    12818.327     3626.486    8383.7892    307.18503    14074 
220000000   -244.87348    11650.927    12923.761    3703.5952    8192.2049     309.7117    14043 
221000000   -234.67171    11625.364    12985.182    3669.5779    8190.4579    311.18361    14054 
222000000   -238.80499     11613.86    12840.322    3652.3638    8200.3015    307.71212    14053 
223000000   -244.24628    11560.576    12964.432    3626.7752    8178.0471    310.68635    14050 
224000000   -271.89779    11640.468    12837.359    3706.0359    8206.3298    307.64111    14053 
225000000   -228.27254    11691.176    13021.122    3704.1547     8215.294    312.04491    14036 
226000000   -250.20125    11729.241    12815.236    3800.9618      8178.48    307.11094    14016 
227000000   -235.15085    11580.588    13095.123    3686.7396    8128.9995    313.81831    14053 
228000000    -249.1007    11570.276    12993.104    3600.9749    8218.4017    311.37345    14059 
229000000   -233.25659    11695.727    12981.019    3710.5338    8218.4495    311.08385    14041 
230000000   -252.14088    11598.209    12820.188    3681.9968    8168.3528    307.22961    14049 
231000000   -246.58473    11675.088    13038.241    3724.8928    8196.7802    312.45514    14054 
232000000   -223.96205    11498.329    12888.444    3560.6555    8161.6354    308.86534    14058 
233000000   -224.89007     11699.14    12969.488    3689.0838    8234.9467    310.80753    14054 
234000000   -239.42878    11494.549    12846.134     3566.763    8167.2148    307.85139    14076 
235000000   -264.78809    11632.474    12901.693    3688.0393    8209.2227    309.18284    14046 
236000000    -245.5534    11795.785    12791.866    3793.9072    8247.4314    306.55089    14019 
237000000   -238.72707    11649.067    12917.331    3680.7254    8207.0683    309.55761    14036 
238000000   -254.27442    11653.952    13004.147    3623.8578    8284.3688    311.63811    14051 
239000000   -232.66219     11652.62     12989.42    3672.1925    8213.0893    311.28518    14038 
240000000   -244.56959    11567.894    13029.979    3661.1967    8151.2665    312.25716    14036 
241000000   -237.23506    11607.359    12992.226    3806.8852    8037.7093    311.35243    14029 
242000000   -239.98683    11664.955    12858.296    3750.4168    8154.5253    308.14285    13994 
243000000    -225.5983    11710.519    12895.561     3659.014    8277.1029    309.03589    14027 
244000000   -240.78275    11769.013    12953.482     3738.536    8271.2596    310.42395    14013 
245000000   -255.43606    11697.869    12966.259    3691.0609    8262.2441    310.73015    14032 
246000000   -253.77463    11699.732    12959.461    3675.2967    8278.2097    310.56723    14019 
247000000   -224.48115    11619.588    12948.618    3649.2991    8194.7703    310.30738    14069 
248000000   -209.89249    11556.562    13065.398    3647.0252    8119.4291    313.10597    14036 
249000000    -216.9628    11647.121    12811.118    3692.2153    8171.8688    307.01227    14025 
250000000   -271.84909    11600.696    12846.614    3617.8206    8254.7241     307.8629    14057 
251000000   -234.10644    11632.859    12932.774    3650.9674    8215.9977    309.92769    14036 
252000000   -235.69518    11695.633    12901.468    3741.8182    8189.5098    309.17746    14030 
253000000   -215.50839    11562.502    13036.809    3635.2818    8142.7284    312.42084    14067 
254000000   -231.99545    11669.305    12916.737    3715.4492    8185.8513    309.54337    14049 
255000000   -243.08351    11544.306    12841.309    3604.2077     8183.182    307.73577    14067 
256000000   -235.97515    11733.705    12893.344    3737.5553    8232.1245    308.98276    14044 
257000000   -226.87532    11590.658    12878.018    3680.5711    8136.9626    308.61548    14048 
258000000   -248.76615    11591.321    12903.896    3733.9703    8106.1172    309.23565    14008 
259000000   -242.50269    11725.793     12918.88    3727.2955    8241.0006    309.59472    14031 
260000000   -257.70447    11684.122    12951.569    3731.5335    8210.2928     310.3781    14045 
261000000   -241.06256    11690.089    13004.112    3716.0753     8215.076    311.63726    14026 
262000000   -272.31728    11480.865    12973.413    3590.5384    8162.6436    310.90159    14064 
263000000   -221.52053    11618.621    12952.918    3673.7148    8166.4268    310.41044    14059 
264000000   -242.79377    11678.407    12950.366    3724.8834    8196.3175    310.34927    14040 
265000000   -239.89018    11496.479    12906.508    3568.3631    8168.0063    309.29823    14039 
266000000    -235.6854    11633.733    12966.949    3618.5102    8250.9079    310.74667    14062 
267000000   -234.71506    11551.724    12902.141    3591.6847    8194.7543    309.19358    14066 
268000000    -257.9274    11550.349    12951.734    3704.7797    8103.4968    310.38204    14033 
269000000   -252.03762    11550.784    12896.121    3597.8089     8205.013    309.04931    14048 
270000000   -236.93776    11675.652    12909.027    3610.8486     8301.741    309.35861    14046 
271000000   -246.35218    11676.027    13051.565     3764.218    8158.1608    312.77445    14055 
272000000   -233.68099    11634.898    12980.501    3676.3935    8192.1857    311.07144    14032 
273000000    -253.8272    11740.083    13045.842     3713.712    8280.1981    312.63731    14026 
274000000   -243.15212    11595.288    13005.603    3702.7606    8135.6799      311.673    14045 
275000000   -235.84087    11597.506    13045.372    3672.8549    8160.4921    312.62605    14040 
276000000   -217.27881    11806.034    13015.452     3727.282    8296.0311    311.90903    14044 
277000000   -244.87526    11655.087    12971.858    3712.6858     8187.276    310.86432    14037 
278000000   -243.19253    11550.595    12919.006     3650.933    8142.8547    309.59774    14056 
279000000   -228.39371     11714.66    12989.737    3676.9097    8266.1437    311.29279    14066 
280000000   -253.17391    11459.907    13076.267    3540.3007    8172.7806    313.36642    14070 
281000000    -263.4707     11759.56    13015.999    3687.8964    8335.1341    311.92214    14057 
282000000   -261.71503    11853.304    12914.785    3763.9405    8351.0788    309.49659    14046 
283000000    -255.4062    11564.908    12926.727    3624.8667    8195.4476    309.78278    14044 
284000000   -233.62433    11766.944    13042.845     3754.631    8245.9373    312.56548    14043 
285000000   -239.87314    11633.106    13068.786    3721.1648    8151.8139    313.18716    14058 
286000000   -245.99252    11628.661    12973.302    3706.8528     8167.801    310.89891    14058 
287000000   -254.28338    11669.293    12979.983    3688.9994    8234.5768    311.05902    14036 
288000000   -239.45773    11679.931    13018.995    3697.9762    8221.4124    311.99392    14058 
289000000   -266.97471    11733.728      12856.8    3739.7561    8260.9465      308.107    14030 
290000000   -232.68908    11636.873    12992.333    3710.3191    8159.2433    311.35499    14045 
291000000   -234.71096    11638.522    12992.538    3666.8577    8206.3754    311.35991    14040 
292000000    -220.7699    11586.445    12870.951    3698.0785    8109.1366    308.44613    14048 
293000000   -219.02666    11603.244    12765.508    3635.2761    8186.9942    305.91923    14073 
294000000   -247.31699     11621.66    12868.538    3656.0486    8212.9286    308.38829    14049 
295000000    -227.1394    11577.479    12964.474    3693.2197    8111.3991    310.68735    14070 
296000000   -237.78639    11765.111    12914.435    3780.6092    8222.2885    309.48821    14025 
297000000    -237.2153    11629.165    12868.752    3538.6359    8327.7448    308.39342    14069 
298000000   -238.61985    11775.643    13074.238    3744.3665    8269.8964    313.31781    14044 
299000000   -213.29714    11519.502    12882.021    3651.9695    8080.8295    308.71142    14050 
300000000    -247.1554    11743.798    12980.898    3709.0345    8281.9194    311.08095    14034 
301000000   -240.69511    11885.598    12924.973    3819.5221     8306.771    309.74073    14006 
302000000   -263.21026    11829.018    13094.349    3832.1051    8260.1231    313.79976    14012 
303000000   -242.00697    11622.166    12920.231    3670.1389    8194.0342    309.62709    14023 
304000000   -251.71309    11693.356    12927.665    3800.1519    8144.9172    309.80525    14025 
305000000   -240.79919    11623.793    12985.431    3783.4979    8081.0945    311.18959    14009 
306000000   -246.87963    11704.936    12860.709    3689.7788    8262.0372    308.20068    14043 
307000000   -248.24141     11654.03    12877.388    3707.1143    8195.1568    308.60038    14047 
308000000    -240.1632    11672.537    12871.545    3650.9961    8261.7042    308.46035    14068 
309000000   -227.50032    11742.647     13048.22    3783.8427    8186.3042     312.6943    14020 
310000000   -233.81453    11590.561    12897.353    3638.3661     8186.009    309.07884    14050 
311000000    -231.2293    11756.448    12792.926     3634.234    8353.4432    306.57629    14053 
312000000   -233.82103    11479.656     12988.82    3569.4189    8144.0582     311.2708    14058 
313000000   -209.23136    11520.344    12843.593    3666.9998     8062.576     307.7905    14051 
314000000   -224.84617    11666.675    13089.102    3684.4674    8207.0538    313.67401    14050 
315000000   -233.20553    11741.347    12856.696    3722.2535    8252.2989    308.10452    14056 
316000000   -238.51552    11620.396    12883.419    3635.5638    8223.3479    308.74491    14055 
317000000   -231.89546    11758.994    12839.094    3706.3459    8284.5435     307.6827    14068 
318000000   -262.29878    11676.717    12880.072    3634.4713    8304.5443    308.66471    14040 
319000000   -257.04698    11553.174    12926.631    3636.8853    8173.3355    309.78048    14055 
320000000   -234.56626    11561.807    13026.228    3729.9302    8066.4431    312.16726    14059 
321000000   -231.86386    11660.485    12988.753    3776.3797    8115.9693    311.26918    14017 
322000000   -241.75864    11737.918    13043.027    3678.7473     8300.929    312.56986    14067 
323000000    -254.8205    11544.047    12939.772     3617.989    8180.8784    310.09538    14064 
324000000   -230.49374    11598.483     13012.93    3752.9388     8076.038    311.84858    14017 
325000000   -260.12218    11755.168    12874.319    3733.3597    8281.9306    308.52685    14022 
326000000   -257.10203    11598.357    13070.474    3697.0894    8158.3694     313.2276    14055 
327000000   -232.79968    11716.855     12872.66    3705.8439     8243.811    308.48708    14024 
328000000   -245.08061    11596.776    12894.733    3708.7146    8133.1416    309.01604    14036 
329000000   -240.83735    11668.969    12967.524    3688.2726    8221.5335    310.76045    14038 
330000000    -243.9731    11713.215    12873.772    3801.6273    8155.5605    308.51372    14003 
331000000   -255.62404    11941.547    12980.619    3844.9637     8352.207    311.07426    14027 
332000000   -224.14486    11742.916    12936.257    3741.5331    8225.5281    310.01114    14007 
333000000   -257.58977    11631.449    12873.676    3651.6619    8237.3772    308.51143    14060 
334000000   -220.80163    11600.997    12910.956    3647.8615    8173.9375    309.40484    14064 
335000000   -224.77549    11658.888    12957.628    3620.5552    8263.1086     310.5233    14045 
336000000   -242.36208    11599.109    13043.001    3610.7535    8230.7181    312.56923    14045 
337000000   -210.01978    11639.225     13101.37     3686.847    8162.3975    313.96802    14069 
338000000    -218.5681    11797.314    12951.572    3695.2821    8320.6005    310.37818    14046 
339000000   -251.43771    11719.645    13082.054    3691.1436    8279.9388     313.5051    14047 
340000000   -243.06298    11628.347    12954.201    3707.6217    8163.7881    310.44117    14049 
341000000   -243.83124    11590.773      13047.9    3691.9784    8142.6261    312.68662    14051 
342000000   -236.22278    11556.098    12911.958    3684.7636    8107.5572    309.42884    14045 
343000000   -240.11945    11557.102     13003.94    3614.7316    8182.4896    311.63315    14032 
344000000   -232.64547    11601.386    12951.867    3676.1205    8157.9108    310.38523    14054 
345000000   -225.07834    11686.239    12880.291    3669.3301     8241.987    308.66995    14044 
346000000    -243.4248    11644.989    13135.746    3699.1868    8189.2275    314.79181    14033 
347000000   -218.28421    11808.643    12913.768    3766.6509    8260.2766    309.47221    13995 
348000000   -233.59955    11805.396    12795.848    3792.1415    8246.8544    306.64632    14016 
349000000   -242.87549    11626.317    13047.557    3698.1321    8171.0604     312.6784    14045 
350000000   -225.31422    11625.707    12837.571    3644.5942    8206.4272    307.64618    14047 
351000000   -236.19894    11662.189     13008.01    3662.8176    8235.5704    311.73069    14064 
352000000   -226.46745    11728.679     12993.64    3691.5569    8263.5895    311.38631    14038 
353000000   -235.23924    11532.231    12710.464    3674.3961    8093.0744    304.60013    14037 
354000000   -262.77931    11692.027    12891.259    3656.0301    8298.7766    308.93281    14058 
355000000   -232.79886    11543.289    12853.981    3616.0286    8160.0589    308.03945    14053 
356000000   -229.90211    11612.248    12826.632    3648.5148    8193.6352    307.38403    14042 
357000000   -239.04427    11762.007    12772.805    3749.9553    8251.0959     306.0941    14034 
358000000   -239.17374    11682.835     12913.16    3626.3449    8295.6637    309.45765    14016 
359000000   -229.08094    11718.083    12908.391    3704.2707    8242.8932    309.34336    14035 
360000000    -234.7981    11762.538    12930.039    3769.4793    8227.8573    309.86215    14016 
361000000   -260.50636    11750.629    12892.597    3742.7503    8268.3847    308.96487    14008 
362000000   -210.32535    11668.416    12972.951    3632.6664    8246.0751    310.89052    14052 
363000000   -237.97904    11712.387    12968.193    3716.0097    8234.3567    310.77648    14012 
364000000   -254.58824    11463.398    12786.351    3612.7718    8105.2146    306.41874    14031 
365000000    -256.2364     11659.72    12961.267    3658.4745     8257.482    310.61051    14066 
366000000   -243.35978    11629.513    12847.881    3662.5861     8210.287    307.89327    14014 
367000000    -251.1767    11525.934    13004.559    3603.3592    8173.7513    311.64799    14053 
368000000   -250.20668    11609.941    13015.933    3671.9188    8188.2289    311.92055    14065 
369000000   -255.70081    11810.106    12894.557    3694.0617     8371.745    309.01182    14066 
370000000   -242.04526    11623.466    12886.054    3643.1702    8222.3414    308.80807    14066 
371000000   -232.81809    11586.509      12917.9    3650.4313    8168.8961    309.57123    14054 
372000000   -236.90523    11562.109    12974.633    3605.6049    8193.4093    310.93081    14074 
373000000    -278.5736    11772.322    13025.134    3785.8873    8265.0078    312.14105    14009 
374000000   -248.74447    11527.962    12968.924    3615.3209    8161.3858    310.79401    14026 
375000000   -238.49506    11662.998    13054.545    3653.0611    8248.4323    312.84587    14049 
376000000   -233.84529    11718.986    12973.942    3693.9345    8258.8964    310.91427    14017 
377000000   -258.49031    11725.077    12852.305     3763.717    8219.8501    307.99927    14037 
378000000   -249.14843    11426.948    12999.967    3605.0543    8071.0418    311.53794    14065 
379000000   -254.61586    11694.517    13049.338    3721.6573    8227.4756    312.72109    14042 
380000000   -243.17559    11698.947    12979.505    3711.8001    8230.3223    311.04757    14050 
381000000   -229.08977    11679.684    13036.387    3660.8981    8247.8756    312.41073    14048 
382000000   -257.53247    11782.841    12909.686    3830.4431    8209.9305    309.37438    14041 
383000000   -235.40276    11589.618    12889.349    3588.9032     8236.117    308.88703    14073 
384000000   -245.71529    11648.896    12956.678    3696.7948     8197.816    310.50053    14027 
385000000   -234.45583    11756.128    12875.146    3739.5362    8251.0472    308.54667    14049 
386000000   -256.67488    11549.929     12868.81    3708.3771    8098.2264    308.39483    14034 
387000000   -234.20445     11716.94    12852.681    3674.1155    8277.0288    308.00831    14045 
388000000   -230.85678    11550.218    13011.532    3630.6116    8150.4629    311.81508    14047 
389000000   -247.23572    11658.883    12843.273    3576.9187    8329.1996    307.78284    14078 
390000000   -229.63082    11634.597    13028.735    3667.8413     8196.387    312.22734    14057 
391000000   -218.64364    11395.644     12942.42    3604.2235    8010.0641    310.15884    14065 
392000000   -235.73702    11751.135    13038.185    3743.5155    8243.3568    312.45381    14020 
393000000   -251.79564    11562.369    12957.625      3569.01    8245.1542    310.52323    14033 
394000000   -243.43551    11485.075    12899.608    3622.1304    8106.3801    309.13287    14034 
395000000   -226.65752    11489.834    12898.052    3620.9687    8095.5224    309.09558    14052 
396000000   -222.14099    11538.773    13027.654    3699.9399    8060.9742    312.20144    14033 
397000000   -204.81975    11560.336    12931.267      3743.36    8021.7957    309.89158    14049 
398000000   -231.29944    11490.459    12970.095    3629.3299    8092.4289    310.82207    14041 
399000000   -236.84213    11752.474    12969.749    3895.2161    8094.1002    310.81376    14029 
400000000   -259.95136      11764.2    12861.657    3792.6851    8231.4667    308.22341    14028 
401000000   -256.41159    11750.276    12957.453     3773.918    8232.7694     310.5191    14030 
402000000   -241.18994    11684.475    13013.056    3698.9039    8226.7613    311.85161    14026 
403000000   -260.56164    11695.231    12816.692    3701.7904    8254.0022    307.14585    14037 
404000000    -224.2431    11701.024    12724.979    3691.6603    8233.6067    304.94799    14037 
405000000    -235.5288    11633.248    12884.213    3630.9452    8237.8312    308.76395    14051 
406000000   -246.43564    11554.213    12788.389    3629.1499    8171.4985    306.46757    14044 
407000000   -231.09844    11696.266    12852.329    3655.7947    8271.5693    307.99986    14041 
408000000   -225.29884     11540.61    12858.131    3667.3423    8098.5666    308.13889    14045 
409000000    -223.7602    11625.893    13061.758    3628.3421    8221.3115    313.01873    14042 
410000000    -252.0378     11599.45    12838.202    3597.3521    8254.1354    307.66131    14056 
411000000   -257.03465    11587.645    12921.986     3629.451    8215.2284    309.66915    14073 
412000000   -246.41307    11797.257    13018.586     3748.012    8295.6578    311.98413    14026 
413000000   -224.50229    11629.606    12998.736    3689.7238     8164.385    311.50842    14034 
414000000   -217.00257    11809.035    12850.843    3815.2933    8210.7448    307.96424    14022 
415000000   -246.94358    11540.267     13006.91    3644.6387    8142.5719    311.70433    14062 
416000000   -221.97788     11705.47    12675.885    3695.2333    8232.2144    303.77146    14056 
417000000    -220.0345    11737.354    12800.888     3695.202     8262.186     306.7671    14045 
418000000   -237.30853    11540.864    12954.158     3575.254     8202.919    310.44013    14069 
419000000   -255.10598    11698.789    12836.742    3760.4079     8193.487    307.62633    14024 
420000000     -256.186    11594.004    12972.614    3649.4075    8200.7825    310.88243    14048 
421000000   -229.49647    11597.327    12911.116    3645.3602    8181.4636    309.40866    14088 
422000000   -228.94101    11546.656    13178.567    3656.2081    8119.3891    315.81801    14040 
423000000   -234.56428    11607.667    12938.592    3623.3114    8218.9197    310.06712    14041 
424000000   -237.44525    11430.932     12902.53    3575.1661    8093.2113    309.20291    14050 
425000000   -266.95538    11798.102    12928.304     3865.625    8199.4327    309.82056    14032 
426000000   -228.58362    11582.433    12976.005    3671.9076    8139.1094    310.96369    14039 
427000000   -219.41652    11634.769    12932.115    3712.3228     8141.863    309.91189    14069 
428000000   -243.84628    11743.976     12885.31    3763.9155    8223.9067    308.79024    14041 
429000000   -227.07895    11585.135    12954.415    3591.9354    8220.2782    310.44631    14076 
430000000   -272.38451    11761.149    12818.354    3671.2267    8362.3066    307.18568    14049 
431000000   -256.77888    11712.642    12923.614    3763.0525    8206.3681    309.70816    14060 
432000000   -230.51701    11586.537    12973.361    3692.2076    8124.8466    310.90033    14059 
433000000    -238.5124    11591.437      12907.3    3701.8535     8128.096    309.31722    14034 
434000000   -223.10737    11708.405    12943.423    3868.5069    8063.0053    310.18288    14020 
435000000   -257.22509    11392.811    12942.513     3603.014    8047.0218    310.16108    14052 
436000000   -246.36855    11853.052    13006.032    3733.8374    8365.5828    311.68327    14035 
437000000   -241.84749    11749.812    13053.589     3704.345     8287.314    312.82295    14042 
438000000   -257.29196    11701.923    13058.308    3754.4627     8204.752    312.93605    14042 
439000000   -248.11682    11572.537    12821.975    3684.7926    8135.8611    307.27244    14046 
440000000    -238.6417    11709.591    12952.936    3768.3626    8179.8703    310.41086    14002 
441000000   -230.03508    11766.737    13163.952    3833.6745    8163.0977    315.46774    14018 
442000000   -227.77973    11784.026    13047.455    3783.9282    8227.8771    312.67596    14037 
443000000   -219.20819     11744.22    12904.736    3769.2594    8194.1692    309.25577    14029 
444000000   -252.70023    11674.778    12916.652    3681.6764     8245.802    309.54133    14022 
445000000   -222.65048    11870.674    12955.642    3855.1376    8238.1866     310.4757    14039 
446000000    -244.1747     11588.98    12966.322    3647.0578    8186.0969    310.73165    14045 
447000000   -232.65601    11524.521    12831.631    3642.6155    8114.5612    307.50384    14028 
448000000   -240.02969    11796.675    12823.303    3803.5405    8233.1642    307.30426    14020 
449000000   -214.53297    11605.352    13078.423     3764.286    8055.5985    313.41809    14033 
450000000   -231.39574    11613.534    12948.195    3693.0017    8151.9283    310.29725    14053 
451000000   -226.08208    11718.011    12908.512    3700.3998     8243.693    309.34627    14047 
452000000   -250.74254    11728.372    13000.613    3771.0782    8208.0363    311.55341    14024 
453000000   -235.43586    11591.882    13083.644    3661.3556    8165.9627    313.54322    14033 
454000000   -265.26741    11802.688    12945.194    3725.8728    8342.0827    310.22532    14040 
455000000   -238.04152    11668.901    12820.093    3750.4192    8156.5235    307.22733    14057 
456000000   -239.36185    11808.344    12937.983    3764.9753    8282.7308    310.05251    14031 
457000000    -227.0777    11689.533    12911.334    3723.5776    8193.0335    309.41388    14034 
458000000   -235.56103    11713.844    12935.213    3753.5722    8195.8326    309.98613    14052 
459000000   -259.73754    11599.839    12927.485    3624.0804    8235.4958    309.80094    14071 
460000000   -253.39904    11624.694    12956.901    3667.9492    8210.1437    310.50587    14033 
461000000   -235.61814    11636.691    12979.044    3826.8099    8045.4993    311.03653    14003 
462000000   -244.40423    11569.265    12861.419    3637.4774    8176.1919     308.2177    14025 
463000000   -267.75515    11566.169    12867.897    3733.3814    8100.5425    308.37294    14024 
464000000   -240.73455    11785.577    12932.346    3746.1385    8280.1728    309.91743    14021 
465000000   -235.34927    11781.104    12982.939    3817.6445    8198.8087    311.12986    14032 
466000000   -251.21214    11684.312    12983.268     3713.769    8221.7553    311.13775    14023 
467000000   -233.30151    11570.346     12986.87    3713.2558    8090.3919    311.22408    14045 
468000000   -234.17945    11766.805    12892.638    3761.4516    8239.5331    308.96585    14068 
469000000   -232.07089    11605.539    12863.321    3603.9479    8233.6624    308.26327    14016 
470000000   -215.60078    11713.439    13066.856    3694.8573    8234.1828    313.14089    14015 
471000000   -246.60461    11712.892    13013.208    3703.7774    8255.7189    311.85524    14055 
472000000   -220.76304    11608.589    13006.252    3569.2825    8260.0694    311.68855    14059 
473000000   -210.39633    11638.355     12866.36    3605.5834    8243.1678    308.33611    14037 
474000000   -228.54934    11714.575     12980.98    3736.7646    8206.3593    311.08292    14026 
475000000   -244.08604    11724.681    12931.277    3737.6926    8231.0746    309.89182    14033 
476000000   -246.31212    11778.094    12924.884    3709.1611    8315.2445    309.73861    14056 
477000000   -216.33319    11594.681    13051.606    3657.9161     8153.098    312.77543    14063 
478000000   -237.92601    11674.394    13033.471    3767.9403    8144.3798    312.34083    14021 
479000000   -257.47223    11707.092      12897.8    3818.4455    8146.1188    309.08954    14023 
480000000   -254.54945    11536.755    12875.816    3690.8297    8100.4748     308.5627    14062 
481000000   -230.44529    11616.221    12901.573    3672.6059    8174.0602    309.17996    14062 
482000000   -248.66437    11661.647    12792.729    3726.2301     8184.081    306.57158    14040 
483000000   -233.82007    11501.611    12894.398     3663.012    8072.4191    309.00803    14038 
484000000    -241.9354    11659.552    12763.247    3713.6021    8187.8848    305.86505    14049 
485000000   -249.58405    11608.238    12858.155     3651.258    8206.5642    308.13948    14036 
486000000   -238.51135    11663.397     12974.72    3734.6024    8167.3059    310.93291    14025 
487000000   -237.16561    11545.538    12837.432    3669.5455    8113.1585    307.64287    14043 
488000000      -230.66     11621.58    12931.842    3728.7485    8123.4916    309.90535    14036 
489000000   -228.30347    11601.248    12856.014     3654.321    8175.2302    308.08818    14064 
490000000   -234.89479    11640.447    12739.423    3747.8978    8127.4443    305.29412    14025 
491000000   -228.15175    11663.798    12984.524    3612.6371    8279.3122    311.16785    14048 
492000000   -244.48983    11741.035     13096.58     3680.513    8305.0115    313.85322    14076 
493000000   -224.96464     11696.02    13007.286    3758.2128    8162.7716    311.71333    14064 
494000000    -225.7466    11595.559    12915.755    3582.1316    8239.1739    309.51982    14049 
495000000   -240.55555    11657.078    12968.068    3662.6429    8234.9911    310.77348    14045 
496000000    -227.7713    11631.959    12934.372    3623.8278    8235.9023    309.96599    14039 
497000000   -233.73989    11637.867    12876.914    3690.6501    8180.9566    308.58903    14049 
498000000   -226.48252    11644.979     12987.73    3713.3314    8158.1302    311.24467    14025 
499000000   -244.50184    11646.626    12944.444    3677.3064    8213.8219    310.20736    14015 
500000000   -245.19774     11692.64    12898.621    3687.6824     8250.155    309.10922    14031 
Loop time of 95861.2 on 28 procs for 500000000 steps with 14000 atoms

Performance: 11266.288 ns/day, 0.002 hours/ns, 5215.874 timesteps/s
99.4% CPU use with 28 MPI tasks x no OpenMP threads

MPI task timing breakdown:
Section |  min time  |  avg time  |  max time  |%varavg| %total
---------------------------------------------------------------
Pair    | 7075.7     | 7480.5     | 7619       | 172.5 |  7.80
Bond    | 5496.8     | 5562.4     | 5725.3     |  67.2 |  5.80
Neigh   | 22297      | 22493      | 22757      |  74.7 | 23.46
Comm    | 32049      | 33267      | 34728      | 331.4 | 34.70
Output  | 0.63407    | 0.63534    | 0.63597    |   0.0 |  0.00
Modify  | 20338      | 20484      | 20840      |  88.6 | 21.37
Other   |            | 6573       |            |       |  6.86

Nlocal:    500 ave 537 max 466 min
Histogram: 3 0 3 5 3 5 3 4 0 2
Nghost:    392.071 ave 557 max 251 min
Histogram: 1 3 4 6 4 1 4 3 1 1
Neighs:    2005.18 ave 2396 max 1601 min
Histogram: 1 3 3 2 5 3 5 3 1 2

Total # of neighbors = 56145
Ave neighs/atom = 4.01036
Ave special neighs/atom = 6.25386
Neighbor list builds = 99876254
Dangerous builds = 0
System init for write_restart ...
Total wall time: 26:37:43
