LAMMPS (5 Jun 2019)
Reading restart file ...
  restart file = 5 Jun 2019, LAMMPS = 5 Jun 2019
  restoring atom style full from restart
  orthogonal box = (-420 -420 -420) to (420 420 420)
  2 by 2 by 7 MPI processor grid
  restoring pair style lj/cut from restart
  restoring bond style hybrid from restart
  restoring angle style cosine from restart
  14000 atoms
  15706 bonds
  13600 angles
Finding 1-2 1-3 1-4 neighbors ...
  special bond factors lj:   1          1          1         
  special bond factors coul: 0          0          0         
  3 = max # of 1-2 neighbors
  6 = max # of 1-3 neighbors
  17 = max # of 1-4 neighbors
  56 = max # of special neighbors
  special bonds CPU = 0.431345 secs
  read_restart CPU = 0.4899 secs
Finding 1-2 1-3 1-4 neighbors ...
  special bond factors lj:   0          1          1         
  special bond factors coul: 0          0          0         
  3 = max # of 1-2 neighbors
  6 = max # of 1-3 neighbors
  17 = max # of 1-4 neighbors
  40004 = # of 1-3 neighbors before angle trim
  27200 = # of 1-3 neighbors after angle trim
  56 = max # of special neighbors
  special bonds CPU = 0.0024826 secs
Unused restart file global fix info:
  fix style: colvars, fix ID: CV_Rg
Neighbor list info ...
  update every 1 steps, delay 1 steps, check yes
  max neighbors/atom: 2000, page size: 100000
  master list distance cutoff = 26.9
  ghost atom cutoff = 26.9
  binsize = 13.45, bins = 63 63 63
  1 neighbor lists, perpetual/occasional/extra = 1 0 0
  (1) pair lj/cut, perpetual
      attributes: half, newton on
      pair build: half/bin/newton
      stencil: half/bin/3d/newton
      bin: standard
Setting up Verlet run ...
  Unit style    : real
  Current step  : 250000000
  Time step     : 0.1
Per MPI rank memory allocation (min/avg/max) = 1.103 | 7.732 | 16.66 Mbytes
Step Temp E_pair E_mol TotEng Press 
250000000    309.62652   -6282.9505    6271.5709    12908.827   -3.2950561 
250010000    308.37849   -6152.6128     6605.689    13321.205   -1.9242343 
Loop time of 5.14412 on 28 procs for 10000 steps with 14000 atoms

Performance: 16.796 ns/day, 1.429 hours/ns, 1943.966 timesteps/s
99.7% CPU use with 28 MPI tasks x no OpenMP threads

MPI task timing breakdown:
Section |  min time  |  avg time  |  max time  |%varavg| %total
---------------------------------------------------------------
Pair    | 0.00033071 | 0.80001    | 3.2418     | 116.2 | 15.55
Bond    | 0.00052852 | 0.11761    | 0.42636    |  42.5 |  2.29
Neigh   | 0.0052246  | 0.0055359  | 0.0061936  |   0.5 |  0.11
Comm    | 0.0013733  | 1.3497     | 3.2072     | 102.1 | 26.24
Output  | 7.7592e-05 | 0.00041895 | 0.000787   |   0.0 |  0.01
Modify  | 0.00093636 | 0.25455    | 0.92207    |  62.6 |  4.95
Other   |            | 2.616      |            |       | 50.86

Nlocal:    500 ave 1932 max 0 min
Histogram: 16 0 0 3 1 3 1 2 1 1
Nghost:    545.393 ave 1733 max 0 min
Histogram: 16 0 0 0 0 6 2 0 1 3
Neighs:    10145.5 ave 42007 max 0 min
Histogram: 16 0 1 2 2 3 0 2 1 1

Total # of neighbors = 284073
Ave neighs/atom = 20.2909
Ave special neighs/atom = 7.92443
Neighbor list builds = 2
Dangerous builds = 0
4000 atoms in group rxnSites
Neighbor list info ...
  update every 1 steps, delay 1 steps, check yes
  max neighbors/atom: 2000, page size: 100000
  master list distance cutoff = 26.9
  ghost atom cutoff = 26.9
  binsize = 13.45, bins = 63 63 63
  2 neighbor lists, perpetual/occasional/extra = 1 1 0
  (1) pair lj/cut, perpetual
      attributes: half, newton on
      pair build: half/bin/newton
      stencil: half/bin/3d/newton
      bin: standard
  (2) fix bond/create/random, occasional, copy from (1)
      attributes: half, newton on
      pair build: copy
      stencil: none
      bin: none
Setting up Verlet run ...
  Unit style    : real
  Current step  : 0
  Time step     : 30
Per MPI rank memory allocation (min/avg/max) = 17.81 | 18.24 | 19.03 Mbytes
Step E_pair PotEng KinEng E_bond E_angle Temp Bonds 
       0   -6152.6128    453.07621    12868.129   -1935.2986    8540.9876    308.37849    15706 
 1000000   -4286.8499    2447.9849    12868.551    -1479.952    8214.7869    308.38861    15547 
 2000000   -3964.9886    2822.2768    12812.738   -1541.9732    8329.2386    307.05108    15549 
 3000000   -3799.9283    3071.1163    12821.823   -1469.4674     8340.512    307.26881    15515 
 4000000   -3652.3866    3323.0956    12837.703   -1401.0028     8376.485    307.64936    15541 
 5000000   -3593.3817    3256.9255     12911.93   -1484.0402    8334.3474    309.42816    15545 
 6000000   -3477.7627    3391.4009    13019.565   -1484.1714     8353.335    312.00758    15542 
 7000000   -3406.7922     3444.669    13034.311   -1456.4788      8307.94    312.36097    15538 
 8000000   -3391.2884    3397.5781    12872.054   -1431.4377    8220.3042    308.47257    15519 
 9000000   -3324.6031    3584.0332    12954.474   -1438.3038    8346.9402    310.44773    15524 
10000000   -3296.9982    3665.1472     12907.39   -1320.0764    8282.2218    309.31936    15529 
11000000   -3247.3432    3470.2705    12913.464      -1557.8    8275.4137    309.46494    15540 
12000000   -3094.0135    3737.4801    12956.708   -1436.6551    8268.1488    310.50125    15521 
13000000   -3174.2847    3548.3397    12968.486    -1524.247    8246.8714    310.78352    15558 
14000000   -3162.6535    3580.6057    12763.395    -1507.872    8251.1313     305.8686    15541 
15000000    -3192.542    3700.3087    12901.439   -1380.5159    8273.3665    309.17675    15520 
16000000   -3128.1998    3606.5931    13057.854   -1432.6251    8167.4181    312.92517    15545 
17000000   -3166.2411    3749.7535    13034.129    -1295.258    8211.2526    312.35662    15505 
18000000   -3129.3296    3692.4023    12924.666   -1482.0397    8303.7717    309.73337    15549 
19000000   -3126.6472    3763.3554    13049.052   -1468.3338    8358.3364    312.71423    15537 
20000000   -3065.5384     3857.086    12977.463   -1343.9701    8266.5944    310.99864    15525 
21000000   -3063.3838    3630.4894    12946.634   -1515.9675    8209.8407    310.25984    15542 
22000000   -3080.6094    3686.9804    12954.027   -1454.0899    8221.6796    310.43702    15550 
23000000    -3153.377    3886.6694    13067.665   -1403.4641    8443.5104    313.16029    15535 
24000000   -3008.1204     3733.077    12870.006   -1510.4846    8251.6821    308.42348    15551 
25000000   -3077.1239    3554.8804    12957.393   -1541.8753    8173.8796    310.51767    15555 
26000000   -3064.9426    3764.2021    12995.171   -1430.6765    8259.8213      311.423    15541 
27000000   -3015.4988    3939.7103    13142.462    -1424.542    8379.7511    314.95276    15528 
28000000   -3044.9641    3876.2258    12936.643   -1341.6379    8262.8278    310.02042    15543 
29000000   -3005.4509    3614.8203    13022.947   -1567.5606    8187.8318    312.08865    15547 
30000000   -2961.4698    3772.4878    12920.389   -1475.2196    8209.1772    309.63089    15548 
31000000   -2993.2296    3771.7236    13001.032   -1502.2046    8267.1578    311.56346    15555 
32000000   -2979.0431    3601.9164    13020.275   -1561.1842    8142.1437     312.0246    15564 
33000000   -2952.8093    3665.8322    13011.225   -1553.3692    8172.0107    311.80773    15561 
34000000   -2997.7927    3810.9028    13051.893   -1464.8886    8273.5841    312.78233    15547 
35000000   -2951.4598    3876.4061    13025.864   -1461.2738    8289.1397    312.15855    15535 
36000000   -2917.0148    3763.4287    13123.697   -1510.3229    8190.7664    314.50306    15557 
37000000   -2944.0631    3808.9266    12932.602   -1414.1983     8167.188    309.92357    15521 
38000000   -3002.5439    3620.2115    12781.143   -1641.9826    8264.7381    306.29392    15561 
39000000   -2955.5798    3810.1316    12901.948   -1518.7897    8284.5011    309.18896    15544 
40000000   -2969.5081    3690.8201    13048.834   -1572.9862    8233.3144      312.709    15547 
41000000    -2938.009    3872.1846    12942.475   -1419.6456    8229.8392    310.16016    15542 
42000000   -2879.2352    3824.5602     13030.89    -1516.606    8220.4013    312.27898    15558 
43000000   -2863.9177    3853.3453    12729.921   -1538.1871    8255.4501    305.06641    15537 
44000000   -2914.9418    3847.2211    12908.165   -1516.0872    8278.2501    309.33793    15551 
45000000   -2895.5656    3804.4234    12893.462   -1492.5418    8192.5309     308.9856    15534 
46000000   -2928.9447    3852.2965    12881.169   -1435.3915    8216.6327    308.69099    15550 
47000000   -2924.6254     3612.193    12785.277    -1533.005    8069.8234      306.393    15550 
48000000    -2953.298    3806.8775    12897.986   -1496.4417    8256.6171      309.094    15540 
49000000    -2938.816    3744.0308     12852.55   -1640.7877    8323.6345    308.00515    15577 
50000000   -2937.2298    3660.1238    13013.767   -1577.7281    8175.0817    311.86864    15573 
51000000    -2876.653    3848.9202    13033.445   -1530.3479     8255.921    312.34021    15567 
52000000   -2849.8553    3813.6533    12838.627   -1648.0356    8311.5442    307.67149    15585 
53000000   -2849.3834    3679.5924    12985.161   -1628.5257    8157.5016    311.18313    15563 
54000000   -2896.7754    3746.9806    12828.087   -1622.3934    8266.1494    307.41892    15570 
55000000   -2896.5009    3769.5802    12922.545   -1595.8317    8261.9129    309.68255    15577 
56000000   -2919.4615    3864.5324    13166.409   -1526.1146    8310.1086    315.52663    15566 
57000000   -2827.6765    3902.2475    12977.817   -1502.1524    8232.0764    311.00713    15562 
58000000   -2948.9041     3767.247    13002.355   -1560.4197    8276.5709    311.59517    15569 
59000000   -2914.9951     3822.094    12858.551   -1533.1548    8270.2439    308.14896    15551 
60000000   -2932.5954    3774.7678    13070.231   -1564.4302    8271.7934    313.22178    15571 
61000000   -2865.9041     3703.639    13075.757    -1623.431    8192.9741     313.3542    15585 
62000000   -2892.5434    3823.7543    12749.873   -1569.1512    8285.4489    305.54454    15563 
63000000     -2904.75    3733.5194    12826.973   -1516.8709    8155.1404    307.39221    15587 
64000000   -2906.6842     3882.995    12923.875   -1565.4089    8355.0882    309.71442    15594 
65000000   -2863.9508    3904.9644    12988.859   -1528.9925    8297.9077    311.27174    15581 
66000000   -2837.9337    3810.2868     12818.98   -1497.1992    8145.4197    307.20067    15554 
67000000   -2872.9212    3920.8084    13036.746   -1529.6304      8323.36    312.41932    15543 
68000000   -2901.4539     3725.971    12908.008   -1668.5748    8295.9997    309.33417    15571 
69000000   -2962.6666    3703.0906    12951.336   -1566.9938     8232.751    310.37252    15574 
70000000   -2921.8233    3686.0114    12877.875   -1527.4539    8135.2886    308.61206    15570 
71000000   -2984.1279    3680.4116    13059.689   -1522.7376    8187.2772    312.96915    15550 
72000000    -2986.942    3754.9149    12879.708   -1546.4486    8288.3055    308.65598    15561 
73000000   -2924.4451    3856.1115    12931.484   -1544.7604    8325.3171    309.89677    15569 
74000000   -2915.5946    3664.8275    13049.059    -1585.604    8166.0261     312.7144    15564 
75000000   -2909.8788    3760.1557    13040.551   -1554.8392    8224.8737    312.51051    15545 
76000000   -2813.8875    3834.2545     12827.21   -1512.9653    8161.1073    307.39789    15552 
77000000   -2824.6616    3916.0048    12888.361     -1572.35    8313.0164    308.86334    15556 
78000000   -2808.6971     4005.888    12800.494   -1394.3454    8208.9304    306.75766    15563 
79000000   -2841.2867     3774.252    13049.939   -1638.5818    8254.1204    312.73548    15578 
80000000   -2794.4777     3854.356    12928.916   -1559.5125    8208.3462    309.83524    15561 
81000000   -2838.3385    3757.2574    12915.094   -1591.2873    8186.8832      309.504    15556 
82000000   -2812.1494    3753.3612    12815.897    -1681.748    8247.2586    307.12679    15570 
83000000   -2850.8149    3815.3215    12885.864   -1593.0085    8259.1449    308.80351    15556 
84000000     -2863.87    3688.7973    12954.692   -1602.3016    8154.9689    310.45293    15580 
85000000   -2812.3266     3893.315    12943.656   -1474.0317    8179.6733    310.18847    15563 
86000000   -2811.9039    3667.7771    13015.621   -1717.2645    8196.9455    311.91308    15583 
87000000   -2886.1492    3823.9172    13012.052   -1460.2974    8170.3638    311.82755    15552 
88000000    -2858.231    3679.2926    12937.671   -1546.6442    8084.1678    310.04504    15563 
89000000   -2826.1324    3918.8071    12929.224   -1544.3931    8289.3326     309.8426    15558 
90000000   -2829.8927    3867.2305    12823.978   -1643.0898     8340.213    307.32043    15576 
91000000   -2872.0021    4010.1018    13023.128   -1461.3696    8343.4735    312.09298    15561 
92000000   -2841.8739    3677.6304    12980.279   -1575.5412    8095.0454    311.06612    15571 
93000000   -2825.6767    3765.2314    12978.963   -1514.5443    8105.4524    311.03457    15562 
94000000   -2950.8066    3757.0156    13055.619   -1552.0276    8259.8498    312.87161    15588 
95000000   -2967.0795    3768.9234    12973.458   -1500.8561     8236.859    310.90265    15571 
96000000   -2956.3374    3690.4593    12923.153   -1505.7145    8152.5112    309.69713    15554 
97000000   -2925.6801    3827.9297    12823.597   -1561.0248    8314.6347    307.31132    15563 
98000000   -2871.5422    3707.2912    13073.517   -1631.8172    8210.6507    313.30052    15564 
99000000   -2847.5698    3766.1951    12980.232   -1636.2215    8249.9863      311.065    15569 
100000000   -2825.0196    4094.2933    12902.364   -1400.7308    8320.0437    309.19891    15555 
101000000   -2781.3934     3820.768    12757.387    -1614.768    8216.9293    305.72463    15577 
102000000   -2804.9792    3703.7898    12862.562   -1700.6864    8209.4554    308.24509    15582 
103000000   -2791.4669    3941.1315    12964.033   -1503.6031    8236.2015    310.67678    15574 
104000000   -2752.9883    3828.7029    13085.353    -1636.678    8218.3693    313.58417    15580 
105000000   -2813.9421    4087.6576    12972.033   -1478.8723     8380.472    310.86851    15566 
106000000   -2813.6006    3991.4499    12894.232   -1440.1071    8245.1576    309.00404    15555 
107000000   -2893.5365    3596.8279     13023.48   -1615.7372    8106.1016    312.10141    15576 
108000000   -2813.9802     3931.706     12920.36   -1506.9979    8252.6842    309.63019    15559 
109000000   -2740.1042     3914.718    12778.642   -1502.6537    8157.4759    306.23399    15565 
110000000   -2841.0326    3850.6203    12934.102   -1530.6114    8222.2643    309.95951    15559 
111000000   -2822.2264    3850.5498    12975.233   -1546.7499    8219.5261     310.9452    15562 
112000000   -2862.2006     3828.108    12935.404   -1554.6317    8244.9404     309.9907    15559 
113000000   -2801.5991    4065.3135     12841.46   -1484.2298    8351.1424    307.73939    15561 
114000000   -2889.2061    3848.9234    12929.741   -1533.4869    8271.6164    309.85499    15569 
115000000   -2797.3544    3848.2655    12910.995    -1507.999    8153.6189    309.40576    15567 
116000000   -2783.2969    3849.1934    12998.125   -1530.4944    8162.9847    311.49379    15572 
117000000    -2752.315     3744.764    13001.688   -1648.5099    8145.5889    311.57918    15573 
118000000   -2807.0538     3893.684    13023.865   -1587.3443    8288.0821    312.11064    15571 
119000000    -2795.214    3912.0247    12947.468   -1450.9737    8158.2124    310.27983    15554 
120000000   -2833.4442    3809.2296    12933.026   -1577.0787    8219.7525    309.93372    15573 
121000000    -2832.657       3932.4    13122.912   -1443.0845    8208.1415    314.48426    15539 
122000000   -2877.3083    3776.8293    12991.716     -1557.07    8211.2076    311.34021    15574 
123000000   -2871.0803    3688.7949    12872.661   -1602.3346    8162.2098    308.48712    15573 
124000000   -2818.0273    3971.8444     13167.14    -1474.152    8264.0237    315.54416    15548 
125000000    -2745.917    3787.9652    12900.489   -1582.3078    8116.1899    309.15398    15556 
126000000   -2886.8873    3744.6361    12936.004   -1573.4205     8204.944    310.00509    15557 
127000000   -2795.4812    3934.7358    13059.661    -1552.151    8282.3679    312.96847    15581 
128000000   -2810.8799    3789.6973    13066.896   -1504.0023    8104.5794    313.14185    15562 
129000000   -2785.9086    3796.9891    12926.811   -1604.6961    8187.5938    309.78478    15567 
130000000   -2845.2354     3870.813    12942.791   -1487.1664    8203.2148    310.16774    15552 
131000000   -2874.1678    3911.0174    13060.576   -1437.6074    8222.7926     312.9904    15559 
132000000   -2823.3213    3868.1399      12947.9   -1500.4314    8191.8927    310.29017    15563 
133000000   -2824.2049    3848.7025    12958.143   -1510.7682    8183.6756    310.53565    15560 
134000000   -2909.5103    3709.7191    12916.282   -1530.5346     8149.764    309.53246    15557 
135000000    -2877.399    3655.6293    13026.512   -1635.2558    8168.2841    312.17407    15561 
136000000   -2828.1211    3763.5392    12960.778   -1489.8649    8081.5252     310.5988    15567 
137000000   -2801.6388    3727.3334    12804.749   -1628.6348     8157.607    306.85964    15584 
138000000   -2853.5799    3869.2697     12970.01    -1516.005    8238.8547    310.82002    15563 
139000000   -2833.5449    3928.0683    12882.968   -1390.2513    8151.8646    308.73411    15556 
140000000   -2823.4243     3746.582    13004.975   -1451.1103    8021.1165    311.65794    15548 
141000000   -2843.0247    3788.7999    12648.401   -1548.8893     8180.714    303.11283    15565 
142000000   -2901.7325    3766.1152    12925.332   -1549.6693     8217.517    309.74935    15571 
143000000   -2852.6702    3613.2175    12963.927   -1646.4438    8112.3315    310.67425    15580 
144000000   -2872.9823    3664.5311     12845.96   -1597.9125     8135.426    307.84723    15576 
145000000    -2826.926    3766.2096    13031.147   -1608.9343    8202.0699    312.28516    15575 
146000000   -2882.3069    3801.0727    12966.021   -1609.2133    8292.5929    310.72443    15582 
147000000   -2879.4609    3799.2414    12937.565   -1521.0261    8199.7283    310.04251    15555 
148000000   -2877.4526    3751.9793    12900.046   -1619.2197    8248.6515    309.14338    15590 
149000000   -2790.5116    3818.5374    13093.937    -1581.292    8190.3411    313.78988    15571 
150000000   -2788.2049    3937.8096    12947.414   -1537.3027    8263.3172    310.27852    15576 
151000000   -2837.9419    3963.0589    13088.507   -1497.4839    8298.4848    313.65975    15565 
152000000   -2828.7517    3754.1677    12803.945   -1634.1218    8217.0413    306.84035    15575 
153000000   -2773.8493    3874.8453    12946.564   -1579.8472    8228.5417    310.25815    15584 
154000000   -2810.1863    3892.0305    12865.064    -1534.336    8236.5529    308.30505    15563 
155000000   -2800.0921    3853.2688    12858.776   -1543.2298    8196.5907    308.15435    15573 
156000000   -2856.1929     3824.666    12986.026   -1544.3479    8225.2068    311.20383    15572 
157000000   -2801.5838    3883.4073    12967.229   -1488.8354    8173.8265    310.75339    15551 
158000000   -2762.7891    3971.9799     13050.91   -1522.7825    8257.5515    312.75876    15560 
159000000   -2800.0814    3842.8522    13065.016   -1553.5717    8196.5053    313.09681    15569 
160000000   -2780.7922    3879.3788    12993.356   -1557.3258    8217.4969     311.3795    15564 
161000000   -2783.8135    3805.8252    12983.173   -1562.1099    8151.7486    311.13548    15560 
162000000   -2836.0466     3727.217    12826.063     -1652.72    8215.9836     307.3704    15576 
163000000   -2844.0125    3830.4574    12916.695   -1590.8163    8265.2862    309.54236    15582 
164000000   -2907.8374    3633.3047    12883.778   -1611.1439     8152.286    308.75351    15573 
165000000   -2828.1102    3745.2316    13021.744   -1565.9106    8139.2525    312.05982    15580 
166000000   -2860.1066     3770.775      12982.6   -1641.0596    8271.9411    311.12175    15587 
167000000   -2908.7935    3781.0433    12968.951   -1594.1409    8283.9777    310.79464    15574 
168000000   -2864.2202    3814.6178    12885.828   -1541.1792    8220.0172    308.80265    15549 
169000000   -2871.6152    3777.2491    12902.075   -1598.5451    8247.4094      309.192    15584 
170000000   -2898.8331      3809.17    12808.676   -1518.5486    8226.5518    306.95373    15559 
171000000   -2833.2026    3711.7612     12845.21   -1677.7078    8222.6716    307.82925    15580 
172000000   -2842.4886    3756.4371    12825.793   -1516.7225    8115.6481    307.36394    15571 
173000000   -2899.9253    3587.5912    12878.597   -1691.6836    8179.2001    308.62935    15575 
174000000   -2912.4085    3640.2724    12826.913    -1582.456    8135.1369    307.39078    15586 
175000000   -2813.1427     3738.428    12891.017   -1585.9458    8137.5165    308.92701    15568 
176000000   -2937.2375    3616.0911    13158.078   -1643.1388    8196.4674    315.32698    15578 
177000000   -2883.3088    3711.1056    13064.029   -1581.6044    8176.0189    313.07315    15552 
178000000   -2851.0912    3852.1056    12902.637   -1535.8897    8239.0864    309.20548    15563 
179000000   -2899.1917    3830.4228    12906.328   -1554.8795     8284.494    309.29392    15560 
180000000   -2878.9135    3792.1913    12846.619    -1588.754    8259.8588    307.86303    15581 
181000000   -2836.6094    3764.2574    13062.289   -1542.6492     8143.516    313.03145    15575 
182000000   -2824.2743    3674.0382     12978.57   -1636.5207    8134.8333    311.02517    15565 
183000000   -2847.7246    3812.7471    12992.145   -1519.2386    8179.7102    311.35049    15542 
184000000   -2777.2148    3796.9022    12991.707    -1603.485     8177.602    311.33998    15571 
185000000   -2784.4863    3913.6012    12970.716    -1538.897    8236.9845    310.83694    15566 
186000000   -2827.3248    3833.2811    12904.369   -1509.9087    8170.5145    309.24697    15566 
187000000    -2847.275    3818.5419    12966.791   -1511.9094    8177.7263    310.74289    15560 
188000000   -2869.4523    3752.1898    12881.734   -1561.6907    8183.3327    308.70454    15565 
189000000   -2879.2115    3912.5367    12898.148   -1518.8254    8310.5736    309.09789    15569 
190000000   -2797.8412    3877.1869    12890.983    -1564.014    8239.0421    308.92619    15562 
191000000    -2818.431     3724.477    12998.403   -1528.5062    8071.4142    311.50046    15561 
192000000   -2866.4559     3651.936    12836.505   -1560.9771     8079.369    307.62065    15564 
193000000   -2854.5119    3813.2034    13035.649   -1551.8817     8219.597    312.39302    15570 
194000000   -2878.3117    3761.4366    12935.261   -1524.3776    8164.1259    309.98729    15585 
195000000   -2920.5342    3725.0898    12905.469   -1638.1313    8283.7552    309.27334    15591 
196000000   -2935.2497    3601.5907    12896.026   -1560.1873    8097.0277    309.04704    15567 
197000000   -2886.6003    3681.1277    12831.707   -1660.9921    8228.7202    307.50567    15593 
198000000    -2810.099    3779.7687    12963.583   -1684.5572    8274.4249      310.666    15565 
199000000   -2876.9384    3861.9859    12941.497   -1497.0389    8235.9632    310.13672    15565 
200000000   -2846.7251    3968.6094    13024.511   -1497.2706     8312.605    312.12612    15560 
201000000   -2847.5878    3802.9095    12869.267   -1627.8438     8278.341    308.40578    15569 
202000000   -2932.4182    3611.3838     12876.11   -1641.6861    8185.4881    308.56975    15578 
203000000    -2862.383     3665.763    12828.178   -1607.2478    8135.3937    307.42108    15576 
204000000   -2929.5071    3745.9465    12903.686   -1573.0198    8248.4734     309.2306    15591 
205000000   -2917.6196    3742.7546    13002.213   -1590.5865    8250.9607    311.59176    15565 
206000000   -2855.5745    3808.3436    12849.917   -1551.9166    8215.8348    307.94207    15557 
207000000   -2843.3281    3893.7962    12933.668   -1510.5844    8247.7086    309.94911    15557 
208000000   -2824.4022    3921.4097    13012.619    -1470.869    8216.6809    311.84114    15550 
209000000   -2873.9227    3810.6351    13006.882   -1539.8183    8224.3761    311.70365    15574 
210000000   -2865.1061    3714.0491    12871.005    -1584.187    8163.3422    308.44743    15577 
211000000   -2813.7363    3806.4053    13007.942   -1608.7204     8228.862    311.72905    15598 
212000000   -2817.2451    3774.4263    12927.398   -1629.0636    8220.7349    309.79884    15570 
213000000   -2774.0603    3701.5321    12950.586   -1650.8628    8126.4552    310.35453    15570 
214000000   -2819.5049    3698.1043    12763.629   -1609.9683    8127.5774    305.87421    15584 
215000000   -2823.8399    3789.2978    12858.373   -1579.3999    8192.5376    308.14471    15565 
216000000   -2824.5693    3914.9497    12916.588   -1587.7323    8327.2513    309.53979    15576 
217000000   -2745.3416    3934.5576    12965.019   -1516.0183    8195.9174    310.70041    15569 
218000000    -2698.833    3900.0117     12972.76   -1608.0603    8206.9049    310.88594    15581 
219000000   -2835.3616    3746.5031    12825.446   -1671.9549    8253.8196    307.35561    15572 
220000000   -2836.3885    3900.3387     12855.06   -1521.7559    8258.4831     308.0653    15558 
221000000   -2865.4647    3799.7033    12896.916    -1621.105    8286.2731    309.06837    15569 
222000000    -2859.065    3695.3623    12989.474   -1607.1885    8161.6158    311.28648    15572 
223000000   -2860.8218    3748.0433    13034.074   -1637.2306    8246.0957    312.35529    15585 
224000000     -2900.92    3852.4205    12956.012   -1525.6144    8278.9549    310.48456    15569 
225000000   -2778.4659    3747.4836    12853.616   -1622.0192    8147.9686    308.03071    15576 
226000000   -2782.6211    3894.0332    12839.617   -1628.2046    8304.8589    307.69523    15567 
227000000   -2858.8435    3579.2018    12778.045   -1710.4359    8148.4811    306.21968    15594 
228000000   -2847.8815    3666.4116    13030.455   -1654.4744    8168.7675    312.26855    15567 
229000000   -2820.5696    3975.5062    12869.441   -1537.6834    8333.7592    308.40995    15578 
230000000    -2799.965    3786.4705    12956.746   -1633.0283    8219.4638    310.50216    15576 
231000000   -2789.6851    3692.4954    12913.602   -1642.9035     8125.084    309.46823    15580 
232000000   -2857.3702     3790.075    12863.998    -1636.124    8283.5692     308.2795    15568 
233000000   -2756.6188    3799.7736    12900.033   -1599.0883    8155.4807    309.14306    15585 
234000000   -2778.1811    3904.0011    12903.045   -1577.4373    8259.6195    309.21524    15572 
235000000   -2748.1614    3940.6674    13000.657   -1472.4333    8161.2621    311.55446    15572 
236000000   -2743.5927    3759.1626    13042.575   -1610.6501    8113.4055    312.55902    15567 
237000000   -2739.4356    3902.5385    13151.102   -1553.0326    8195.0067    315.15981    15569 
238000000   -2779.6726    4057.7516    12902.584   -1427.6185    8265.0427     309.2042    15550 
239000000   -2747.3549    3906.0686    12892.009   -1579.0272    8232.4507    308.95078    15584 
240000000   -2800.6343    3730.3597    12943.714    -1644.639    8175.6329    310.18986    15582 
241000000   -2773.9226    3728.2282    13081.922    -1677.054    8179.2048    313.50195    15568 
242000000   -2814.8373    3926.2098    12760.144   -1525.9856    8267.0327     305.7907    15566 
243000000   -2804.5825    3876.1291    12951.909   -1460.5686    8141.2802    310.38626    15575 
244000000   -2814.7093    3937.9661    12960.818   -1564.8579    8317.5332    310.59976    15571 
245000000   -2817.7741    3872.5448        12896   -1604.6252    8294.9441    309.04642    15566 
246000000    -2844.334    3821.4116    12963.816    -1515.073    8180.8185    310.67159    15567 
247000000   -2881.8803    3801.1319     12911.57   -1595.2795    8278.2916    309.41953    15570 
248000000   -2868.7577    3744.4578    12896.651   -1574.0372    8187.2527    309.06202    15570 
249000000   -2791.5802    3789.6779    12851.348   -1540.6728    8121.9309    307.97636    15564 
250000000   -2829.9476    3888.6084    12700.047   -1563.5683    8282.1243     304.3505    15581 
251000000   -2841.7161    3743.6547    12903.532   -1616.2006    8201.5715    309.22691    15566 
252000000   -2854.8599    3690.9778      12853.3   -1640.5262    8186.3638    308.02314    15588 
253000000   -2780.4025    3849.7278    13001.187   -1582.4204    8212.5508    311.56718    15577 
254000000   -2809.9201     3993.405    12846.393   -1520.9898    8324.3149     307.8576    15581 
255000000   -2887.9356    3688.0047    13008.567   -1706.3728    8282.3131    311.74404    15584 
256000000   -2869.2569    3760.4025    12947.112   -1627.5954    8257.2548    310.27129    15572 
257000000   -2829.9868    3876.4528    12943.031   -1590.8207    8297.2602     310.1735    15562 
258000000   -2853.1406      4005.56    12811.469   -1451.2739    8309.9744    307.02068    15547 
259000000   -2889.0483    3764.5425    13071.528   -1562.7182    8216.3091    313.25287    15571 
260000000   -2846.0227     3826.925    12837.029   -1523.8437    8196.7913     307.6332    15551 
261000000    -2781.286    3860.2231    12940.574   -1622.8611    8264.3702     310.1146    15562 
262000000   -2833.5759    3862.5793    12889.845   -1583.9977    8280.1529    308.89891    15559 
263000000   -2822.1434    3959.6491    12892.526   -1487.2356    8269.0281    308.96316    15561 
264000000   -2800.7374    3832.4025    13031.621   -1619.7911    8252.9311    312.29651    15572 
265000000   -2816.5432    3961.2592    13039.969   -1509.9279    8287.7303    312.49657    15584 
266000000   -2769.4229    3838.6256    12968.636   -1547.9759    8156.0243    310.78709    15564 
267000000   -2811.2252      3828.89    12768.148   -1571.0536    8211.1688    305.98249    15569 
268000000   -2773.2804    3950.8359    12825.751   -1570.3677     8294.484    307.36294    15580 
269000000   -2722.1387    4074.5946    12959.177   -1468.5971    8265.3304    310.56043    15546 
270000000   -2747.9513    3873.0925    12950.478   -1569.0569    8190.1007    310.35196    15557 
271000000   -2839.1002    3874.0269    12914.331   -1529.1809    8242.3079     309.4857    15558 
272000000   -2812.0228    3828.9178     12843.66   -1547.3223    8188.2628    307.79211    15566 
273000000   -2873.7125    4006.7539    12912.383   -1472.8753    8353.3416    309.43901    15571 
274000000   -2913.9901    3877.0638     12979.61   -1479.8514    8270.9053    311.05008    15569 
275000000   -2886.1799    3669.7077    12917.235   -1657.5679    8213.4555     309.5553    15560 
276000000   -2863.4593    3793.5891    12854.799   -1567.2184    8224.2668    308.05905    15578 
277000000   -2856.6023    3783.8684     12877.67   -1502.1233     8142.594    308.60715    15569 
278000000   -2836.5255    3821.1297    12881.238   -1576.5374    8234.1926    308.69265    15569 
279000000   -2845.1549    3763.0993    13001.161   -1591.0577    8199.3118    311.56655    15578 
280000000    -2801.096    3798.6829    12871.186    -1557.379     8157.158    308.45176    15570 
281000000    -2863.132    3785.2004    13073.422   -1566.9382    8215.2706    313.29825    15571 
282000000   -2814.9132    4028.3151    12946.158   -1432.0686    8275.2969    310.24842    15554 
283000000   -2869.0264    3853.6473    13105.321   -1522.0327    8244.7064    314.06268    15557 
284000000   -2883.6415    3920.5585    12948.193   -1487.7903    8291.9903     310.2972    15576 
285000000   -2896.9008    3681.4873    12893.299   -1576.4033    8154.7915    308.98169    15571 
286000000   -2795.1399    3863.7439    13044.078   -1552.5072     8211.391    312.59503    15586 
287000000   -2799.7214      3599.01    13021.858   -1710.5852    8109.3167    312.06253    15594 
288000000   -2768.5032    3933.2729    12929.605   -1469.0445    8170.8205    309.85174    15564 
289000000   -2759.0378    3837.6454    12807.642   -1505.0009    8101.6842    306.92895    15581 
290000000   -2877.5206    3749.9936    12954.645   -1631.8438     8259.358    310.45181    15565 
291000000   -2860.8805    3853.3913    12801.414   -1495.2707    8209.5425     306.7797    15557 
292000000   -2910.6159    3801.7597     12804.09   -1514.1824     8226.558    306.84383    15556 
293000000   -2812.8599    3859.2578    13038.084   -1531.6629    8203.7805    312.45139    15567 
294000000   -2836.2983    3596.3053    12952.974   -1633.2885    8065.8922    310.41178    15564 
295000000   -2846.0179    3814.0371    13022.157   -1590.8973    8250.9523     312.0697    15578 
296000000   -2833.3391    3663.0226    13100.662   -1608.1111    8104.4728    313.95105    15569 
297000000   -2858.6535    3817.8679    12913.282   -1560.5573    8237.0787    309.46056    15577 
298000000   -2827.9891    4000.1257    13001.051   -1476.3351    8304.4498     311.5639    15535 
299000000   -2839.1042    3808.5522    13111.597   -1536.4163    8184.0727    314.21309    15561 
300000000   -2879.9469    3844.2317    13100.082    -1467.889    8192.0676    313.93715    15539 
301000000   -2874.5622    3920.5283    12936.302   -1449.1919    8244.2824    310.01224    15542 
302000000   -2862.7455    3844.6945    12880.671   -1527.3078    8234.7478    308.67907    15551 
303000000   -2908.0994    3864.2841    13086.976   -1511.8685    8284.2519    313.62306    15543 
304000000   -2850.8417    3770.6658     12912.12   -1591.0153    8212.5228    309.43273    15560 
305000000   -2873.8184    3663.5158    12940.662   -1562.9241    8100.2583    310.11671    15561 
306000000   -2900.6393    3745.4924    13063.962   -1558.2213    8204.3531    313.07155    15554 
307000000   -2911.8555    3737.2263    12861.018   -1465.0352    8114.1171    308.20809    15558 
308000000   -2864.3866    3782.7419    12815.638   -1522.5248    8169.6534    307.12057    15560 
309000000   -2825.5475    3796.1785    13011.097   -1494.9603    8116.6862    311.80465    15565 
310000000    -2870.614     3743.295     12955.41   -1549.0008    8162.9097    310.47015    15561 
311000000   -2862.9759    3911.1582    13048.755   -1479.8508    8253.9849    312.70712    15547 
312000000   -2844.6203    3828.0572    12931.618   -1493.7282    8166.4057    309.89998    15558 
313000000   -2857.4465    3796.2776    13066.455   -1574.5143    8228.2384    313.13129    15558 
314000000   -2866.6541    3791.9248     12975.66   -1526.5551    8185.1339    310.95542    15561 
315000000   -2902.6125    3660.7199    12920.513   -1554.7887    8118.1212    309.63387    15563 
316000000   -2878.7485    3820.4175    13031.488   -1562.2311    8261.3971    312.29332    15566 
317000000   -2854.5357     3636.876    13017.076   -1655.0166    8146.4283    311.94795    15571 
318000000   -2928.5031    3805.9301     12902.95   -1497.3693    8231.8024    309.21296    15556 
319000000   -2876.3554    3816.6753    12850.377   -1590.9636    8283.9943    307.95307    15556 
320000000   -2849.9247    3772.4151    12969.417   -1621.9189    8244.2587    310.80581    15578 
321000000   -2859.5612    3720.5312    12964.913   -1613.0045    8193.0969    310.69787    15587 
322000000    -2897.859    3715.7406    12937.751    -1472.122    8085.7216    310.04696    15577 
323000000   -2842.8201    3959.2975    12900.476   -1473.4998    8275.6174    309.15368    15557 
324000000   -2809.0579    3787.8132     12943.46   -1560.1655    8157.0366    310.18376    15564 
325000000   -2803.6841    3639.3537    12921.957    -1673.876    8116.9138    309.66847    15575 
326000000   -2860.0648    3660.6575    13053.092   -1660.1306    8180.8529    312.81105    15591 
327000000   -2853.2925    3904.1519    12893.925   -1517.3278    8274.7722    308.99669    15565 
328000000   -2856.8814    3652.7081    12893.429   -1585.2936    8094.8831    308.98479    15571 
329000000   -2879.0387    3691.7818    12990.503   -1638.2619    8209.0824    311.31112    15588 
330000000   -2829.1427    3610.7108     13007.29   -1693.1742    8133.0277    311.71342    15588 
331000000   -2848.0415    3769.2572    12999.628   -1625.3439    8242.6427    311.52981    15571 
332000000   -2963.7936    3615.9978    12933.737   -1666.1896    8245.9811    309.95076    15582 
333000000   -2920.2604    3683.0951    12977.781   -1614.1621    8217.5176    311.00626    15570 
334000000   -2939.7213    3625.6817    13053.342   -1636.9581    8202.3611    312.81705    15572 
335000000   -2876.9547    3773.1086    12809.755   -1613.3152    8263.3786     306.9796    15593 
336000000    -2904.881    3604.1242    12946.027   -1693.9456    8202.9509    310.24528    15597 
337000000   -2875.0224      3795.44    13050.702   -1574.0968    8244.5591    312.75377    15565 
338000000   -2932.9389    3811.0582    12931.169   -1517.4376    8261.4347    309.88922    15573 
339000000   -2924.4855    3769.6844    12855.188    -1524.417    8218.5869    308.06838    15568 
340000000   -2979.1816    3617.9972    12902.286   -1599.9274    8197.1062    309.19706    15591 
341000000   -2972.9413    3652.5684    12993.661   -1615.2407    8240.7504    311.38681    15588 
342000000   -2953.2516    3601.9159    12914.955   -1686.2054    8241.3729    309.50067    15600 
343000000    -2917.288    3713.6113    12864.293   -1594.2392    8225.1385    308.28658    15569 
344000000   -2919.7889    3601.9248    13024.472   -1639.4312    8161.1449    312.12518    15578 
345000000   -2925.0411    3714.0303    13005.175   -1551.3835    8190.4549    311.66274    15581 
346000000    -2949.567    3690.9711      12903.1   -1543.9058    8184.4439    309.21656    15565 
347000000   -2940.5072    3753.8081    12995.621   -1496.1257     8190.441    311.43377    15561 
348000000   -2899.2789    3869.6349    12896.351   -1405.3522     8174.266    309.05482    15550 
349000000   -2886.3861    3621.0268     12914.35   -1702.4488    8209.8617    309.48615    15603 
350000000   -2919.2123    3632.8072    12864.071   -1565.1806    8117.2001    308.28125    15578 
351000000   -2873.7057    3696.8608    12900.947   -1616.3525     8186.919    309.16496    15558 
352000000   -2906.9404    3696.3591    12894.514   -1498.5212    8101.8207     309.0108    15560 
353000000   -2888.5821    3749.6852    12828.718   -1562.3343    8200.6015    307.43404    15571 
354000000   -2926.9246    3649.4871    12839.529    -1618.444    8194.8557    307.69312    15586 
355000000   -2897.9328    3792.5302    12890.475   -1551.7205    8242.1836    308.91402    15585 
356000000   -2940.0252    3628.6854    13061.831   -1604.0952    8172.8058    313.02048    15589 
357000000   -2890.5234    3832.8608    13006.288   -1477.6659    8201.0501    311.68941    15562 
358000000   -2875.4832    3721.0782    12914.594   -1620.1353    8216.6967    309.49202    15575 
359000000    -2929.746    3765.4909    13034.105   -1513.7036    8208.9404    312.35602    15565 
360000000   -2905.3708    3750.9779    12990.518   -1613.7464     8270.095     311.3115    15582 
361000000   -2926.8334    3800.4199    12978.815   -1438.0472    8165.3006    311.03103    15547 
362000000   -2911.7904    3528.0408    12867.656   -1613.4519    8053.2831    308.36716    15579 
363000000   -2969.3957    3613.8027    12980.092   -1544.9774    8128.1758    311.06164    15564 
364000000   -2924.4533    3566.9523    13039.398   -1608.4786    8099.8843    312.48287    15574 
365000000   -2885.1773    3656.8244     13061.22   -1704.4726    8246.4743    313.00582    15573 
366000000    -2887.601    3779.2848    13031.112   -1566.5567    8233.4425    312.28431    15565 
367000000   -2915.1131    3688.2601    12991.231   -1569.3163    8172.6895    311.32858    15576 
368000000   -2950.0157     3745.451    12984.949   -1599.5034    8294.9701    311.17804    15575 
369000000   -2987.8273    3785.4954     12979.12   -1512.5051    8285.8278    311.03836    15568 
370000000   -2919.3474    3639.3584    13082.364   -1602.3775    8161.0833    313.51254    15584 
371000000   -2967.0156    3610.9737    12957.074      -1553.7    8131.6893    310.51001    15590 
372000000   -3013.2309    3562.3331    13087.208   -1621.8806    8197.4446    313.62863    15581 
373000000   -3008.9615    3717.9528     13041.43   -1509.1851    8236.0994    312.53156    15559 
374000000   -2972.0205    3803.7044    12941.473    -1516.359    8292.0839    310.13616    15561 
375000000   -2959.0178    3706.3611    12818.443   -1555.4914    8220.8703     307.1878    15580 
376000000   -3018.9285    3535.1656    13109.131   -1705.4569     8259.551    314.15399    15577 
377000000   -2951.7214    3862.7892    12896.486   -1459.4981    8274.0086    309.05805    15563 
378000000    -2943.523    3829.4538    12999.141   -1469.9881    8242.9649    311.51813    15567 
379000000   -2913.4201    3777.9598    12962.061   -1535.0852    8226.4652    310.62955    15580 
380000000   -2983.5795    3942.8259    12974.054   -1402.2299    8328.6353    310.91695    15541 
381000000   -3017.7995    3609.1405    12880.539   -1543.4087    8170.3487    308.67589    15563 
382000000    -3005.259    3657.5049    12801.326   -1540.4847    8203.2487    306.77759    15558 
383000000   -3027.7795    3943.7818    12935.298    -1374.895    8346.4563    309.98817    15549 
384000000     -3079.52     3572.753    12821.544   -1504.8613    8157.1343     307.2621    15564 
385000000   -3015.2835    3570.0103    13087.869    -1565.835    8151.1288    313.64446    15557 
386000000   -3006.8561    3504.3575    12904.014   -1674.4951    8185.7088    309.23848    15575 
387000000   -3012.1668    3765.8029    12929.492   -1476.9731    8254.9428    309.84903    15565 
388000000   -3026.7048    3609.9269    12907.738   -1545.1344    8181.7661    309.32772    15543 
389000000   -3058.7156    3572.0215    12816.699    -1533.936    8164.6731    307.14601    15567 
390000000   -2991.6999    3727.4281    12850.112   -1513.6423    8232.7703    307.94673    15546 
391000000   -2971.7354    3661.3927    12982.308   -1571.5297    8204.6578    311.11475    15583 
392000000    -3006.226    3576.3653    12794.117   -1605.2231    8187.8144    306.60485    15567 
393000000    -2980.912    3540.8214     13120.17   -1636.6784    8158.4119    314.41855    15568 
394000000   -2921.0105    3643.8381    12993.765   -1616.3488    8181.1974     311.3893    15565 
395000000    -2925.177    3575.8972    12955.935   -1633.4635    8134.5377    310.48272    15580 
396000000   -2970.3391    3601.9375     12966.75   -1579.9519    8152.2285    310.74189    15565 
397000000   -3036.6664    3591.9091    12873.586   -1601.6158    8230.1914    308.50928    15565 
398000000   -3006.8011    3702.7868     12974.05   -1439.2109    8148.7988    310.91685    15560 
399000000   -2987.9165    3650.7541    12924.004   -1533.6972    8172.3678    309.71752    15570 
400000000    -2977.386    3698.6404    12711.412    -1571.155    8247.1814    304.62286    15556 
Loop time of 108424 on 28 procs for 400000000 steps with 14000 atoms

Performance: 9562.463 ns/day, 0.003 hours/ns, 3689.222 timesteps/s
99.7% CPU use with 28 MPI tasks x no OpenMP threads

MPI task timing breakdown:
Section |  min time  |  avg time  |  max time  |%varavg| %total
---------------------------------------------------------------
Pair    | 12553      | 16388      | 20131      |1596.3 | 15.11
Bond    | 4451.9     | 5932       | 9347.1     |2669.2 |  5.47
Neigh   | 20528      | 20810      | 21193      | 113.2 | 19.19
Comm    | 29419      | 37246      | 43536      |2149.7 | 34.35
Output  | 0.63557    | 0.63895    | 0.6412     |   0.2 |  0.00
Modify  | 18724      | 18897      | 19417      | 123.6 | 17.43
Other   |            | 9150       |            |       |  8.44

Nlocal:    500 ave 538 max 472 min
Histogram: 2 1 4 6 3 8 2 1 0 1
Nghost:    707.321 ave 1050 max 315 min
Histogram: 1 2 1 4 7 5 0 1 4 3
Neighs:    5369.71 ave 7231 max 4170 min
Histogram: 3 2 3 6 6 4 3 0 0 1

Total # of neighbors = 150352
Ave neighs/atom = 10.7394
Ave special neighs/atom = 8.18543
Neighbor list builds = 36804126
Dangerous builds = 0
System init for write_restart ...
Total wall time: 30:07:10
