LAMMPS (5 Jun 2019)
Reading restart file ...
  restart file = 5 Jun 2019, LAMMPS = 5 Jun 2019
  restoring atom style full from restart
  orthogonal box = (-420 -420 -420) to (420 420 420)
  2 by 2 by 7 MPI processor grid
  restoring pair style lj/cut from restart
  restoring bond style hybrid from restart
  restoring angle style cosine from restart
  14000 atoms
  15706 bonds
  13600 angles
Finding 1-2 1-3 1-4 neighbors ...
  special bond factors lj:   1          1          1         
  special bond factors coul: 0          0          0         
  3 = max # of 1-2 neighbors
  6 = max # of 1-3 neighbors
  17 = max # of 1-4 neighbors
  56 = max # of special neighbors
  special bonds CPU = 0.891278 secs
  read_restart CPU = 1.06217 secs
Finding 1-2 1-3 1-4 neighbors ...
  special bond factors lj:   0          1          1         
  special bond factors coul: 0          0          0         
  3 = max # of 1-2 neighbors
  6 = max # of 1-3 neighbors
  17 = max # of 1-4 neighbors
  40004 = # of 1-3 neighbors before angle trim
  27200 = # of 1-3 neighbors after angle trim
  56 = max # of special neighbors
  special bonds CPU = 0.00160099 secs
Unused restart file global fix info:
  fix style: colvars, fix ID: CV_Rg
Neighbor list info ...
  update every 1 steps, delay 1 steps, check yes
  max neighbors/atom: 2000, page size: 100000
  master list distance cutoff = 26.9
  ghost atom cutoff = 26.9
  binsize = 13.45, bins = 63 63 63
  1 neighbor lists, perpetual/occasional/extra = 1 0 0
  (1) pair lj/cut, perpetual
      attributes: half, newton on
      pair build: half/bin/newton
      stencil: half/bin/3d/newton
      bin: standard
Setting up Verlet run ...
  Unit style    : real
  Current step  : 250000000
  Time step     : 0.1
Per MPI rank memory allocation (min/avg/max) = 1.103 | 7.732 | 16.66 Mbytes
Step Temp E_pair E_mol TotEng Press 
250000000    309.62652   -6282.9505    6271.5709    12908.827   -3.2950561 
250010000    305.28154   -6194.2869     6574.428    13119.039   -1.9182467 
Loop time of 5.19144 on 28 procs for 10000 steps with 14000 atoms

Performance: 16.643 ns/day, 1.442 hours/ns, 1926.246 timesteps/s
99.6% CPU use with 28 MPI tasks x no OpenMP threads

MPI task timing breakdown:
Section |  min time  |  avg time  |  max time  |%varavg| %total
---------------------------------------------------------------
Pair    | 0.00033052 | 0.75626    | 3.2515     | 114.2 | 14.57
Bond    | 0.00055363 | 0.1105     | 0.42994    |  41.7 |  2.13
Neigh   | 0.005332   | 0.005603   | 0.0061235  |   0.4 |  0.11
Comm    | 0.0014173  | 1.3681     | 3.3425     | 100.7 | 26.35
Output  | 8.7362e-05 | 0.00044736 | 0.0008083  |   0.0 |  0.01
Modify  | 0.00097501 | 0.24044    | 0.92226    |  61.3 |  4.63
Other   |            | 2.71       |            |       | 52.20

Nlocal:    500 ave 1936 max 0 min
Histogram: 16 0 0 3 1 3 1 2 1 1
Nghost:    544.679 ave 1730 max 0 min
Histogram: 16 0 0 0 0 6 2 0 1 3
Neighs:    10153.8 ave 42141 max 0 min
Histogram: 16 0 1 2 2 3 0 2 1 1

Total # of neighbors = 284307
Ave neighs/atom = 20.3076
Ave special neighs/atom = 7.92443
Neighbor list builds = 2
Dangerous builds = 0
4000 atoms in group rxnSites
Neighbor list info ...
  update every 1 steps, delay 1 steps, check yes
  max neighbors/atom: 2000, page size: 100000
  master list distance cutoff = 26.9
  ghost atom cutoff = 26.9
  binsize = 13.45, bins = 63 63 63
  2 neighbor lists, perpetual/occasional/extra = 1 1 0
  (1) pair lj/cut, perpetual
      attributes: half, newton on
      pair build: half/bin/newton
      stencil: half/bin/3d/newton
      bin: standard
  (2) fix bond/create/random, occasional, copy from (1)
      attributes: half, newton on
      pair build: copy
      stencil: none
      bin: none
Setting up Verlet run ...
  Unit style    : real
  Current step  : 0
  Time step     : 30
Per MPI rank memory allocation (min/avg/max) = 17.81 | 18.24 | 19.03 Mbytes
Step E_pair PotEng KinEng E_bond E_angle Temp Bonds 
       0   -6194.2869    380.14102    12738.898   -1960.1104    8534.5384    305.28154    15706 
 1000000   -4321.2083    2686.1708    13123.693   -1413.1343    8420.5134    314.50298    15557 
 2000000   -3984.1393    2809.6136    13047.305   -1589.9573    8383.7102    312.67237    15550 
 3000000   -3741.0158    3048.2906     12901.89   -1442.8384    8232.1448    309.18757    15541 
 4000000   -3644.2502    2996.9784    12758.985   -1552.9482    8194.1769    305.76292    15538 
 5000000   -3574.7282    3245.3435    13023.812   -1477.3282    8297.3999    312.10937    15547 
 6000000   -3456.2934    3282.0884    13145.474    -1517.748    8256.1297    315.02495    15535 
 7000000   -3408.4733    3335.6883    13061.888   -1566.0313    8310.1929    313.02183    15557 
 8000000   -3328.0034    3350.6104    12894.898   -1480.2431    8158.8569       309.02    15541 
 9000000   -3255.8994    3640.3774    12989.757   -1397.4789    8293.7558    311.29326    15515 
10000000     -3257.34    3571.6016    12747.267   -1478.2683    8307.2099     305.4821    15541 
11000000   -3231.9195    3557.6064    13104.544   -1521.4289    8310.9548    314.04406    15531 
12000000   -3208.9551    3616.7496    13016.969   -1478.1953       8303.9    311.94538    15524 
13000000   -3210.5305    3707.7994    13051.125   -1391.4591     8309.789    312.76392    15522 
14000000   -3199.7651    3643.7799    12986.156   -1366.3617    8209.9068    311.20696    15543 
15000000   -3100.4936    3687.2677    12809.364   -1418.5621    8206.3234    306.97023    15551 
16000000   -3113.0014    3745.4817    12800.775     -1498.35     8356.833    306.76439    15542 
17000000   -3119.8549    3704.7642    12945.823   -1588.2852    8412.9043    310.24039    15556 
18000000    -3087.686    3902.8022    12866.897   -1400.0108    8390.4991    308.34898    15550 
19000000   -3112.2209     3564.833    12873.626   -1499.2997    8176.3536    308.51023    15553 
20000000   -3026.6158     3637.075    13100.858   -1514.0498    8177.7406    313.95575    15547 
21000000   -3026.6245    3953.5429     12936.87   -1345.5606     8325.728    310.02584    15538 
22000000    -3006.447    3703.8642    12994.182   -1523.4033    8233.7145     311.3993    15553 
23000000   -3032.0885     3795.904    12958.083   -1481.1365     8309.129    310.53421    15556 
24000000   -3083.7329    3569.2558     13026.89   -1553.4728    8206.4614    312.18313    15556 
25000000    -3067.033    3698.1308    12916.193   -1474.0253    8239.1891    309.53033    15546 
26000000   -3026.5397    3690.4977    12933.229   -1569.0107    8286.0481    309.93859    15536 
27000000   -3082.8452    3543.1393    12931.252    -1446.578    8072.5625    309.89121    15549 
28000000   -3002.3886    3827.4911    12803.162   -1485.7425    8315.6222     306.8216    15549 
29000000   -3016.8742    3602.9187    12841.208   -1501.9067    8121.6997    307.73334    15539 
30000000   -2987.7269    3730.7498    13005.954   -1478.3072    8196.7839    311.68141    15536 
31000000   -3028.4758    3709.7962     12934.72   -1487.9271    8226.1991    309.97431    15544 
32000000   -2948.0821    3742.1156    12930.269   -1575.9463    8266.1441    309.86766    15534 
33000000   -2931.6998     3772.183     12916.57   -1509.1967    8213.0796    309.53938    15549 
34000000   -3034.1465    3666.3105    12886.927   -1483.4688    8183.9257    308.82898    15556 
35000000   -2963.3016    3893.8229     12834.59   -1483.8626     8340.987    307.57475    15547 
36000000    -2918.578    3775.8827    12824.479   -1586.8684    8281.3291    307.33245    15550 
37000000   -2915.5249    3930.4501    13060.444   -1474.9149    8320.8899    312.98724    15554 
38000000   -2903.8902    3772.5301    13092.723   -1533.8635    8210.2838    313.76079    15569 
39000000   -2947.0286    3702.9846    12933.282   -1480.2183    8130.2315    309.93985    15556 
40000000   -2856.6246    3877.0669    12949.713   -1438.4565     8172.148    310.33361    15554 
41000000   -2923.9386    3704.0208    12922.148   -1633.8167    8261.7761    309.67305    15585 
42000000   -2921.9066    3842.5379    12849.877    -1542.695    8307.1394    307.94111    15572 
43000000   -2964.7432    3809.9462    12943.829   -1507.2885    8281.9779    310.19261    15556 
44000000   -2866.7551    3873.3032    12926.433   -1596.5902    8336.6486    309.77573    15573 
45000000   -2896.1183    3775.1075    12835.547   -1559.7276    8230.9533    307.59768    15552 
46000000   -2908.5365    3629.2991    12970.163   -1562.0863    8099.9219    310.82371    15555 
47000000   -2926.4217    3701.7916    13015.688   -1597.1337     8225.347    311.91468    15577 
48000000   -2894.6548    3825.3629    12978.113   -1457.7904    8177.8081    311.01421    15569 
49000000   -2969.1579    3770.6766     13048.77   -1553.9599    8293.7943    312.70747    15569 
50000000   -2907.0366    3815.6104    12953.999   -1546.9989    8269.6459    310.43632    15569 
51000000    -2929.768    3701.0612    12955.853    -1589.587    8220.4161    310.48075    15567 
52000000   -2952.4534    3577.0349    12934.971   -1718.9764    8248.4646    309.98034    15587 
53000000   -2903.1094    3614.8767    12991.737   -1628.6888    8146.6749    311.34071    15575 
54000000   -2880.3406    3493.0524    12859.436   -1690.0079    8063.4009    308.17017    15593 
55000000   -2854.8471      3635.84    12884.523   -1721.1447    8211.8318    308.77137    15600 
56000000   -2835.9806    3639.5398    12836.702   -1668.2692    8143.7896    307.62536    15584 
57000000   -2865.6565    3865.9926    12874.409   -1479.0295    8210.6786    308.52899    15566 
58000000   -2836.1211    3757.3642    13009.041   -1567.1067     8160.592     311.7554    15578 
59000000   -2797.5896    3633.4087    12952.412   -1720.7461    8151.7445     310.3983    15604 
60000000   -2824.4981    3833.6039    13082.419   -1603.4978    8261.5997    313.51386    15575 
61000000   -2828.5354     3890.717     12986.18   -1572.0775      8291.33    311.20755    15585 
62000000   -2837.5695    3837.5116    13032.333   -1542.9692    8218.0503    312.31357    15575 
63000000   -2808.6857    3827.7311    13126.246   -1560.9277    8197.3445    314.56416    15568 
64000000   -2719.0083    3910.2553    12904.783   -1555.9494    8185.2129     309.2569    15565 
65000000   -2728.2839    3791.7106    12851.395   -1697.7464    8217.7409    307.97748    15585 
66000000   -2812.6071     3850.475    13066.319   -1556.0714    8219.1535    313.12804    15563 
67000000   -2757.6806    3865.2377    13024.785   -1567.8912    8190.8096     312.1327    15557 
68000000   -2760.5757     3820.539    12851.746   -1575.8594    8156.9741     307.9859    15582 
69000000   -2746.3045    4011.3964    12807.593   -1485.8658    8243.5668    306.92779    15582 
70000000   -2800.9098    3916.3178    12916.995   -1504.1194     8221.347    309.54954    15562 
71000000   -2757.4158    3855.5039    13034.072   -1616.0678    8228.9876    312.35524    15573 
72000000   -2725.7189    3855.1061    12924.114   -1589.8649    8170.6898    309.72016    15577 
73000000   -2812.7268    3823.3283    12959.078   -1605.3249      8241.38    310.55805    15569 
74000000   -2802.8363    3995.2784    13037.579   -1500.7738    8298.8885    312.43928    15570 
75000000   -2867.3048     3754.727    13147.199   -1658.4247    8280.4565    315.06628    15570 
76000000    -2860.854    3768.5795     12898.41   -1591.3139    8220.7473    309.10417    15566 
77000000   -2840.6902    3855.1708    12910.322   -1556.2757    8252.1368    309.38963    15577 
78000000   -2831.2674    3976.2533    12939.888   -1534.4548    8341.9755    310.09816    15559 
79000000   -2819.9546    3831.1464    13075.735   -1583.3279    8234.4289    313.35367    15576 
80000000   -2825.1792    3905.8718     12798.51   -1603.4478    8334.4987    306.71011    15592 
81000000   -2775.7716    3845.0114    13004.108   -1667.7933    8288.5763    311.63717    15585 
82000000   -2728.5564     3847.813    12875.942   -1530.5688    8106.9382    308.56574    15575 
83000000   -2772.5046    3951.6748     13062.48   -1615.1475    8339.3268    313.03603    15572 
84000000   -2744.6893    3739.1796    12813.888   -1726.4983    8210.3672    307.07865    15598 
85000000   -2755.4632    4002.8431    12712.318   -1503.4663    8261.7726    304.64456    15578 
86000000   -2736.8565    3708.2667    12910.833   -1638.3528     8083.476    309.40188    15590 
87000000    -2762.803    3773.7788    13017.114   -1668.0605    8204.6423    311.94886    15588 
88000000   -2812.5622    3873.3859    13003.056   -1620.4608    8306.4089    311.61197    15586 
89000000   -2826.4544    3650.8047    12836.653   -1704.1553    8181.4143    307.62419    15602 
90000000   -2778.5359    3825.3041    12956.467   -1649.0711     8252.911    310.49548    15600 
91000000   -2802.3675    3816.0173    12917.308   -1652.4605    8270.8453    309.55704    15584 
92000000   -2871.3063    3775.1605    13093.816   -1667.7284    8314.1952    313.78698    15591 
93000000    -2790.029    3807.6102    12848.229   -1604.8303    8202.4695     307.9016    15573 
94000000   -2762.8226    3908.7432    12808.817   -1548.2034    8219.7692    306.95713    15581 
95000000   -2820.2434    3979.9486    12856.858   -1439.8054    8239.9974    308.10839    15561 
96000000   -2748.6876    3770.7332    12871.639   -1574.3359    8093.7567    308.46261    15580 
97000000   -2726.8599    3833.6992    12921.142   -1556.7142    8117.2734    309.64894    15570 
98000000   -2770.8758      3884.34    13019.836   -1581.8102     8237.026    312.01409    15585 
99000000   -2839.6075    3883.2292    12922.951   -1465.0881    8187.9248    309.69227    15564 
100000000   -2780.9073    3882.9108    12961.693   -1560.8777    8224.6958    310.62072    15558 
101000000   -2795.4366    3782.8838    12880.049   -1548.6423    8126.9627    308.66415    15569 
102000000    -2848.095    3848.0724    12919.085   -1593.5273    8289.6946    309.59963    15563 
103000000   -2825.9689    3923.2954    13038.985   -1535.3825    8284.6467    312.47297    15554 
104000000   -2870.4464    3751.6261    12999.797   -1560.8003    8182.8727    311.53387    15561 
105000000   -2861.1317    3791.6755    12752.096   -1645.0684    8297.8756    305.59784    15563 
106000000   -2857.7683    3898.7234    12988.603   -1522.8091    8279.3008     311.2656    15555 
107000000   -2869.7789    3866.8728    13074.301   -1563.2996    8299.9514     313.3193    15560 
108000000   -2864.0479    3667.7262    12939.062   -1677.3763    8209.1504    310.07837    15581 
109000000   -2936.8693     3725.127    12882.555   -1562.4649    8224.4612    308.72421    15579 
110000000   -2950.4721    3847.3844    12845.053   -1504.7471    8302.6036     307.8255    15560 
111000000   -2959.4968    3654.6507    12959.698   -1561.7532    8175.9007    310.57291    15567 
112000000   -2914.4761    3553.7931    13098.966   -1677.4242    8145.6934     313.9104    15592 
113000000    -2901.588    3696.1378    12936.704   -1524.1042      8121.83    310.02186    15590 
114000000   -2927.6153    3749.7062    12952.613   -1531.3054    8208.6268    310.40313    15569 
115000000   -2901.2248    3774.9747    12964.167   -1557.4301    8233.6296       310.68    15575 
116000000   -2949.0951    3599.5911    12926.134   -1658.3938    8207.0799    309.76856    15579 
117000000   -2867.6928    3696.6385     12896.56   -1581.5645    8145.8958    309.05984    15575 
118000000   -2891.8488    3777.4993    13037.456   -1589.7806    8259.1287    312.43633    15576 
119000000    -2976.569    3697.3507    12982.458   -1554.8063    8228.7259    311.11833    15589 
120000000   -2918.4939    3698.6836      12813.9   -1560.3294    8177.5069    307.07892    15579 
121000000   -2865.7449    3567.8851     12954.18   -1670.8856    8104.5155    310.44066    15571 
122000000   -2828.8032    3871.4267    13036.691   -1494.1961     8194.426    312.41802    15574 
123000000   -2803.6037    3927.9161    12846.475   -1498.7039    8230.2236    307.85958    15571 
124000000   -2856.2098    3751.1153    12900.524     -1578.05     8185.375    309.15484    15586 
125000000   -2864.2651    3722.3055    13064.287    -1578.317    8164.8877    313.07933    15572 
126000000     -2847.84    3805.5433    12970.202   -1473.7956     8127.179    310.82464    15555 
127000000   -2839.3556    3816.5131     13037.79   -1602.5691    8258.4378    312.44435    15591 
128000000   -2785.1568    3794.2897    13008.105   -1524.9153    8104.3618    311.73297    15559 
129000000   -2809.8179    4075.7487     12827.38   -1447.1409    8332.7075    307.40197    15554 
130000000   -2858.2797    3912.1524     12953.36   -1508.0654    8278.4975    310.42103    15569 
131000000   -2854.3209    3775.5832    13016.904   -1570.2068    8200.1109    311.94381    15559 
132000000   -2866.0261    3547.5506    12987.716   -1652.8279    8066.4046    311.24435    15573 
133000000   -2841.8356    3781.1147    13005.104   -1512.8208    8135.7711    311.66104    15576 
134000000    -2919.027    3733.5595    12898.274   -1527.7018    8180.2883    309.10091    15565 
135000000   -2914.8115    3715.4499    12987.374   -1610.6278    8240.8891    311.23614    15587 
136000000   -2888.2496    3683.9229    12853.208    -1635.834    8208.0065    308.02094    15585 
137000000   -2946.5884    3745.7053    13052.088   -1585.3617    8277.6554    312.78698    15585 
138000000   -2855.1993    3506.2027    13121.643   -1717.9755    8079.3775    314.45384    15584 
139000000   -2956.9271    3622.6639    12995.644   -1497.7907    8077.3817    311.43434    15573 
140000000   -2934.1577    3757.4884      12981.6   -1472.5888    8164.2349    311.09778    15580 
141000000   -2871.3433    3726.3969    12879.286   -1700.5745    8298.3148    308.64588    15587 
142000000    -2945.848    3531.8267    12916.272    -1645.898    8123.5726    309.53223    15581 
143000000   -2918.4302    3659.2296    12985.805   -1622.2352     8199.895    311.19855    15592 
144000000   -2920.4942    3549.5097    12907.045   -1618.1298    8088.1337     309.3111    15595 
145000000   -2904.8539    3743.9652    12854.855   -1502.9685    8151.7877     308.0604    15567 
146000000   -2890.8859    3609.5492    12850.464   -1610.6764    8111.1115    307.95516    15585 
147000000   -2898.5863    3548.3449    12806.236   -1678.0922    8125.0234    306.89526    15580 
148000000   -2918.3115    3436.9294    12866.157   -1715.7735    8071.0145    308.33124    15605 
149000000   -2864.8899    3579.5943    12843.855   -1743.8635    8188.3477     307.7968    15581 
150000000   -2907.8647    3849.2317    13163.156   -1508.0066    8265.1029    315.44867    15559 
151000000   -2943.6619    3737.3524    12863.572   -1520.1809    8201.1952     308.2693    15548 
152000000   -2941.1822    3804.5712    12910.021   -1513.0328    8258.7863    309.38243    15589 
153000000   -2924.0374    3717.3185    13003.168   -1598.9738    8240.3297    311.61463    15586 
154000000    -2928.725    3732.7845    13120.809   -1589.1529    8250.6624    314.43385    15568 
155000000   -2911.9268    3791.5037    12899.959   -1505.4828    8208.9133    309.14128    15573 
156000000   -2948.0898    3660.2483    12881.383   -1532.0618    8140.3999    308.69613    15560 
157000000   -2905.9443    3674.1559    13028.137   -1609.7035    8189.8038    312.21301    15574 
158000000   -2936.3379    3646.8014    12908.567   -1622.4154    8205.5548    309.34758    15560 
159000000   -2952.3293    3738.6333     12954.14   -1566.9685    8257.9312     310.4397    15576 
160000000   -2916.6621    3744.5725    12928.506   -1593.1457    8254.3803    309.82539    15575 
161000000   -2859.8112    3726.1487    12930.527   -1518.3068    8104.2668    309.87384    15567 
162000000   -2920.5522    3804.4669    12888.063   -1535.1291    8260.1481    308.85621    15568 
163000000   -2896.2123    3734.5069    12962.847    -1613.294    8244.0132    310.64837    15572 
164000000   -2844.6382    3964.3835    12864.997    -1446.958    8255.9797    308.30344    15566 
165000000   -2856.4979    3652.9346    12981.965   -1635.6254    8145.0579    311.10653    15563 
166000000   -2849.0928    3752.0633     12920.81   -1636.5272    8237.6833    309.64098    15577 
167000000   -2863.1153    3800.3513    13036.673   -1525.8858    8189.3524    312.41757    15565 
168000000    -2869.144    3946.6581    12932.148   -1498.3526    8314.1548    309.91269    15569 
169000000   -2891.9773    3687.2401    12874.378   -1671.1005     8250.318    308.52824    15578 
170000000   -2868.1152     3707.155    12982.721   -1671.5807    8246.8509    311.12463    15588 
171000000   -2880.4159    3674.3383    12821.005   -1655.0787    8209.8329     307.2492    15580 
172000000   -2912.3177    3690.4649    13016.297   -1599.2634     8202.046    311.92929    15576 
173000000   -2941.2147    3536.5388    13025.391   -1692.8609    8170.6144    312.14721    15589 
174000000   -2903.0478    3817.4998    12967.794   -1496.8155    8217.3632    310.76693    15559 
175000000    -2929.029    3765.1224    12915.311   -1529.6654    8223.8169     309.5092    15593 
176000000   -2934.5043    3751.7676    13055.115   -1605.3703    8291.6422    312.85954    15584 
177000000    -2942.334    3860.1168    12899.843   -1452.2379    8254.6887    309.13851    15550 
178000000   -2873.9227    3778.7291    12889.958   -1553.5173    8206.1691    308.90161    15563 
179000000   -2905.7444    3715.9691    12943.509   -1551.5559    8173.2694    310.18495    15575 
180000000   -2889.8582    3665.2367    12957.884   -1636.0341    8191.1291    310.52944    15572 
181000000   -2918.3311    3786.4481    12851.336   -1535.8101    8240.5892    307.97606    15576 
182000000   -2879.6306    3594.8563    12836.997   -1706.9786    8181.4655    307.63244    15583 
183000000   -2917.9795    3765.2047    12820.141   -1571.1151    8254.2993    307.22849    15570 
184000000   -2862.4457    3694.0608    12905.779   -1633.2534    8189.7599    309.28075    15583 
185000000   -2886.8608    3737.4075    12888.433   -1540.1787     8164.447    308.86507    15562 
186000000   -2904.3222    3668.8227    13042.671   -1625.1733    8198.3182    312.56131    15595 
187000000   -2814.5413     3759.373     12913.77   -1541.3413    8115.2557    309.47227    15567 
188000000   -2840.0576    3809.6727    12915.274   -1580.1827    8229.9131    309.50831    15586 
189000000   -2792.6361    3759.0134    12890.083   -1662.2268    8213.8764    308.90462    15585 
190000000   -2786.5618    3639.0741    12754.591   -1616.9968    8042.6327    305.65761    15591 
191000000   -2801.0269    3733.7967    12832.315   -1695.7727    8230.5964    307.52024    15587 
192000000   -2880.9129    3670.1535    12962.268   -1660.9039    8211.9703     310.6345    15575 
193000000   -2952.4971    3485.7732    12935.331   -1701.0369    8139.3073    309.98896    15591 
194000000   -2941.1715    3728.9423    12919.355   -1552.7825    8222.8963    309.60609    15564 
195000000    -2971.137    3532.1742    12805.562    -1648.756    8152.0672     306.8791    15597 
196000000   -3022.4853    3675.0492    12800.657   -1530.9363    8228.4708    306.76156    15571 
197000000   -2969.2897    3724.9959    12901.101   -1594.5284    8288.8139    309.16865    15579 
198000000   -2957.6451    3516.8506    12935.475   -1563.1732    8037.6688     309.9924    15573 
199000000    -2846.618    3598.3391    12908.644   -1639.6952    8084.6523    309.34941    15569 
200000000   -2960.2295    3759.0198    12882.137   -1549.7643    8269.0137     308.7142    15576 
201000000   -2905.5274    3680.8885    12965.031   -1555.1913    8141.6072    310.70072    15575 
202000000   -2921.5101    3636.5759    12876.632    -1524.862     8082.948    308.58226    15571 
203000000   -2927.8172    3646.0172    12831.238   -1579.1996     8153.034    307.49442    15556 
204000000    -2931.384    3631.9096    12796.081   -1622.1323     8185.426    306.65191    15563 
205000000   -2941.7606    3758.0593    12928.929   -1477.7379    8177.5578    309.83553    15565 
206000000   -2969.3481    3665.6067    12988.555   -1538.6704    8173.6252    311.26446    15570 
207000000   -2968.0041    3543.4893     12908.11   -1562.7455    8074.2389    309.33664    15565 
208000000   -3018.5584    3513.9287    12873.106   -1578.2136    8110.7008    308.49777    15567 
209000000   -2969.8144    3555.9215    12923.165     -1686.51    8212.2459     309.6974    15582 
210000000   -3026.8054    3555.6806    12953.798   -1642.2972    8224.7832    310.43151    15583 
211000000   -2985.5202    3598.8223     12879.33   -1620.5308    8204.8733    308.64694    15569 
212000000   -2985.4629     3696.321    12841.276   -1544.6592     8226.443    307.73499    15575 
213000000   -2918.3511    3573.0004    12983.014   -1691.2317    8182.5833    311.13166    15582 
214000000   -2942.7294    3721.3178    13014.186   -1522.5966    8186.6437    311.87869    15571 
215000000   -2887.9922    3587.1845    12993.899   -1630.7126    8105.8893    311.39251    15569 
216000000   -2935.7253    3545.9422    13000.755   -1606.4725      8088.14    311.55682    15569 
217000000   -2908.3466    3666.4844    12817.286    -1615.195     8190.026    307.16007    15597 
218000000   -2961.9768     3641.085    12918.009   -1614.5934    8217.6552    309.57386    15587 
219000000   -2994.4203    3551.0187    12920.103   -1618.4308    8163.8698    309.62403    15585 
220000000   -2950.6643     3674.267    13059.508   -1571.1262    8196.0575     312.9648    15569 
221000000   -2950.1784    3510.6267    12981.428   -1660.9724    8121.7775    311.09366    15575 
222000000    -2923.949    3744.8534    12886.184    -1536.252    8205.0545    308.81118    15576 
223000000   -2971.2816    3581.4806    13097.655   -1651.7479      8204.51    313.87898    15575 
224000000   -2892.5471    3816.7467    12902.952   -1488.8427    8198.1365    309.21303    15556 
225000000   -2898.9316    3962.3215    12764.535   -1489.0464    8350.2994    305.89592    15552 
226000000   -2882.7429    3827.5168    12911.731   -1534.7763     8245.036    309.42341    15567 
227000000   -2896.7054    3636.2635    13024.103   -1577.7259    8110.6948    312.11635    15572 
228000000   -2969.2749    3693.3367    12838.135   -1598.0298    8260.6415    307.65971    15555 
229000000   -2898.7978    3792.0952    12983.242   -1525.1582    8216.0513    311.13712    15557 
230000000   -2924.3692    3613.9791    12899.789    -1629.453    8167.8013    309.13722    15559 
231000000   -2908.0882    3787.4592    12893.215   -1512.3684    8207.9158    308.97966    15569 
232000000   -2973.6967    3602.1612     12837.74   -1564.1236    8139.9815    307.65024    15571 
233000000   -2938.6196    3553.6445    12795.476   -1589.2892    8081.5533     306.6374    15577 
234000000   -2920.6048    3792.1758    12988.038   -1485.3253    8198.1059    311.25207    15552 
235000000   -2925.1481     3791.877    13123.948   -1447.6596    8164.6848    314.50907    15561 
236000000   -2972.5089    3545.1216    12982.425   -1640.7378    8158.3684    311.11755    15562 
237000000   -3042.0999    3743.3061    12864.964   -1460.0277    8245.4336    308.30266    15533 
238000000   -3007.4666    3578.5824    12909.806   -1531.5012    8117.5503    309.37727    15570 
239000000   -2962.1509    3687.3082    13050.014   -1551.4703    8200.9294    312.73729    15570 
240000000   -2972.8669    3840.0254    12953.466   -1471.9811    8284.8734    310.42356    15545 
241000000   -2958.1137    3792.0718    13011.518    -1454.249    8204.4345    311.81475    15552 
242000000   -3037.8845    3563.7885    12907.586   -1552.4622    8154.1351    309.32407    15556 
243000000   -3038.9679    3674.8368    12934.721   -1495.0284    8208.8331    309.97433    15545 
244000000   -3024.7444    3628.1471    12832.345   -1491.0773    8143.9688    307.52096    15564 
245000000   -3002.2676    3782.9829    12959.568   -1387.5426     8172.793    310.56978    15562 
246000000   -3029.1477    3663.6308    12782.958    -1569.301    8262.0795    306.33743    15559 
247000000    -3044.543    3542.4711    13131.472   -1627.4371    8214.4512    314.68938    15555 
248000000   -3020.1986    3491.6762    12908.109   -1619.9616    8131.8364    309.33659    15574 
249000000   -3024.1061    3384.4908    12805.879   -1596.8337    8005.4306    306.88672    15566 
250000000    -3030.134    3648.3919    12982.109   -1542.6486    8221.1745    311.10998    15572 
251000000   -3033.5525    3736.9028    13139.204   -1527.1325    8297.5878    314.87468    15567 
252000000   -3034.2687    3656.2594    12944.715   -1539.0129     8229.541    310.21385    15579 
253000000   -3037.9467    3774.1076    12807.167   -1479.7257      8291.78    306.91756    15559 
254000000   -3094.5661    3623.9872    12915.095   -1569.7863    8288.3396    309.50401    15580 
255000000   -3060.8856    3562.5426    12871.243   -1594.4395    8217.8677    308.45312    15584 
256000000   -3002.9226    3581.6035    12970.766   -1625.1896    8209.7157    310.83816    15578 
257000000   -2997.9187    3667.1213    12857.541   -1598.8494    8263.8894    308.12476    15568 
258000000   -3006.4793    3680.5805    12910.767   -1526.4006    8213.4604    309.40029    15566 
259000000   -2961.9937    3637.9517    12813.835   -1596.8058    8196.7512    307.07737    15565 
260000000   -2964.7601    3632.7492    12720.219   -1595.1803    8192.6896     304.8339    15576 
261000000   -2960.1311    3718.7626    12998.754   -1539.2078    8218.1014    311.50887    15579 
262000000   -2929.0311    3679.1468     13010.49   -1611.6089    8219.7868    311.79011    15584 
263000000   -2927.3564     3782.665    12898.079   -1555.3044    8265.3258    309.09624    15575 
264000000    -2991.556    3718.8493     12975.16   -1585.0272    8295.4325    310.94343    15561 
265000000   -2875.4008    3603.7677     12866.91   -1654.7485    8133.9169    308.34929    15588 
266000000   -2900.7164    3666.4663    12913.193   -1659.5207    8226.7034    309.45844    15577 
267000000   -2878.3641    3733.2706    13051.242   -1565.6505    8177.2852    312.76671    15559 
268000000   -2893.6883    3582.5924    12963.062    -1653.802    8130.0828    310.65353    15588 
269000000   -2881.0474    3713.1586    12930.285   -1523.8321    8118.0381    309.86805    15569 
270000000   -2933.4617    3704.8582    12983.446   -1629.9845    8268.3045    311.14202    15580 
271000000   -2886.6162    3744.9256    12782.726   -1572.8492     8204.391    306.33185    15576 
272000000   -2953.2081    3612.1886    13009.863   -1543.9088    8109.3054    311.77509    15576 
273000000   -2885.8043    3637.9476    13005.035   -1546.2131     8069.965    311.65939    15574 
274000000   -2864.4991    3818.4195    13007.355   -1522.4786    8205.3972    311.71497    15575 
275000000   -2823.5008    3553.9806    13010.893   -1671.2283    8048.7098    311.79976    15578 
276000000    -2861.057     3659.507     12993.42   -1684.9456    8205.5097    311.38104    15598 
277000000   -2847.5104     3629.023    13008.018   -1598.8447    8075.3781    311.73088    15578 
278000000   -2807.9212    3758.0985    12822.204    -1600.875    8166.8947    307.27793    15576 
279000000   -2877.8029    3753.0875    12865.627    -1519.394    8150.2844    308.31854    15582 
280000000    -2893.622    3769.0393    12997.783   -1538.8436    8201.5049    311.48558    15580 
281000000   -2916.6248    3654.8406    12964.437    -1578.704    8150.1694    310.68647    15572 
282000000   -2865.2894    3594.4103    12927.544   -1580.3016    8040.0014    309.80236    15578 
283000000   -2805.9027     3908.301    12851.871   -1508.4444    8222.6481    307.98889    15557 
284000000   -2849.6669    3617.6236    12959.988    -1567.626    8034.9165    310.57985    15559 
285000000   -2908.0118    3546.8642    13018.363   -1630.2488    8085.1248    311.97877    15571 
286000000   -2841.7482    3781.2902    12885.812    -1444.691    8067.7295    308.80226    15564 
287000000   -2889.8751    3649.8135    12851.691   -1566.2482    8105.9368    307.98458    15567 
288000000   -2895.0728    3752.2689    12984.443   -1562.2091    8209.5508     311.1659    15587 
289000000   -2932.9364    3629.9697    13047.306   -1565.3558    8128.2619    312.67239    15600 
290000000   -2837.4633     3726.334    12771.719   -1551.6804    8115.4778    306.06807    15576 
291000000   -2858.6768    3598.8213    12774.967   -1555.0373    8012.5354    306.14591    15563 
292000000   -2856.7747    3597.3006    13013.001   -1624.8113    8078.8866     311.8503    15570 
293000000   -2924.5865    3608.0304    13034.186   -1567.5087    8100.1256    312.35798    15579 
294000000   -2906.5873    3617.3599    12946.124    -1496.899    8020.8462    310.24762    15562 
295000000   -2895.5085    3647.3652    12988.363   -1619.0139    8161.8876    311.25984    15581 
296000000   -2959.7438    3658.0792    12967.994   -1501.2726    8119.0956    310.77172    15550 
297000000   -2901.0509    3854.7874    12925.298   -1476.5826    8232.4209    309.74853    15567 
298000000   -2975.6307    3579.4924    12860.174    -1637.414    8192.5371    308.18787    15583 
299000000   -2985.0319    3621.3417    13014.326   -1569.6005    8175.9741    311.88205    15568 
300000000    -2974.892    3549.2706    13029.926   -1536.9965    8061.1592    312.25588    15573 
301000000   -2957.4446    3751.6768    13003.558    -1544.931    8254.0524    311.62399    15571 
302000000   -2952.6864    3520.6796     13052.32   -1627.8231    8101.1891    312.79255    15578 
303000000   -2955.7642    3630.6591    12968.179    -1648.928    8235.3513    310.77614    15581 
304000000   -2941.8855    3669.8713    12913.279   -1566.9474    8178.7041    309.46051    15574 
305000000    -3057.569    3643.6378    12943.838   -1488.5103    8189.7171    310.19283    15559 
306000000   -2940.0894    3736.2338    13096.147    -1545.497    8221.8201    313.84284    15573 
307000000   -3011.0124    3560.6546    12834.556   -1611.4497    8183.1166    307.57393    15569 
308000000   -2979.0834    3723.5098    12926.348   -1506.0615    8208.6548    309.77368    15563 
309000000   -3070.9471    3623.3692    12933.295    -1564.856    8259.1723    309.94018    15567 
310000000   -3055.0482    3522.2862    13051.606   -1565.7757    8143.1102    312.77544    15568 
311000000   -3041.9707     3575.431     12995.97    -1580.786    8198.1877    311.44216    15571 
312000000   -3060.6215    3533.7677    12953.484   -1581.7988     8176.188    310.42398    15570 
313000000   -3001.1583    3642.3607    12975.359   -1516.9217    8160.4407     310.9482    15567 
314000000   -3004.8149    3602.6062    12898.584   -1532.8632    8140.2843    309.10834    15571 
315000000   -2933.5537    3624.9861    12892.885   -1596.4605    8155.0003    308.97177    15574 
316000000   -2952.1114    3760.2575    12972.422   -1567.2828    8279.6517    310.87783    15559 
317000000   -2954.2062    3571.0428    12908.565   -1621.2108    8146.4598    309.34752    15575 
318000000   -2954.0728    3537.7846    12981.157   -1662.1759    8154.0333    311.08717    15568 
319000000   -2965.6342    3563.1906     12915.01   -1547.9318    8076.7567    309.50199    15574 
320000000   -2951.0499    3662.5059    12886.294   -1603.2237    8216.7795    308.81381    15571 
321000000   -2960.2735    3609.5918    12931.953   -1589.3925    8159.2578    309.90801    15573 
322000000   -2887.9507    3543.5414    13004.256   -1655.5591    8087.0511    311.64071    15573 
323000000   -2939.2028    3647.8877     13115.54   -1555.3673    8142.4578     314.3076    15581 
324000000   -3002.1013    3673.6597    12879.388   -1547.1425    8222.9036    308.64832    15564 
325000000   -2958.0366    3621.2303    12966.763   -1552.3295    8131.5963    310.74221    15576 
326000000   -2959.8218    3516.1299    12967.573   -1631.3401    8107.2918    310.76162    15591 
327000000   -3019.1604    3435.3047    12770.397   -1601.9371    8056.4022     306.0364    15581 
328000000   -2977.0172    3580.0532    12936.205   -1629.6784    8186.7488     310.0099    15584 
329000000    -3064.609     3496.026    13044.834   -1543.4706    8104.1055    312.61316    15580 
330000000   -3056.4057    3495.2835    12965.914   -1619.0111    8170.7003    310.72187    15566 
331000000   -3063.5596    3558.2111    13055.481   -1618.1122     8239.883    312.86829    15577 
332000000   -3005.7587    3657.4827    13012.152   -1502.4184    8165.6598    311.82993    15563 
333000000    -3000.595    3511.5847    12981.518    -1613.574    8125.7538     311.0958    15576 
334000000   -2959.2033    3732.3259    13086.296   -1506.2693    8197.7985    313.60676    15568 
335000000   -2934.8201    3631.0335    12921.311   -1593.3591    8159.2127    309.65299    15567 
336000000    -2911.711    3451.6556    12989.308   -1706.8447    8070.2113     311.2825    15587 
337000000   -2893.8568    3587.7628    13170.249   -1625.4365    8107.0561    315.61866    15590 
338000000   -2952.9826    3681.7767    12875.391    -1536.348    8171.1073    308.55253    15578 
339000000    -2930.684    3819.8085    13081.017   -1505.7751    8256.2675    313.48025    15566 
340000000   -2926.1753    3657.7203     13082.71   -1591.0085    8174.9041    313.52082    15575 
341000000   -2892.7313    3569.3966     12774.73    -1528.061    7990.1888    306.14024    15556 
342000000   -2939.9792    3558.1466    12946.367   -1609.5913    8107.7171    310.25343    15576 
343000000   -2935.8958    3687.6909    12773.929   -1533.3313     8156.918    306.12103    15568 
344000000   -2931.3082    3634.6856    13059.193   -1635.8742     8201.868    312.95726    15588 
345000000    -2958.734    3775.4284    13037.998   -1520.4026     8254.565    312.44933    15584 
346000000   -2960.1244    3660.0207    12976.868   -1610.7269     8230.872    310.98437    15578 
347000000   -2953.7522     3664.593    12936.349   -1510.2883    8128.6336    310.01336    15548 
348000000   -2968.4414    3671.8888    12920.354   -1384.3405    8024.6706    309.63005    15552 
349000000   -2944.1193    3557.1799    13004.165   -1584.6005    8085.8996    311.63854    15553 
350000000   -3008.5956    3580.3834    12887.676   -1522.8839    8111.8628    308.84694    15561 
351000000   -2934.6699     3614.948    12950.071   -1578.3345    8127.9524    310.34219    15588 
352000000   -2951.1536    3808.9091    12921.053   -1433.1132    8193.1759     309.6468    15565 
353000000   -2942.0411    3602.1799    12877.377   -1616.5406    8160.7615    308.60012    15573 
354000000   -2994.8956    3444.9028    13046.653   -1727.7574    8167.5559    312.65674    15583 
355000000   -2923.6449    3541.8632        13012   -1638.3948    8103.9029     311.8263    15588 
356000000   -2946.0059    3498.9924    13036.029   -1725.4714    8170.4696    312.40215    15595 
357000000   -2942.6589    3453.5293    13174.965   -1615.5145    8011.7027    315.73166    15597 
358000000   -2896.1327    3827.3578    12969.817   -1465.6584    8189.1489    310.81541    15580 
359000000   -2951.4987    3636.0033    12942.403   -1534.6344    8122.1364    310.15843    15576 
360000000   -2936.6265    3585.3102    12927.687   -1596.8194    8118.7561    309.80577    15583 
361000000   -2893.4135    3707.2289     12830.68    -1551.222    8151.8644    307.48105    15600 
362000000   -2964.9085    3594.3664    12925.549   -1557.3558    8116.6306    309.75455    15580 
363000000   -2912.3263    3692.1675     13020.96   -1540.1443    8144.6381    312.04102    15576 
364000000   -2990.1964    3487.4953    12768.218   -1662.3156    8140.0072    305.98418    15575 
365000000   -3013.2248    3540.8479    12707.973   -1517.0028    8071.0754    304.54043    15572 
366000000   -2992.1597     3555.137    13009.834    -1614.313    8161.6098    311.77439    15569 
367000000   -2911.3079       3634.9    12945.709   -1606.9709    8153.1788    310.23767    15582 
368000000   -2953.5702    3629.4088    12741.548   -1577.5591    8160.5381    305.34505    15581 
369000000   -2935.5668    3630.1251    13005.852   -1639.4418    8205.1337    311.67897    15589 
370000000   -2968.8984    3668.9419    12889.214   -1628.7159    8266.5562    308.88379    15587 
371000000   -2945.2767    3572.8059    13006.716    -1608.001    8126.0837    311.69966    15575 
372000000   -2889.1506    3731.2141    13101.539   -1556.8934    8177.2581    313.97205    15578 
373000000   -2900.4957    3776.7949    12968.723   -1470.0064     8147.297    310.78919    15542 
374000000   -2930.5286    3785.4091    12914.033   -1531.9234    8247.8611    309.47856    15566 
375000000   -2995.3875    3753.1059    12948.622   -1467.9175    8216.4108    310.30746    15569 
376000000   -2967.1311    3608.0633    12914.276   -1649.8464    8225.0409    309.48438    15590 
377000000   -2902.5083    3615.4551    12956.143   -1598.4218    8116.3852    310.48771    15562 
378000000   -2952.2978    3753.1231    12883.954   -1531.6079    8237.0288    308.75773    15581 
379000000    -2991.909    3442.0933    12937.032    -1670.561    8104.5634    310.02973    15568 
380000000   -2927.2459    3639.1537    13038.861    -1511.712    8078.1116       312.47    15563 
381000000   -2981.4071    3801.9527    13086.721   -1467.8538    8251.2136    313.61695    15569 
382000000   -2982.9488    3634.5602    12961.082   -1491.4821    8108.9911    310.60606    15575 
383000000   -2904.9494    3713.1505    12942.132   -1524.2674    8142.3672    310.15194    15567 
384000000    -2963.283    3457.8313    12879.962   -1660.2497     8081.364    308.66208    15584 
385000000   -2988.5394    3557.6449    13012.902   -1538.8846    8085.0689    311.84792    15584 
386000000   -2996.7301    3484.2399    12974.926   -1561.0444    8042.0144    310.93785    15589 
387000000    -3054.202    3437.7217     12970.53   -1733.5847    8225.5084    310.83249    15583 
388000000   -2998.0026    3622.2526    13004.005   -1653.5268     8273.782    311.63471    15586 
389000000   -3009.6424    3707.0493     12973.39   -1501.6091    8218.3008    310.90103    15564 
390000000   -2998.9758    3495.7951    12950.257   -1661.5994    8156.3702    310.34666    15586 
391000000    -2930.712    3555.2326    12914.605   -1596.9101    8082.8546    309.49227    15579 
392000000    -2909.636    3811.5432    12846.785   -1464.2165    8185.3957    307.86699    15556 
393000000   -2945.7183    3699.0983    12897.068   -1543.4309    8188.2475    309.07201    15576 
394000000    -2958.839     3551.588    12811.377   -1581.4326    8091.8596    307.01847    15583 
395000000   -2914.3917    3610.9691    13108.629   -1583.3443    8108.7051    314.14196    15573 
396000000   -2909.0488    3755.6287    12843.489   -1577.6616    8242.3391    307.78802    15568 
397000000    -2949.568    3620.3054    12948.873   -1576.4464    8146.3198    310.31348    15584 
398000000   -2953.0373    3493.1596    12796.921   -1652.5739    8098.7708    306.67204    15588 
399000000   -2891.8782    3551.9449    12824.329   -1560.7285    8004.5516    307.32886    15588 
400000000    -2948.242    3610.2775    13073.051   -1619.3085     8177.828    313.28935    15579 
Loop time of 105203 on 28 procs for 400000000 steps with 14000 atoms

Performance: 9855.205 ns/day, 0.002 hours/ns, 3802.163 timesteps/s
99.6% CPU use with 28 MPI tasks x no OpenMP threads

MPI task timing breakdown:
Section |  min time  |  avg time  |  max time  |%varavg| %total
---------------------------------------------------------------
Pair    | 12501      | 16547      | 20938      |1650.3 | 15.73
Bond    | 4451.9     | 5833.9     | 9459       |2690.0 |  5.55
Neigh   | 20788      | 21045      | 21371      | 103.7 | 20.00
Comm    | 25346      | 34875      | 41658      |2250.3 | 33.15
Output  | 0.65924    | 0.66284    | 0.66487    |   0.1 |  0.00
Modify  | 18177      | 18336      | 18522      |  57.8 | 17.43
Other   |            | 8566       |            |       |  8.14

Nlocal:    500 ave 537 max 472 min
Histogram: 3 3 4 4 4 1 5 1 1 2
Nghost:    688.929 ave 1059 max 429 min
Histogram: 5 2 4 4 3 4 1 0 4 1
Neighs:    5317.04 ave 6596 max 4175 min
Histogram: 2 2 5 4 2 5 2 2 2 2

Total # of neighbors = 148877
Ave neighs/atom = 10.6341
Ave special neighs/atom = 8.18657
Neighbor list builds = 36821400
Dangerous builds = 0
System init for write_restart ...
Total wall time: 29:13:30
