LAMMPS (5 Jun 2019)
Reading restart file ...
  restart file = 5 Jun 2019, LAMMPS = 5 Jun 2019
  restoring atom style full from restart
  orthogonal box = (-420 -420 -420) to (420 420 420)
  2 by 2 by 7 MPI processor grid
  restoring pair style lj/cut from restart
  restoring bond style hybrid from restart
  restoring angle style cosine from restart
  14000 atoms
  15706 bonds
  13600 angles
Finding 1-2 1-3 1-4 neighbors ...
  special bond factors lj:   1          1          1         
  special bond factors coul: 0          0          0         
  3 = max # of 1-2 neighbors
  6 = max # of 1-3 neighbors
  17 = max # of 1-4 neighbors
  56 = max # of special neighbors
  special bonds CPU = 1.25878 secs
  read_restart CPU = 1.63304 secs
Finding 1-2 1-3 1-4 neighbors ...
  special bond factors lj:   0          1          1         
  special bond factors coul: 0          0          0         
  3 = max # of 1-2 neighbors
  6 = max # of 1-3 neighbors
  17 = max # of 1-4 neighbors
  40004 = # of 1-3 neighbors before angle trim
  27200 = # of 1-3 neighbors after angle trim
  56 = max # of special neighbors
  special bonds CPU = 0.00277953 secs
Unused restart file global fix info:
  fix style: colvars, fix ID: CV_Rg
Neighbor list info ...
  update every 1 steps, delay 1 steps, check yes
  max neighbors/atom: 2000, page size: 100000
  master list distance cutoff = 26.9
  ghost atom cutoff = 26.9
  binsize = 13.45, bins = 63 63 63
  1 neighbor lists, perpetual/occasional/extra = 1 0 0
  (1) pair lj/cut, perpetual
      attributes: half, newton on
      pair build: half/bin/newton
      stencil: half/bin/3d/newton
      bin: standard
Setting up Verlet run ...
  Unit style    : real
  Current step  : 250000000
  Time step     : 0.1
Per MPI rank memory allocation (min/avg/max) = 1.103 | 7.732 | 16.66 Mbytes
Step Temp E_pair E_mol TotEng Press 
250000000    30.962652   -6282.9505    6271.5709    1280.6411   -4.1918796 
250010000    262.22737   -6119.8986    5127.1655    9949.5851    1.1708833 
Loop time of 5.49967 on 28 procs for 10000 steps with 14000 atoms

Performance: 15.710 ns/day, 1.528 hours/ns, 1818.290 timesteps/s
99.5% CPU use with 28 MPI tasks x no OpenMP threads

MPI task timing breakdown:
Section |  min time  |  avg time  |  max time  |%varavg| %total
---------------------------------------------------------------
Pair    | 0.00033672 | 0.78692    | 3.3739     | 116.1 | 14.31
Bond    | 0.00054812 | 0.11561    | 0.44559    |  42.5 |  2.10
Neigh   | 0.016183   | 0.017167   | 0.018852   |   0.8 |  0.31
Comm    | 0.0019284  | 1.4484     | 3.3285     | 102.0 | 26.34
Output  | 9.6934e-05 | 0.00046629 | 0.0008421  |   0.0 |  0.01
Modify  | 0.00097516 | 0.24937    | 0.95694    |  62.2 |  4.53
Other   |            | 2.882      |            |       | 52.40

Nlocal:    500 ave 1933 max 0 min
Histogram: 16 0 0 3 1 3 1 2 1 1
Nghost:    545.036 ave 1745 max 0 min
Histogram: 16 0 0 0 0 7 1 0 1 3
Neighs:    10161.5 ave 42081 max 0 min
Histogram: 16 0 1 2 2 3 0 2 1 1

Total # of neighbors = 284523
Ave neighs/atom = 20.3231
Ave special neighs/atom = 7.92443
Neighbor list builds = 6
Dangerous builds = 0
4000 atoms in group rxnSites
Neighbor list info ...
  update every 1 steps, delay 1 steps, check yes
  max neighbors/atom: 2000, page size: 100000
  master list distance cutoff = 26.9
  ghost atom cutoff = 26.9
  binsize = 13.45, bins = 63 63 63
  2 neighbor lists, perpetual/occasional/extra = 1 1 0
  (1) pair lj/cut, perpetual
      attributes: half, newton on
      pair build: half/bin/newton
      stencil: half/bin/3d/newton
      bin: standard
  (2) fix bond/create/random, occasional, copy from (1)
      attributes: half, newton on
      pair build: copy
      stencil: none
      bin: none
Setting up Verlet run ...
  Unit style    : real
  Current step  : 0
  Time step     : 25
Per MPI rank memory allocation (min/avg/max) = 17.81 | 18.24 | 19.04 Mbytes
Step E_pair PotEng KinEng E_bond E_angle Temp Bonds 
       0   -6119.8986   -992.73306    10942.318   -2837.6836    7964.8491    262.22737    15706 
 1000000   -3156.5586    3754.4567    12920.874   -1385.9117    8296.9269    309.64252    15533 
 2000000   -2923.5234     3909.472    12941.496   -1464.7702    8297.7656    310.13669    15559 
 3000000   -2929.7972    3811.6269    12866.266   -1513.3832    8254.8072    308.33385    15563 
 4000000   -2866.2277    3837.3024    12869.643   -1520.1778    8223.7079    308.41479    15564 
 5000000   -2767.0684    3790.3102    12799.321   -1628.3114      8185.69    306.72955    15579 
 6000000   -2729.5901    4060.7249    12982.061   -1518.5882    8308.9032    311.10883    15571 
 7000000   -2771.9112    4044.1874    12947.823   -1501.2096    8317.3082    310.28832    15562 
 8000000   -2912.3828    3861.0449    13120.324   -1464.5449    8237.9726    314.42222    15556 
 9000000    -2840.902    3738.0848    12934.797   -1586.4967    8165.4835    309.97616    15558 
10000000   -2841.3343    3926.2817    12978.158   -1457.0918    8224.7079    311.01529    15573 
11000000   -2867.8891    3723.8373    12961.413   -1565.2603    8156.9867    310.61401    15582 
12000000   -2743.9125    3749.0927    12888.475    -1660.387    8153.3922    308.86608    15598 
13000000   -2723.4861    3874.3654    12972.222   -1544.8869    8142.7384    310.87303    15578 
14000000    -2853.429    3832.8629    12953.862   -1557.6215    8243.9134    310.43306    15575 
15000000   -2892.6003    3743.8431    12796.519   -1585.6118    8222.0551    306.66239    15577 
16000000   -2907.2468    3900.3784    13082.319   -1528.7608     8336.386    313.51146    15551 
17000000   -2897.8492    3761.6558    12825.149   -1538.9919    8198.4968    307.34851    15573 
18000000   -2865.4016    3811.4744    12803.422   -1599.2594    8276.1354    306.82784    15575 
19000000   -2907.5783    3726.6427    12984.135   -1611.9128    8246.1339    311.15852    15587 
20000000   -2912.7651    3692.3669    12961.071   -1548.7948    8153.9268     310.6058    15590 
21000000   -2877.8041    3789.7455    12964.282   -1545.8473    8213.3968    310.68275    15559 
22000000   -2884.5782    3723.7162    12889.858   -1523.6862    8131.9806    308.89922    15576 
23000000   -2960.7442    3632.9368    12964.566   -1540.9889    8134.6699    310.68957    15577 
24000000   -2982.2974    3560.5056    12940.493   -1552.1341    8094.9371    310.11267    15573 
25000000   -2901.7285    3672.3133    12962.049   -1608.3781    8182.4199    310.62925    15579 
26000000   -3141.1336    3320.7005     12930.26   -1606.1236    8067.9577    309.86745    15560 
27000000   -2960.0847    3572.4127    12858.593   -1509.2058    8041.7033    308.14996    15569 
28000000    -2954.686    3688.0054    12916.043   -1488.1502    8130.8416    309.52673    15564 
29000000   -3029.0426    3440.6184     12907.12   -1619.2413    8088.9023    309.31289    15561 
30000000   -3035.7483    3472.0153    13044.402   -1679.0867    8186.8503     312.6028    15568 
31000000   -3017.7083    3645.1635    12967.085   -1569.5266    8232.3984    310.74993    15568 
32000000     -2986.63      3591.79    12935.691   -1553.4442    8131.8642    309.99759    15579 
33000000   -3019.4048     3741.845    12851.539   -1484.0693    8245.3191    307.98094    15581 
34000000   -3017.8218    3602.4956    12926.737   -1547.0864    8167.4038    309.78301    15579 
35000000   -2892.0333    3753.5941    13015.078    -1415.858    8061.4854    311.90007    15548 
36000000   -2991.9305    3589.3777    12989.114   -1497.1879    8078.4961    311.27784    15558 
37000000   -2998.9768    3720.9803     12887.82   -1482.5151    8202.4721    308.85038    15551 
38000000   -3006.6155    3508.4468    12935.966   -1584.8997     8099.962    310.00418    15577 
39000000   -2947.4703    3609.7117    12981.998   -1546.9487    8104.1308    311.10732    15586 
40000000    -2910.473    3649.7848    12942.618   -1610.2886    8170.5464     310.1636    15572 
41000000    -2911.113    3830.3114    13085.518   -1425.1392    8166.5636    313.58813    15560 
42000000   -3031.6875    3558.8052    12866.119    -1587.597    8178.0897    308.33032    15576 
43000000   -2900.1885    3624.3212    12944.635   -1591.3466    8115.8563    310.21193    15575 
44000000   -2995.4514     3542.839    12986.862   -1574.5962    8112.8865    311.22388    15585 
45000000   -3026.5063    3725.3045    12909.797   -1504.2666    8256.0775    309.37705    15568 
46000000    -3067.818    3544.2397    12838.617   -1606.9977    8219.0554    307.67126    15585 
47000000   -3046.2345    3567.8944    12887.285   -1568.8839    8183.0128    308.83755    15565 
48000000   -2942.5154    3563.1188    12975.646   -1622.3276    8127.9618     310.9551    15587 
49000000   -2882.3499     3618.926    12878.933   -1574.2464    8075.5223    308.63741    15591 
50000000   -2959.9708    3822.5194    12995.507   -1505.8898      8288.38    311.43106    15560 
51000000    -2962.879    3779.8489    13048.199   -1561.1413    8303.8692    312.69379    15585 
52000000   -3008.9283    3672.5535    12807.955   -1520.8949    8202.3766    306.93646    15566 
53000000   -2949.6246    3645.8172    12934.338   -1519.2753    8114.7171    309.96518    15572 
54000000   -2990.0056    3475.2981    13040.916   -1581.7709    8047.0747    312.51925    15581 
55000000   -2990.8093    3573.7398    12725.396   -1631.3416    8195.8907    304.95798    15569 
56000000   -2967.5492    3551.5958    12813.641   -1602.8302    8121.9752    307.07272    15575 
57000000   -3054.3469    3533.7328    12900.594   -1647.5379    8235.6175     309.1565    15569 
58000000   -2871.7408    3496.7192    12816.757   -1718.1598    8086.6198    307.14739    15583 
59000000   -2918.1934    3791.4656    13013.521   -1434.5197    8144.1786    311.86276    15553 
60000000   -2897.3583    3633.9328    13008.464   -1577.2558    8108.5469    311.74156    15576 
61000000   -2907.1917    3757.5289    13065.116   -1532.0673    8196.7878     313.0992    15564 
62000000   -3042.8852    3591.5362    12789.599   -1442.3283    8076.7498    306.49658    15576 
63000000    -3032.259    3585.7383    12972.724   -1485.9302    8103.9275    310.88507    15581 
64000000   -3028.3422    3709.3025    12959.015   -1428.0672    8165.7119    310.55654    15560 
65000000   -2959.6272    3669.2223    12932.924   -1581.0163    8209.8659    309.93128    15566 
66000000   -2921.9619    3543.6698    12810.507   -1550.8677    8016.4994    306.99761    15587 
67000000   -3045.0986    3558.0629    12777.468   -1560.2236    8163.3851    306.20585    15579 
68000000   -3011.7027    3558.1303    12946.752   -1614.3992    8184.2322    310.26267    15588 
69000000   -3086.4721    3510.4848    13002.988   -1538.8766    8135.8335    311.61033    15574 
70000000    -3022.321    3678.1043    13037.412   -1513.9095    8214.3348    312.43527    15578 
71000000   -2977.4466    3586.8119     12896.46   -1645.8293    8210.0878    309.05745    15583 
72000000   -2969.5949     3809.875    12835.563   -1440.4062    8219.8761    307.59807    15564 
73000000   -3056.9686    3565.2925    13012.897   -1462.6292    8084.8902     311.8478    15587 
74000000   -2964.1401     3611.816    12935.316   -1561.9457    8137.9018    309.98859    15567 
75000000   -2962.7634    3493.2058    12932.102   -1551.1523    8007.1214    309.91158    15578 
76000000    -2975.901    3467.1341    12883.987   -1564.0746    8007.1098    308.75853    15589 
77000000   -2924.2549    3514.9714     13010.95   -1633.4766    8072.7028    311.80115    15575 
78000000   -2974.0736    3387.4837    12966.084   -1693.6796     8055.237    310.72595    15591 
79000000   -2997.2003    3599.4657    12858.315   -1529.5537    8126.2196     308.1433    15569 
80000000    -3015.276    3614.4632    12958.882   -1557.3232    8187.0624    310.55334    15592 
81000000   -3103.0039    3429.3657    12933.828   -1560.0783    8092.4479    309.95295    15583 
82000000   -2924.1549    3676.2774     12967.27   -1514.5718     8115.004    310.75435    15580 
83000000   -2952.0608    3590.2345     12880.28   -1643.8213    8186.1166     308.6697    15592 
84000000   -2868.6531     3647.485    12823.553   -1558.4674    8074.6055    307.31025    15601 
85000000   -3042.4882    3521.9277    13011.836   -1541.9208    8106.3367    311.82237    15595 
86000000   -3091.8996    3427.6958    12882.789   -1562.3933    8081.9887    308.72982    15577 
87000000    -2907.768    3833.3846    12975.036   -1423.2322    8164.3847    310.94047    15549 
88000000    -2993.457    3581.5078    12908.686   -1596.1624    8171.1272    309.35042    15572 
89000000   -2971.3442    3601.7032     13032.96   -1607.5578    8180.6051    312.32858    15590 
90000000   -2914.6692    3598.9833    12890.476   -1576.2191    8089.8715    308.91405    15594 
91000000   -2986.4563    3697.8433    12966.263   -1485.1098    8169.4094    310.73023    15581 
92000000   -3009.8937    3606.0985    12919.016   -1574.4813    8190.4735    309.59798    15592 
93000000   -2873.3991    3636.5109    13000.953   -1568.4786    8078.3886    311.56157    15586 
94000000   -3077.9933    3488.8513    12953.891   -1530.4166    8097.2612    310.43373    15570 
95000000   -2992.9007    3594.2425    13053.041   -1558.6703    8145.8135    312.80982    15569 
96000000   -3014.4078    3484.3579    13050.685   -1544.3634    8043.1291    312.75337    15566 
97000000   -3012.9088    3683.6841    12875.657   -1540.9081    8237.5011     308.5589    15585 
98000000   -2930.2501    3673.0305    12932.832   -1539.2916    8142.5723    309.92906    15582 
99000000   -2978.8202    3498.9046    13113.582   -1590.8765    8068.6013    314.26067    15590 
100000000   -2949.8359    3698.4266    12952.056   -1508.5304     8156.793    310.38978    15593 
101000000    -2920.617    3629.6666    12950.248    -1629.357    8179.6406    310.34645    15588 
102000000   -2939.1356    3670.8139    12956.647   -1547.7302    8157.6797    310.49978    15567 
103000000   -2930.4478    3700.4071    12962.369   -1598.6985    8229.5534    310.63692    15560 
104000000   -2972.5638    3424.0596    12902.298   -1642.9789    8039.6023    309.19735    15577 
105000000   -3026.7159    3441.2328    12886.849   -1595.2082    8063.1569    308.82712    15596 
106000000   -3007.7795    3542.6415    12896.841   -1594.1947    8144.6157    309.06657    15583 
107000000   -3008.7743    3517.4042    12874.557   -1606.9363    8133.1147    308.53253    15594 
108000000   -3044.9474    3523.3087    12801.322   -1578.6814    8146.9375    306.77751    15576 
109000000   -2978.0588    3695.5799    12803.385   -1504.9357    8178.5743    306.82695    15569 
110000000   -3022.8326    3477.9921    12911.104   -1651.5347    8152.3595    309.40838    15568 
111000000   -3097.2128    3462.7299    13069.707   -1566.9823    8126.9251    313.20921    15580 
112000000   -3127.0275    3538.9267    12977.311   -1558.0067    8223.9609    310.99498    15581 
113000000   -2979.6545    3389.7464    12928.689   -1640.0688    8009.4698    309.82979    15605 
114000000   -3027.1234    3377.5746    13071.265   -1646.7292    8051.4272    313.24656    15568 
115000000   -2935.3329    3636.7694    12986.632   -1617.8129    8189.9152    311.21836    15570 
116000000   -3027.2382    3601.6244    13181.125   -1548.5781    8177.4406    315.87931    15582 
117000000   -2982.7385    3462.2359    12866.076   -1640.8296     8085.804     308.3293    15592 
118000000    -3033.017    3582.6202    12870.454   -1601.8095    8217.4467    308.43421    15564 
119000000   -3024.1129     3552.073    13088.254   -1611.7048    8187.8907     313.6537    15587 
120000000   -2978.2848    3772.2631    13014.274   -1545.9441    8296.4919    311.88078    15589 
121000000   -3063.1852    3362.7113    12880.883   -1669.7029    8095.5995    308.68415    15592 
122000000   -3001.5521    3564.7113    12970.509   -1555.0049    8121.2683    310.83199    15585 
123000000   -2958.2253    3769.5782    12962.213   -1451.4538    8179.2573    310.63318    15565 
124000000   -3013.0858    3781.6599     12862.48   -1421.8905    8216.6361    308.24312    15572 
125000000   -2932.3294    3833.4009    12966.809   -1383.2822    8149.0125    310.74332    15543 
126000000    -2981.785    3642.1576    12963.573   -1460.0233    8083.9659    310.66577    15563 
127000000   -2938.7692    3757.0166    12995.436   -1503.7801    8199.5659    311.42935    15565 
128000000   -2941.8082    3627.9252    12979.502   -1556.9022    8126.6356     311.0475    15576 
129000000   -2924.1503    3734.7214    13029.658   -1560.4639    8219.3356    312.24946    15557 
130000000   -2975.7017    3546.1214    12927.161   -1613.6357    8135.4587    309.79317    15590 
131000000   -2973.6719    3618.1433    12921.295   -1547.5987    8139.4139     309.6526    15569 
132000000   -2974.1441    3730.3186     12990.08   -1529.0946    8233.5573      311.301    15568 
133000000   -3011.1763    3584.8322    12896.641   -1537.3452    8133.3537    309.06176    15572 
134000000   -2949.8758    3595.9743    13042.154   -1513.4564    8059.3065    312.54892    15575 
135000000   -2975.1959    3644.3906    12922.372   -1556.7338    8176.3204    309.67841    15559 
136000000   -2929.6797     3802.557    12785.794   -1428.9573     8161.194    306.40539    15568 
137000000   -2996.8288    3574.6795    12926.616    -1547.053    8118.5612    309.78012    15565 
138000000   -2972.5802    3766.4414    12962.566     -1408.37    8147.3915    310.64163    15564 
139000000   -2962.7246    3773.9185    12963.078   -1459.9739    8196.6169     310.6539    15561 
140000000   -2955.5989    3567.6141    12919.582   -1606.0337    8129.2468    309.61154    15584 
141000000   -3033.9374    3339.4264    12957.476   -1669.3965    8042.7603    310.51965    15585 
142000000   -3001.4218    3655.5796    13015.879   -1562.8895    8219.8909    311.91926    15590 
143000000   -3011.0269    3534.6405    13069.869   -1549.9528    8095.6202    313.21309    15591 
144000000   -3012.6055    3646.8781    13082.164   -1537.7172    8197.2008    313.50775    15566 
145000000   -2957.5064    3413.1676    12837.104   -1619.7394    7990.4134      307.635    15596 
146000000    -2977.984    3632.1533    12901.332   -1592.0895    8202.2268     309.1742    15598 
147000000   -2965.3568    3670.1504    12922.706   -1523.5739    8159.0811    309.68641    15574 
148000000   -2946.5138    3742.4735    12945.232   -1561.3151    8250.3024    310.22624    15605 
149000000   -2918.5316    3667.7937     12991.36   -1513.2079    8099.5332    311.33168    15583 
150000000   -2927.4887    3574.4479    12888.584   -1605.7829    8107.7195    308.86869    15584 
151000000   -2973.7743    3559.4426      12951.2   -1597.7703    8130.9872    310.36925    15587 
152000000   -2880.0136    3749.2115    12916.601   -1551.3774    8180.6024    309.54011    15573 
153000000   -2953.0445    3745.1377    12859.608   -1526.0161    8224.1983     308.1743    15577 
154000000   -2989.7986    3596.5411    12877.051   -1619.5199    8205.8597     308.5923    15584 
155000000   -3017.2602    3721.1607    12913.293   -1508.3521    8246.7729    309.46084    15562 
156000000   -2973.1134    3762.7227    13051.732     -1484.59    8220.4262    312.77845    15566 
157000000   -2968.2557    3647.4417    12907.725   -1553.6881    8169.3855    309.32739    15577 
158000000   -2938.4216    3681.1735    12996.062   -1525.0961    8144.6912    311.44436    15569 
159000000   -3030.5059    3598.9288    13075.982   -1541.9829    8171.4176    313.35959    15588 
160000000   -3009.5986    3527.4098    12804.779   -1641.9121    8178.9205    306.86034    15596 
161000000   -2908.0093    3715.8537    12974.469   -1548.1199    8171.9829    310.92688    15584 
162000000   -2942.2013     3758.339    12853.112   -1544.0921    8244.6324    308.01864    15587 
163000000   -3032.8488    3604.7912    12656.805   -1588.6337    8226.2736    303.31423    15599 
164000000   -2962.5825      3716.68    12877.653   -1463.6974    8142.9599    308.60673    15572 
165000000    -2931.856    3446.0388    12893.925   -1699.3836    8077.2785    308.99669    15605 
166000000   -2913.3477     3721.009    12887.103   -1629.0251    8263.3818    308.83321    15571 
167000000   -2997.4639    3604.3847    12982.969   -1580.4349    8182.2835    311.13059    15592 
168000000   -2995.7314    3592.9237     12965.39   -1644.3935    8233.0486    310.70932    15600 
169000000   -3011.3151    3588.0623    12900.245   -1575.6931    8175.0705    309.14814    15570 
170000000   -3024.3613    3650.5975    12811.526   -1621.8217    8296.7805    307.02204    15592 
171000000    -3008.885    3337.5547    12989.342   -1647.4576    7993.8973    311.28332    15605 
172000000   -2976.7642    3478.5448    12908.842   -1616.4549    8071.7639    309.35418    15603 
173000000   -2898.0104    3702.8614    12748.456   -1557.7044    8158.5761    305.51061    15574 
174000000   -2820.6461    3770.2369    12915.334   -1545.5398    8136.4228    309.50973    15597 
175000000   -2865.5917    3767.0431    12960.415   -1556.0281     8188.663     310.5901    15579 
176000000   -2883.0069    3713.4977    12956.396   -1597.1274     8193.632    310.49378    15574 
177000000   -2954.1436    3434.0623    13054.089   -1734.4678    8122.6737    312.83495    15608 
178000000   -2958.2517    3672.8361    12875.956   -1493.2221    8124.3099    308.56607    15556 
179000000   -2999.4622    3760.8397    12968.446   -1417.0415    8177.3434    310.78256    15553 
180000000   -2930.1586    3500.2291      12969.1   -1661.5803     8091.968    310.79822    15577 
181000000   -2943.3645    3660.8043    12832.008   -1505.8521    8110.0209    307.51287    15564 
182000000   -2911.6006    3524.0155    12981.006   -1674.6715    8110.2876    311.08354    15588 
183000000   -2871.9722    3811.2694    12843.345   -1503.2584    8186.5001    307.78455    15584 
184000000   -2871.2414    3760.1659    13015.061   -1530.7864    8162.1938    311.89965    15580 
185000000   -2918.8125    3683.0047    12931.974   -1610.3427      8212.16    309.90852    15575 
186000000    -2979.054    3533.2669    12924.392   -1651.8467    8164.1676    309.72682    15577 
187000000   -3052.8531    3457.5088    12931.224   -1648.6643    8159.0262    309.89053    15579 
188000000   -3052.6308       3619.8    13018.179   -1554.3844    8226.8151    311.97439    15574 
189000000   -2939.6462    3653.1411    12965.158   -1587.8936     8180.681    310.70375    15581 
190000000   -3034.8243    3545.9975    12787.429    -1713.911    8294.7328    306.44456    15599 
191000000   -2951.3315    3721.0519    12947.172   -1602.0447    8274.4281    310.27272    15608 
192000000   -3070.1372    3511.1463    13099.594   -1548.8103    8130.0938    313.92545    15567 
193000000    -3056.099    3522.4448    12922.482   -1564.4397    8142.9835    309.68103    15577 
194000000   -3032.7338     3543.728     13026.87   -1617.3376    8193.7994    312.18264    15585 
195000000   -3011.1393    3610.4075    12887.161   -1568.3096    8189.8564    308.83459    15586 
196000000   -2991.7413    3493.4354    12875.362   -1566.3572     8051.534    308.55182    15586 
197000000   -3067.1787    3399.3456    12991.295   -1637.0198    8103.5441    311.33012    15593 
198000000   -3022.4554    3469.6116    12798.602   -1655.4748    8147.5418    306.71232    15572 
199000000   -3053.9182    3415.7947    13051.468   -1688.6422    8158.3551    312.77214    15583 
200000000   -2929.3325    3799.7679    12768.868   -1525.8035     8254.904    305.99975    15570 
201000000   -2968.3351    3625.0706    12720.127   -1561.8549    8155.2606    304.83171    15582 
202000000   -2993.7097    3585.8172    13052.566    -1474.274    8053.8009    312.79844    15567 
203000000    -2968.363    3569.7776    12902.615   -1601.0721    8139.2127    309.20493    15600 
204000000   -2989.3812     3662.569    13166.715     -1477.04    8128.9902    315.53397    15577 
205000000   -2890.8691    3563.0562    12943.988   -1653.4548      8107.38    310.19643    15590 
206000000   -3004.6913    3615.0079    12981.427   -1636.8483    8256.5476    311.09363    15593 
207000000   -3105.8904    3555.3821     12906.64   -1549.6186    8210.8911    309.30141    15577 
208000000   -3003.9096    3699.5232    13034.387   -1471.7395    8175.1723    312.36278    15561 
209000000    -2964.169    3672.6481    12978.387   -1574.1955    8211.0126    311.02077    15586 
210000000   -2927.3242    3531.7967    12866.073   -1776.9452    8236.0661    308.32923    15589 
211000000   -3052.3239    3568.0426    12971.676   -1587.7292    8208.0956    310.85995    15580 
212000000   -2921.5096    3529.9636    12688.032   -1689.5493    8141.0225    304.06257    15599 
213000000   -2998.4251    3556.7434    12984.969   -1641.4563    8196.6248    311.17851    15585 
214000000   -2900.4413    3666.9347    12972.108   -1548.7606    8116.1366    310.87031    15579 
215000000   -2966.2226    3608.1565    12858.052   -1554.4649     8128.844    308.13702    15579 
216000000    -2856.311    3731.2536    12944.929   -1583.1001    8170.6647    310.21896    15579 
217000000   -2916.4387     3742.832    13027.305   -1609.6826    8268.9533    312.19307    15576 
218000000   -3004.5809    3566.8707    12949.126   -1578.0586    8149.5101    310.31956    15565 
219000000   -2963.5563    3782.4662     12932.85   -1434.8769    8180.8994     309.9295    15543 
220000000    -3010.307    3471.2698    12814.832   -1660.3089    8141.8858    307.10126    15586 
221000000   -2979.5435    3414.2807    12826.364   -1700.2846    8094.1087    307.37762    15580 
222000000   -3031.8499    3585.3942    12900.881   -1550.6141    8167.8581    309.16339    15584 
223000000   -2981.3707     3453.099    13054.904   -1655.8493     8090.319    312.85447    15584 
224000000   -2936.3388    3703.3778    13159.822   -1429.1549    8068.8714    315.36879    15544 
225000000   -3034.2835    3516.5028    13047.219   -1570.0002    8120.7866     312.6703    15573 
226000000   -2983.7286    3537.2987    12901.692   -1650.9294    8171.9567    309.18283    15559 
227000000    -3003.613    3619.4837    12822.271   -1609.6633    8232.7601    307.27954    15580 
228000000   -2896.6329    3646.7356    12926.103   -1501.5451    8044.9136    309.76781    15586 
229000000   -2952.5529    3603.4986    13011.001   -1605.3043    8161.3557    311.80236    15587 
230000000   -2979.5848    3538.1337    12803.954   -1614.9676    8132.6862    306.84058    15595 
231000000   -3056.4924    3528.4213    13164.618   -1560.9546    8145.8683    315.48372    15584 
232000000   -2973.9491    3549.6271     12909.48   -1581.2153    8104.7915    309.36945    15554 
233000000   -2942.8711     3562.194    12922.362   -1614.8201    8119.8852    309.67816    15596 
234000000   -2970.3559    3643.1375    12903.861   -1560.3199    8173.8133    309.23479    15554 
235000000   -3001.8107    3608.7053    12917.841   -1466.3304    8076.8464    309.56982    15560 
236000000    -2931.949    3728.5068    12878.533   -1573.7418    8234.1975    308.62783    15561 
237000000   -3026.5122    3378.4042    12929.846   -1669.3526     8074.269    309.85752    15585 
238000000   -2895.0207    3585.6694     12944.51    -1503.713    7984.4031    310.20894    15586 
239000000   -3027.4021    3641.7861    12931.086   -1493.4882    8162.6764    309.88724    15581 
240000000   -3026.9364    3423.0215     12932.24   -1613.9654    8063.9233     309.9149    15574 
241000000   -3055.9512    3502.4801    12837.599   -1625.6914    8184.1226    307.64686    15594 
242000000   -3043.5838    3646.4359    12884.063   -1553.8074    8243.8271    308.76034    15574 
243000000   -2976.7939    3671.4427    12869.452   -1509.6233    8157.8599    308.41021    15585 
244000000   -2937.8994    3607.8352    12938.083   -1535.4199    8081.1546    310.05492    15580 
245000000   -2897.0685     3572.683    12948.755   -1530.9013    8000.6527    310.31067    15548 
246000000   -3043.5667    3498.4595    12882.942    -1571.705    8113.7312    308.73348    15579 
247000000    -3052.449     3593.305    12801.628    -1512.172    8157.9259    306.78484    15553 
248000000   -3054.5821    3391.6847    12751.874   -1663.9374    8110.2042     305.5925    15579 
249000000   -3100.9664    3430.6127    13164.407    -1635.492    8167.0711    315.47866    15587 
250000000   -3019.9731    3533.0641     12872.71   -1567.4437    8120.4809    308.48828    15586 
251000000   -2956.8849    3693.0255     12944.73   -1510.5154    8160.4258     310.2142    15563 
252000000    -3011.442    3553.0164    12836.983   -1579.2931    8143.7516    307.63209    15599 
253000000   -2971.8789    3520.2368    12832.675   -1582.4191    8074.5349    307.52886    15589 
254000000   -3023.1574    3436.9189     12999.13   -1698.0346    8158.1109    311.51788    15599 
255000000   -3032.7116    3503.1021    12987.388   -1526.1422    8061.9559    311.23648    15585 
256000000   -2972.2604    3536.7498    12989.526   -1574.6573    8083.6675    311.28772    15565 
257000000   -3005.6913    3500.3552     13019.06   -1570.6931    8076.7396    311.99548    15573 
258000000   -3037.2447    3539.0869    12935.044   -1563.6119    8139.9435     309.9821    15565 
259000000   -2911.3707    3658.7489    12817.787   -1604.2135    8174.3332    307.17207    15591 
260000000   -2895.9808    3602.6366    12864.607   -1563.8116    8062.4289    308.29409    15575 
261000000    -2910.226    3763.6594    12971.759   -1478.7666     8152.652    310.86195    15576 
262000000   -2986.1074    3612.1268    12951.671   -1568.0483    8166.2825    310.38054    15589 
263000000   -2999.5097    3719.3554    12830.526   -1533.4332    8252.2983    307.47736    15581 
264000000   -3029.1428    3770.4753    13027.561   -1338.7858    8138.4039    312.19921    15569 
265000000   -2891.5118    3709.5475    12829.735   -1487.2212    8088.2805     307.4584    15572 
266000000   -2952.2211     3761.042    13038.053   -1536.6309     8249.894    312.45065    15567 
267000000   -2944.7526    3445.3837    12896.887   -1685.9534    8076.0897    309.06768    15585 
268000000   -2992.1129    3601.3028    12879.454   -1550.9285    8144.3443    308.64989    15586 
269000000   -2981.5718    3803.2143    13029.068   -1471.6884    8256.4745    312.23533    15568 
270000000   -2898.0936    3804.0648    12819.703   -1517.5187    8219.6772      307.218    15556 
271000000   -2973.2375    3688.7874    12962.494   -1580.8042    8242.8291     310.6399    15581 
272000000   -2973.2874    3483.2319    12919.449   -1624.6167     8081.136    309.60837    15589 
273000000   -3025.6605    3567.0401    12897.981   -1556.6842    8149.3849    309.09388    15572 
274000000   -2994.3459    3726.4616     12851.34   -1535.1856     8255.993    307.97615    15565 
275000000   -3100.1501    3550.8498    12798.252   -1484.7848    8135.7847    306.70394    15555 
276000000   -3011.0483    3523.6342    12905.041   -1574.5939    8109.2764    309.26309    15577 
277000000   -2974.9594    3695.2163    12774.802   -1535.4749    8205.6507    306.14195    15563 
278000000   -3036.5899    3522.7371    12945.519   -1527.3377    8086.6647    310.23311    15566 
279000000   -2914.6401    3613.4846    12840.352   -1569.3857    8097.5104    307.71283    15565 
280000000   -2893.1132    3698.4852    12952.313   -1640.0176     8231.616    310.39594    15569 
281000000   -2883.5834    3565.7921    12963.392   -1758.7269    8208.1024    310.66144    15616 
282000000   -2879.2506    3642.2051     12848.73   -1565.2378    8086.6935    307.91361    15580 
283000000   -2940.1216    3520.8512    12855.385   -1619.1765    8080.1493     308.0731    15563 
284000000   -2976.0943     3594.752    12996.805   -1583.8522    8154.6986    311.46216    15570 
285000000   -2956.0593     3700.125    12819.659   -1499.7112    8155.8955    307.21695    15565 
286000000   -2969.9795    3642.7215    12950.286   -1560.4714    8173.1724    310.34735    15579 
287000000   -2978.0546    3566.0265    12971.759   -1654.0086    8198.0896    310.86193    15576 
288000000   -3041.1759    3458.1585    13030.048   -1630.9057    8130.2402    312.25881    15566 
289000000   -3004.7447    3581.1183    12989.934   -1559.9794    8145.8424     311.2975    15580 
290000000   -2953.1624    3705.4354    12878.963   -1540.0929    8198.6907    308.63814    15560 
291000000    -3060.518     3519.069    13019.534   -1503.4849    8083.0719    312.00685    15565 
292000000   -3135.3137    3542.1011    12820.045   -1532.8766    8210.2914    307.22619    15581 
293000000   -2936.2523    3485.1303    12888.695   -1554.0226    7975.4053    308.87136    15582 
294000000   -2883.3564    3796.0416     13023.23   -1522.1369     8201.535    312.09542    15580 
295000000   -2902.5345     3728.268    12953.865   -1549.8501    8180.6525    310.43312    15586 
296000000   -2919.8335     3577.879    13065.312   -1638.0574    8135.7698    313.10389    15593 
297000000   -2953.7402    3605.4142      12993.7   -1636.4457    8195.6001    311.38776    15587 
298000000   -3021.6729    3579.1893    12888.633   -1592.5768     8193.439    308.86986    15565 
299000000   -2995.6594    3576.9417    12935.965   -1659.0927    8231.6938    310.00417    15593 
300000000    -2913.581    3689.2526    13037.743   -1602.6182    8205.4518    312.44321    15582 
301000000   -3020.4063    3461.9826    12937.737   -1586.0233    8068.4122    310.04662    15577 
302000000   -3030.3453    3565.8095    12861.281   -1501.7849    8097.9396    308.21438    15564 
303000000    -2964.472    3584.0629    12844.467   -1576.2551    8124.7899    307.81145    15585 
304000000   -2956.2015    3751.7166    13039.427   -1543.1715    8251.0896    312.48358    15579 
305000000   -3042.8215    3639.9199    12937.512   -1491.4851    8174.2265    310.04124    15593 
306000000   -2995.5597     3444.596    12959.532   -1642.1132     8082.269    310.56892    15575 
307000000   -2952.0773    3750.5434    13101.378   -1493.5879    8196.2086    313.96819    15577 
308000000   -2942.2284     3701.478    13078.921   -1538.7797    8182.4862    313.43003    15568 
309000000     -3019.67     3635.524    12873.282   -1523.5775    8178.7715    308.50198    15591 
310000000   -2952.9507    3471.3494    12942.855    -1604.247    8028.5471    310.16926    15590 
311000000   -3054.1134    3590.9587    13081.069   -1625.5535    8270.6256    313.48152    15591 
312000000   -3009.8456    3634.4304    12949.018   -1521.7087    8165.9847    310.31696    15580 
313000000   -3068.5152    3567.2481    13059.972   -1475.0308    8110.7941    312.97591    15582 
314000000   -3048.8859    3532.8069    13038.862   -1595.2839    8176.9767    312.47004    15581 
315000000   -3051.8924    3413.0883    12972.495   -1568.5595    8033.5402    310.87957    15577 
316000000   -3098.9626    3573.5113    12815.101   -1539.0562    8211.5301    307.10771    15584 
317000000   -2994.6401    3447.5086    13010.424   -1633.0996    8075.2484    311.78854    15568 
318000000   -2897.6082    3577.3776    12836.165    -1672.136    8147.1218    307.61249    15584 
319000000   -2948.7378    3637.0724    12866.745   -1564.6095    8150.4197    308.34534    15591 
320000000   -3014.0477    3583.5457    13125.499    -1544.867    8142.4604    314.54625    15581 
321000000    -2937.433    3365.7341     13002.51    -1779.896    8083.0631    311.59887    15590 
322000000   -3036.4761    3499.4979    12964.883   -1652.5374    8188.5114    310.69716    15570 
323000000   -2958.8497    3725.2356    12937.522   -1582.5079    8266.5932    310.04146    15572 
324000000   -2980.5752    3582.8286    12837.637   -1508.2772    8071.6811    307.64776    15570 
325000000   -2995.9121    3647.0078    12884.084    -1454.512    8097.4319    308.76085    15577 
326000000    -3091.345     3533.383    12822.486   -1593.0551    8217.7831    307.28469    15565 
327000000    -3055.363    3720.2195    12848.466   -1433.5208    8209.1032    307.90728    15556 
328000000   -2991.8997    3636.8075    13072.109   -1505.4831    8134.1904    313.26678    15567 
329000000   -3060.4926    3551.7867     12881.51   -1409.0558    8021.3351    308.69917    15558 
330000000   -3119.2975    3345.3365    12874.064   -1711.2945    8175.9285    308.52072    15587 
331000000   -3023.2652    3633.1158    12915.284   -1483.2383    8139.6192    309.50855    15579 
332000000   -2982.5492    3607.5433    12998.454   -1530.6942    8120.7868    311.50168    15571 
333000000   -3038.2447    3536.7019    13050.791   -1602.9306    8177.8772     312.7559    15575 
334000000   -2996.1066    3568.4455    12885.871   -1546.6481    8111.2003    308.80368    15577 
335000000   -3095.8893    3537.7716    12932.439   -1533.2795    8166.9405    309.91966    15590 
336000000    -2989.411    3411.5893    12849.786   -1683.0027    8084.0031    307.93893    15591 
337000000   -3064.6996    3675.5928    12988.596   -1461.9064    8202.1988    311.26542    15555 
338000000   -3015.7148    3499.5455    12978.351   -1559.5581    8074.8183    311.01992    15569 
339000000   -3015.0575    3418.0047    12971.847   -1599.4957     8032.558    310.86405    15578 
340000000   -2988.8828    3532.8741    13073.768   -1664.8657    8186.6226    313.30655    15592 
341000000   -2987.0316    3574.2717    12960.473    -1609.802    8171.1053    310.59147    15587 
342000000   -2950.0124    3524.3431    12839.228   -1629.3995     8103.755    307.68591    15586 
343000000    -2989.936    3595.8882     12919.63   -1591.7881    8177.6123    309.61269    15567 
344000000   -3030.4711      3504.19    12920.243   -1643.0225    8177.6836    309.62739    15573 
345000000    -2932.824    3723.4137    12831.455   -1452.4588    8108.6964    307.49963    15555 
346000000   -2901.7719    3823.9346    12928.481   -1502.6761    8228.3826    309.82481    15576 
347000000    -2943.827    3527.5102    12885.963    -1548.796    8020.1332    308.80588    15581 
348000000   -2946.4345    3558.7793    12990.753   -1601.9875    8107.2013    311.31712    15584 
349000000   -3043.7615    3599.7467    13066.403   -1525.5894    8169.0975    313.13004    15581 
350000000   -2957.1018    3597.3878    12926.573   -1507.0636    8061.5533    309.77908    15560 
351000000   -2957.1501    3657.5423     12839.24   -1578.0647    8192.7571    307.68618    15582 
352000000   -3024.0108     3573.062    12976.011    -1528.722    8125.7949    310.96383    15580 
353000000   -2995.0852    3509.3044    13026.336   -1574.6309    8079.0205    312.16985    15564 
354000000   -2944.3401    3561.5295    12870.701   -1579.6378    8085.5074    308.44013    15579 
355000000   -2996.2312    3534.0358    12953.234   -1676.8554    8207.1224      310.418    15583 
356000000   -2950.5966    3662.8259    12866.127   -1590.0202    8203.4427    308.33052    15574 
357000000   -2952.5113     3597.231    13000.147   -1559.9126    8109.6548    311.54225    15573 
358000000   -2996.6105     3531.398    12993.492   -1627.7547    8155.7632    311.38275    15579 
359000000   -3015.7942    3631.5133     12945.84   -1495.0256    8142.3331    310.24081    15575 
360000000   -3017.1363    3629.9944    12933.034   -1471.0132    8118.1438    309.93393    15569 
361000000    -2953.811    3765.6097    13031.474   -1462.2272     8181.648    312.29298    15549 
362000000   -3032.7232    3452.9346    12936.305   -1660.4936    8146.1514    310.01231    15585 
363000000   -3098.5537    3460.0015    12867.925   -1638.5141    8197.0693     308.3736    15589 
364000000   -3096.0855     3637.362     12926.18   -1450.7728    8184.2204    309.76967    15554 
365000000   -3015.6873    3451.4539    12845.093   -1554.5612    8021.7024    307.82645    15567 
366000000   -3095.6052    3277.1896     13022.39   -1671.5274    8044.3222    312.07529    15595 
367000000    -3039.235    3542.8336    13000.292    -1518.227    8100.2956    311.54571    15555 
368000000    -2936.546    3611.4022    12841.134   -1592.7813    8140.7295    307.73159    15584 
369000000   -2924.2422    3649.7718    13013.819    -1511.942     8085.956    311.86988    15577 
370000000   -3116.2835    3525.1112    12876.357    -1489.921    8131.3157    308.57568    15559 
371000000   -3058.7392    3560.0332    12911.703   -1523.3546     8142.127    309.42272    15559 
372000000   -3056.1959    3477.1739    12839.439   -1617.3281    8150.6978    307.69095    15576 
373000000   -3108.0625     3510.983    12961.435   -1596.2292    8215.2747    310.61453    15562 
374000000   -2996.0953    3651.7106    13007.152   -1517.4941       8165.3    311.71012    15581 
375000000   -3018.4379    3593.9854    12928.131   -1507.5819    8120.0052    309.81642    15575 
376000000   -3017.0642    3519.6635    12975.634   -1570.4384    8107.1661     310.9548    15574 
377000000   -2950.6371    3484.5464    12834.139   -1632.5327    8067.7162    307.56394    15598 
378000000   -3021.0679    3604.1583     13028.94   -1594.4453    8219.6715    312.23226    15579 
379000000   -3003.0896    3598.0051    12881.443   -1509.6829    8110.7776    308.69756    15588 
380000000   -2986.2333    3593.6389    12898.409   -1596.5104    8176.3827    309.10415    15587 
381000000   -3057.8607     3430.411    12812.621   -1601.6724    8089.9441    307.04827    15574 
382000000   -3088.9581     3588.592    12859.699   -1476.2015    8153.7516    308.17648    15558 
383000000   -3040.7069    3484.8632    12958.093   -1693.7244    8219.2945    310.53445    15601 
384000000   -3025.7307    3465.9874    12865.888   -1598.8604    8090.5785    308.32479    15566 
385000000   -3083.8377    3455.1441    12814.691   -1578.4749    8117.4567    307.09789    15562 
386000000   -3053.6624    3464.3564     12822.99    -1586.089    8104.1077    307.29677    15588 
387000000   -3077.0384    3536.4945    13131.825   -1556.3974    8169.9303    314.69784    15571 
388000000   -2994.1334    3476.5861    12842.705   -1649.2251    8119.9446    307.76923    15593 
389000000   -2969.0511     3679.482     13094.47   -1522.3682    8170.9012    313.80265    15574 
390000000   -2928.7051    3620.4279    12872.333   -1536.8916    8086.0246    308.47926    15585 
391000000   -2927.2708    3596.5477    12942.127   -1573.8118    8097.6304    310.15183    15576 
392000000   -3070.9295       3501.3    12928.808   -1574.9576     8147.187    309.83265    15582 
393000000   -2992.0262    3503.4997    13028.392   -1507.9669    8003.4928    312.21914    15556 
394000000   -2987.8442    3616.7747    13057.404   -1503.9539    8108.5728    312.91439    15555 
395000000   -3107.4065    3492.0614    12890.843   -1459.4827    8058.9506    308.92282    15552 
396000000    -3044.577    3515.6283    13000.563   -1496.0325    8056.2378    311.55222    15553 
397000000   -3031.8408    3507.7894    12951.399   -1675.0597    8214.6898    310.37403    15574 
398000000   -3005.9144    3583.8872    12955.328   -1511.9047    8101.7062    310.46817    15568 
399000000   -3110.2499    3626.9466    13091.811   -1401.7675    8138.9641    313.73894    15556 
400000000   -2968.1654    3583.0037     12790.72   -1581.0025    8132.1717    306.52342    15566 
Loop time of 164334 on 28 procs for 400000000 steps with 14000 atoms

Performance: 5257.599 ns/day, 0.005 hours/ns, 2434.073 timesteps/s
99.6% CPU use with 28 MPI tasks x no OpenMP threads

MPI task timing breakdown:
Section |  min time  |  avg time  |  max time  |%varavg| %total
---------------------------------------------------------------
Pair    | 15089      | 18935      | 22154      |1198.2 | 11.52
Bond    | 4722.3     | 6035.4     | 9511.9     |2018.9 |  3.67
Neigh   | 49842      | 50408      | 51332      | 179.3 | 30.67
Comm    | 41439      | 48843      | 55239      |1459.2 | 29.72
Output  | 0.72305    | 0.72407    | 0.72541    |   0.1 |  0.00
Modify  | 22786      | 23360      | 23741      | 136.3 | 14.21
Other   |            | 1.675e+04  |            |       | 10.19

Nlocal:    500 ave 544 max 463 min
Histogram: 2 4 3 5 4 0 4 2 2 2
Nghost:    722.786 ave 986 max 464 min
Histogram: 2 5 2 1 4 3 5 0 3 3
Neighs:    5391.79 ave 7009 max 3900 min
Histogram: 4 1 2 4 4 5 1 3 2 2

Total # of neighbors = 150970
Ave neighs/atom = 10.7836
Ave special neighs/atom = 8.14986
Neighbor list builds = 79928081
Dangerous builds = 0
System init for write_restart ...
Total wall time: 45:39:01
