LAMMPS (5 Jun 2019)
Reading restart file ...
  restart file = 5 Jun 2019, LAMMPS = 5 Jun 2019
  restoring atom style full from restart
  orthogonal box = (-420 -420 -420) to (420 420 420)
  2 by 2 by 7 MPI processor grid
  restoring pair style lj/cut from restart
  restoring bond style hybrid from restart
  restoring angle style cosine from restart
  14000 atoms
  15706 bonds
  13600 angles
Finding 1-2 1-3 1-4 neighbors ...
  special bond factors lj:   1          1          1         
  special bond factors coul: 0          0          0         
  3 = max # of 1-2 neighbors
  6 = max # of 1-3 neighbors
  17 = max # of 1-4 neighbors
  56 = max # of special neighbors
  special bonds CPU = 1.35616 secs
  read_restart CPU = 1.6983 secs
Finding 1-2 1-3 1-4 neighbors ...
  special bond factors lj:   0          1          1         
  special bond factors coul: 0          0          0         
  3 = max # of 1-2 neighbors
  6 = max # of 1-3 neighbors
  17 = max # of 1-4 neighbors
  40004 = # of 1-3 neighbors before angle trim
  27200 = # of 1-3 neighbors after angle trim
  56 = max # of special neighbors
  special bonds CPU = 0.00287474 secs
Unused restart file global fix info:
  fix style: colvars, fix ID: CV_Rg
Neighbor list info ...
  update every 1 steps, delay 1 steps, check yes
  max neighbors/atom: 2000, page size: 100000
  master list distance cutoff = 26.9
  ghost atom cutoff = 26.9
  binsize = 13.45, bins = 63 63 63
  1 neighbor lists, perpetual/occasional/extra = 1 0 0
  (1) pair lj/cut, perpetual
      attributes: half, newton on
      pair build: half/bin/newton
      stencil: half/bin/3d/newton
      bin: standard
Setting up Verlet run ...
  Unit style    : real
  Current step  : 250000000
  Time step     : 0.1
Per MPI rank memory allocation (min/avg/max) = 1.103 | 7.732 | 16.66 Mbytes
Step Temp E_pair E_mol TotEng Press 
250000000    309.62652   -6282.9505    6271.5709    12908.827   -3.2950561 
250010000    313.85938   -6166.6854    6563.9933    13494.145   -1.8319158 
Loop time of 5.14207 on 28 procs for 10000 steps with 14000 atoms

Performance: 16.803 ns/day, 1.428 hours/ns, 1944.744 timesteps/s
99.7% CPU use with 28 MPI tasks x no OpenMP threads

MPI task timing breakdown:
Section |  min time  |  avg time  |  max time  |%varavg| %total
---------------------------------------------------------------
Pair    | 0.00032395 | 0.77178    | 3.2551     | 115.5 | 15.01
Bond    | 0.00051972 | 0.11278    | 0.42827    |  42.2 |  2.19
Neigh   | 0.0052295  | 0.0055474  | 0.0062017  |   0.5 |  0.11
Comm    | 0.0013079  | 1.3433     | 3.2989     | 101.1 | 26.12
Output  | 8.1699e-05 | 0.00043543 | 0.00079809 |   0.0 |  0.01
Modify  | 0.00094451 | 0.24561    | 0.92166    |  62.3 |  4.78
Other   |            | 2.663      |            |       | 51.78

Nlocal:    500 ave 1939 max 0 min
Histogram: 16 0 0 3 1 3 1 2 1 1
Nghost:    545.964 ave 1732 max 0 min
Histogram: 16 0 0 0 0 5 3 0 1 3
Neighs:    10154.9 ave 42222 max 0 min
Histogram: 16 0 1 2 2 3 0 2 1 1

Total # of neighbors = 284337
Ave neighs/atom = 20.3098
Ave special neighs/atom = 7.92443
Neighbor list builds = 2
Dangerous builds = 0
4000 atoms in group rxnSites
Neighbor list info ...
  update every 1 steps, delay 1 steps, check yes
  max neighbors/atom: 2000, page size: 100000
  master list distance cutoff = 26.9
  ghost atom cutoff = 26.9
  binsize = 13.45, bins = 63 63 63
  2 neighbor lists, perpetual/occasional/extra = 1 1 0
  (1) pair lj/cut, perpetual
      attributes: half, newton on
      pair build: half/bin/newton
      stencil: half/bin/3d/newton
      bin: standard
  (2) fix bond/create/random, occasional, copy from (1)
      attributes: half, newton on
      pair build: copy
      stencil: none
      bin: none
Setting up Verlet run ...
  Unit style    : real
  Current step  : 0
  Time step     : 30
Per MPI rank memory allocation (min/avg/max) = 17.81 | 18.24 | 19.03 Mbytes
Step E_pair PotEng KinEng E_bond E_angle Temp Bonds 
       0   -6166.6854    397.30795    13096.837   -1965.5243    8529.5176    313.85938    15706 
 1000000   -4318.5825     2571.524    13059.332   -1429.3337    8319.4401    312.96059    15555 
 2000000   -3944.1713      2917.24    12871.047   -1373.0254    8234.4367    308.44842    15545 
 3000000   -3789.5626    3162.0117    13078.878   -1343.6924    8295.2667    313.42901    15523 
 4000000   -3616.0671     3287.392    12985.243   -1409.5619     8313.021    311.18508    15539 
 5000000   -3567.5173    3288.8616    12843.188   -1423.5059    8279.8848     307.7808    15535 
 6000000    -3513.133    3066.6821    13005.145   -1589.3351    8169.1502    311.66202    15552 
 7000000   -3400.4677    3372.7051    12817.966   -1522.0525    8295.2253    307.17637    15544 
 8000000   -3342.6881    3516.7655    12984.512   -1431.2834    8290.7369    311.16757    15523 
 9000000   -3240.8232    3547.7211    13003.706   -1459.8449    8248.3891    311.62754    15543 
10000000   -3253.8719    3670.3561    12998.154   -1444.6327    8368.8606    311.49449    15538 
11000000   -3197.2199    3714.3276    12977.553   -1404.2231    8315.7706     311.0008    15538 
12000000   -3178.5212    3527.8481    12893.741   -1525.2024    8231.5717    308.99228    15540 
13000000   -3182.5432    3589.0022    13015.984     -1484.94    8256.4854    311.92177    15531 
14000000   -3145.7484     3739.142    13082.907   -1462.6575    8347.5478    313.52554    15547 
15000000   -3161.4888    3727.6903     12877.19   -1459.4928    8348.6718    308.59565    15542 
16000000   -3122.0594    3568.8075    12949.984   -1510.1593    8201.0262    310.34011    15553 
17000000    -3099.252    3665.0052    13076.482   -1451.2882    8215.5453    313.37159    15548 
18000000   -3125.8748    3876.4862    12959.149   -1468.5609     8470.922    310.55976    15565 
19000000   -3108.4842    3630.9377    12910.072   -1569.5148    8308.9367    309.38364    15569 
20000000   -3141.3109    3655.5037    12827.125   -1519.8734    8316.6879    307.39585    15555 
21000000   -3039.5804    3518.8196    13070.376   -1568.6423    8127.0423    313.22526    15556 
22000000    -3125.574    3597.2928    12984.764   -1500.0893    8222.9562    311.17359    15546 
23000000    -3034.312    3606.9405    12930.025   -1534.0633    8175.3157    309.86181    15567 
24000000   -3049.3448    3740.6644    12943.105   -1493.3335    8283.3427    310.17526    15557 
25000000   -3040.2777    3617.2488    12892.591    -1534.725    8192.2515    308.96472    15554 
26000000   -3075.5945    3574.2058    12896.094    -1603.824    8253.6244    309.04866    15575 
27000000    -3021.788    3672.5565    12950.323    -1484.631    8178.9754    310.34823    15538 
28000000   -2985.3399    3839.9217    12789.324   -1480.5572    8305.8188    306.48997    15561 
29000000   -3038.6511    3607.8449    13016.993   -1561.1392    8207.6352    311.94595    15546 
30000000    -3022.057    3761.1155    13015.264    -1517.859    8301.0316    311.90451    15543 
31000000   -2991.3883    3737.6066    12902.233   -1485.1146    8214.1095    309.19578    15546 
32000000   -2888.8428    3774.4643     13096.92   -1492.8457    8156.1528    313.86137    15551 
33000000   -2956.7696    3848.7102    12779.161   -1528.1074    8333.5872    306.24643    15546 
34000000   -2914.9286    3782.7064    12914.806   -1507.6988    8205.3338    309.49708    15549 
35000000   -2905.6097     3849.275    13002.831   -1605.1915    8360.0762    311.60658    15558 
36000000   -2895.1544    3714.1661    13033.463   -1584.0533    8193.3737    312.34066    15554 
37000000   -2893.6895    3753.9728    12965.413   -1547.1982    8194.8605    310.70986    15552 
38000000   -2825.1506    3770.3971    12831.863   -1591.0525    8186.6002    307.50939    15564 
39000000   -2885.3448    3770.4522     12893.44   -1540.6344    8196.4314    308.98505    15563 
40000000   -2930.1502     3860.144    13015.452   -1524.9541    8315.2484    311.90902    15553 
41000000   -2893.4558    3859.6924    12869.378   -1557.7049    8310.8531    308.40844    15567 
42000000   -2833.4213    3806.5806    12772.378   -1542.2487    8182.2507    306.08388    15554 
43000000   -2881.4974    3925.6797    12799.761   -1451.9818    8259.1589    306.74008    15546 
44000000   -2851.0274    3787.0048    12918.702   -1559.7766    8197.8088    309.59046    15559 
45000000   -2867.7891    3788.8818    13017.344   -1506.4577    8163.1285    311.95436    15554 
46000000    -2880.571    3815.8709    12938.341   -1516.7651     8213.207     310.0611    15566 
47000000   -2915.2182    3860.6935    12981.515   -1467.2501    8243.1619    311.09575    15555 
48000000   -2943.8922    3698.6594    13002.767   -1647.0921    8289.6438    311.60503    15585 
49000000   -2919.4524    3855.9347    12955.026   -1444.7855    8220.1726    310.46094    15558 
50000000   -2867.8111    3725.8623    12875.867   -1626.6303    8220.3036    308.56395    15559 
51000000   -2878.2858    3651.7074    12897.303    -1597.872    8127.8653    309.07764    15568 
52000000   -2884.8902    3806.2272     12926.74   -1557.9174    8249.0349    309.78308    15565 
53000000   -2800.5046    3837.6102    13090.767    -1631.855    8269.9698    313.71392    15564 
54000000   -2873.3556    3878.1785      12939.9   -1542.4582    8293.9923    310.09845    15559 
55000000   -2830.0448    3964.8305    12893.447   -1427.9842    8222.8595    308.98524    15552 
56000000   -2856.2672      3930.31    12827.568   -1546.6995    8333.2767    307.40647    15567 
57000000   -2898.0076    3758.6178     12917.48   -1585.3257    8241.9511    309.56116    15557 
58000000   -2887.5301    3826.1295    12949.905   -1449.5106    8163.1702    310.33823    15558 
59000000   -2888.1551    3710.2894    13014.012   -1568.3922    8166.8368    311.87452    15561 
60000000   -2893.7482    4011.0416     12869.02   -1429.5218    8334.3116    308.39985    15558 
61000000    -2827.263     3750.015    12754.655   -1559.3024    8136.5803    305.65914    15556 
62000000   -2853.7566    3731.4774    12922.703   -1668.3037    8253.5377    309.68633    15580 
63000000   -2866.1252    3648.3077     13047.56   -1594.1087    8108.5415    312.67847    15590 
64000000   -2826.7832    3786.1078        12882   -1568.7854    8181.6764    308.71091    15568 
65000000   -2845.3985    3967.2425     12807.12   -1451.0992    8263.7402    306.91646    15560 
66000000    -2993.647    3744.8379    13083.762   -1546.5897    8285.0746    313.54604    15567 
67000000   -2919.5785    3675.5941    13169.819    -1583.366    8178.5386    315.60836    15560 
68000000   -2901.1554    3723.9662    12758.596   -1555.2773    8180.3989     305.7536    15555 
69000000   -2871.0598    3872.9964    12931.653   -1557.5485    8301.6047    309.90082    15570 
70000000   -2886.6662    3754.0514    12930.605   -1515.4622    8156.1798     309.8757    15556 
71000000   -2846.3551    3963.1285    13137.565   -1403.4398    8212.9235    314.83541    15566 
72000000   -2951.5804    3637.2347    12858.965   -1590.2691    8179.0842    308.15889    15560 
73000000   -2897.2259    3861.1333    13029.192   -1449.6137     8207.973     312.2383    15557 
74000000   -2924.4077    3993.3035    12920.369   -1425.9886    8343.6999    309.63041    15555 
75000000   -2957.0733    3678.7417    12990.875   -1529.0423    8164.8573    311.32005    15559 
76000000   -3012.5845    3633.2194    12910.484   -1604.4443    8250.2482    309.39352    15581 
77000000   -2989.5239    3887.0492    12916.121   -1470.6899     8347.263     309.5286    15573 
78000000   -2946.4321    3597.3468    12864.984   -1647.7192    8191.4981    308.30313    15583 
79000000   -2882.8543    3855.7285    12930.831   -1520.2892     8258.872    309.88113    15552 
80000000   -2851.0634    3794.5299    12883.521   -1556.6769    8202.2702    308.74737    15567 
81000000   -2884.8174    3802.4285    13066.716   -1488.7895    8176.0353    313.13753    15570 
82000000   -2918.9107     3520.363    12908.066   -1666.2083     8105.482    309.33557    15566 
83000000   -2931.2034    3615.5784    13036.575   -1592.7229    8139.5048    312.41523    15577 
84000000   -3016.0866    3662.2904    12928.938   -1554.9374    8233.3144    309.83577    15570 
85000000   -2894.7951    3782.1881    13041.756   -1517.8417    8194.8249    312.53939    15572 
86000000   -2961.8289    3744.7283    12845.048   -1561.3881    8267.9454    307.82536    15574 
87000000   -2940.1275    3725.1064    12962.958   -1507.4468    8172.6807    310.65102    15581 
88000000   -2876.9704    3878.1314    12842.198   -1509.1632     8264.265    307.75709    15575 
89000000   -2866.5941     4014.452    12883.968    -1430.777    8311.8231    308.75808    15551 
90000000    -2833.764    3889.9791    13069.225   -1539.1166    8262.8597    313.19767    15560 
91000000   -2855.2893    3648.3851     12907.49   -1618.5488    8122.2232    309.32176    15584 
92000000   -2743.0913    4101.4101    12918.176   -1499.5446    8344.0461    309.57786    15553 
93000000   -2838.8144    3846.9615    12950.035   -1486.6493    8172.4252    310.34135    15547 
94000000   -2820.1953    3798.1407    12939.309   -1537.2423    8155.5783    310.08429    15552 
95000000    -2815.094    3737.4965    12986.245   -1564.3659    8116.9564    311.20909    15572 
96000000   -2873.9202    3722.8793    12829.789   -1641.8715    8238.6709    307.45971    15575 
97000000    -2871.319    3756.8151    13002.639   -1534.5304    8162.6645    311.60198    15560 
98000000   -2804.0834    3943.2693    13021.773   -1478.9764    8226.3291    312.06051    15572 
99000000   -2912.2577    3878.4182    13052.985   -1501.3018    8291.9777    312.80848    15584 
100000000   -2903.3887    3682.8255    13040.866   -1582.4237    8168.6379    312.51805    15577 
101000000   -2907.7946    3841.9141    12943.307   -1601.2441    8350.9528    310.18011    15568 
102000000   -2921.6811    3653.8455    12890.503   -1657.8175    8233.3441    308.91467    15558 
103000000   -2866.0602    3736.8461    12991.778   -1586.4134    8189.3196    311.34168    15562 
104000000   -2834.2455    3694.6646    12832.283   -1620.8674    8149.7775    307.51946    15572 
105000000    -2888.937    3688.1961    12906.179   -1624.2382    8201.3713    309.29035    15571 
106000000   -2934.6624    3837.5239     12919.81   -1531.7018    8303.8881    309.61702    15566 
107000000   -2936.8526    3642.8768    12920.988   -1610.8107    8190.5401    309.64523    15579 
108000000   -2992.6325    3671.9425    12814.317   -1533.1075    8197.6825    307.08892    15577 
109000000   -3012.1649    3740.0016    12888.521   -1521.4778    8273.6443    308.86719    15578 
110000000   -2925.9638    3565.0231    12995.564   -1611.2672    8102.2541    311.43243    15572 
111000000   -2953.6411    3772.3251    12989.137   -1507.9411    8233.9073    311.27839    15572 
112000000   -2970.3331    3548.4472    12960.767    -1676.816    8195.5962    310.59853    15594 
113000000   -2942.7808    3656.4985    12918.884   -1529.4231    8128.7024    309.59482    15577 
114000000   -2980.8578    3446.5071    12921.905   -1659.4244    8086.7893    309.66722    15581 
115000000   -2974.3248    3411.0804    12939.678   -1725.5431    8110.9484    310.09314    15587 
116000000   -2925.0789     3607.076    13045.838   -1619.0439    8151.1989     312.6372    15582 
117000000   -2935.1959    3557.8142    13112.012   -1589.8707    8082.8808    314.22305    15589 
118000000   -2912.7111    3689.2491    12946.146   -1572.9275    8174.8877    310.24814    15570 
119000000   -3036.8964     3666.894    12970.974   -1506.2532    8210.0436    310.84312    15571 
120000000   -3003.8986     3564.895    12977.144   -1645.8985    8214.6921      310.991    15594 
121000000   -2960.0593    3697.9626    12970.635   -1508.8063    8166.8283      310.835    15583 
122000000   -2892.3516     3732.238    13099.893   -1552.6473    8177.2369    313.93261    15574 
123000000   -2921.3705    3708.4877    13119.645    -1582.171    8212.0292    314.40595    15593 
124000000   -2976.9178    3768.3312    12842.531   -1509.6251    8254.8742    307.76506    15579 
125000000   -2932.4559     3748.401    13002.759   -1522.0927    8202.9496    311.60483    15564 
126000000   -2965.8583    3443.0159    12908.324   -1633.5467    8042.4208    309.34174    15572 
127000000   -2979.6386    3766.5522    13052.924   -1528.0331    8274.2239    312.80703    15572 
128000000   -3009.8262    3500.7094    12842.099   -1616.2624    8126.7981    307.75471    15572 
129000000   -2965.0762    3476.0709    12931.446   -1639.2641    8080.4112    309.89587    15594 
130000000   -2957.7705    3565.2998    13032.882   -1698.3712    8221.4414    312.32673    15583 
131000000   -2978.5326    3769.9043    12886.267   -1507.2616    8255.6985    308.81318    15579 
132000000   -2956.3961    3505.1647     12896.06   -1767.1323    8228.6931    309.04786    15583 
133000000   -2939.6538    3675.9361    12800.319   -1491.8076    8107.3975    306.75345    15574 
134000000    -2955.744     3685.195    12893.105   -1528.5673    8169.5063    308.97704    15570 
135000000    -2991.102    3570.4134    13025.745   -1681.2398    8242.7553     312.1557    15573 
136000000   -3024.6953     3544.444    12831.992   -1531.2151    8100.3544     307.5125    15574 
137000000   -2979.4425    3687.3272    12903.409   -1525.7604      8192.53    309.22396    15566 
138000000   -2939.0926    3667.3113    13058.253   -1530.8099    8137.2138    312.93472    15563 
139000000   -2956.4297    3715.4097    12861.277   -1502.6178    8174.4572     308.2143    15582 
140000000   -3006.2433    3531.1014    12867.454   -1617.7609    8155.1056    308.36233    15575 
141000000   -2979.4446    3618.7726    13002.113   -1557.7631    8155.9802    311.58936    15570 
142000000   -2914.2812    3643.9736    12949.331   -1624.9728    8183.2275    310.32447    15600 
143000000    -2920.587    3486.1075    13025.192   -1676.1132    8082.8076    312.14243    15594 
144000000   -2980.0008    3508.6223    12867.304    -1647.198    8135.8211    308.35873    15572 
145000000   -2958.2752    3570.0356    13148.532    -1705.623    8233.9338    315.09823    15584 
146000000   -3051.4396    3641.7598     12974.08   -1594.5182    8287.7175    310.91757    15593 
147000000   -2967.3841     3543.186    12915.899   -1646.4908    8157.0609    309.52328    15582 
148000000   -2891.5661    3654.3594    12856.215   -1587.9719    8133.8974    308.09299    15578 
149000000   -2948.3262    3687.1491    13112.825   -1506.8205    8142.2958    314.24252    15588 
150000000   -2927.5777    3447.4894    13038.579   -1672.2317    8047.2988    312.46325    15588 
151000000   -2956.6757    3517.7664    12962.567   -1756.2029    8230.6449    310.64165    15582 
152000000   -2963.8091    3656.5308    12850.013   -1616.3242    8236.6641    307.94436    15591 
153000000   -2901.1374    3428.5612    12798.873   -1806.9895     8136.688    306.71882    15596 
154000000    -2862.665    3750.3808    12975.603    -1502.009    8115.0548    310.95406    15578 
155000000   -2907.9787    3696.0884    12843.548   -1611.8467    8215.9139    307.78943    15583 
156000000   -2936.8285     3752.023    12960.063   -1550.7526    8239.6041    310.58165    15577 
157000000    -2872.056    3774.7134    12856.484   -1485.6669    8132.4363    308.09944    15555 
158000000   -2851.1103    3862.3357    12928.827   -1509.2024    8222.6483     309.8331    15565 
159000000   -2830.5862     3917.319    12934.121   -1524.5293    8272.4345    309.95995    15545 
160000000   -2914.6912     3734.439    12806.843   -1541.6998      8190.83    306.90982    15565 
161000000   -2883.4378    3648.1962    12865.615   -1627.1596    8158.7936    308.31825    15577 
162000000   -2890.5588    3632.6382    13031.504   -1661.3405    8184.5375    312.29371    15592 
163000000   -2908.4861    3851.0899    12814.935   -1495.1422    8254.7182    307.10374    15572 
164000000   -2882.9192    3578.4058    13028.538   -1612.8211    8074.1461    312.22262    15587 
165000000   -2848.1681    3733.9065    12911.387   -1522.3526    8104.4272    309.41515    15561 
166000000   -2887.3985    3761.3206    13000.729   -1534.3277    8183.0467     311.5562    15564 
167000000     -2924.31    3645.4022    12998.291   -1598.7943    8168.5064    311.49776    15581 
168000000   -2900.6906    3632.2362    13082.139   -1634.0679    8166.9946    313.50713    15563 
169000000     -2938.76    3681.5572    12953.162   -1575.0178     8195.335    310.41628    15570 
170000000   -2912.7114    3577.9548    12857.849   -1582.4493    8073.1155    308.13214    15562 
171000000   -2985.0392    3561.3203    12956.759   -1599.7482    8146.1077    310.50247    15558 
172000000   -3033.3641    3551.9946    13018.737   -1621.0176    8206.3763    311.98775    15604 
173000000    -3067.285    3622.1088     12963.78    -1602.905    8292.2988    310.67073    15591 
174000000   -3084.7016    3268.9989    12960.895    -1789.131    8142.8315    310.60158    15598 
175000000   -3065.0986    3630.4237    12926.456   -1534.3431    8229.8654    309.77627    15566 
176000000   -3070.5638    3414.0465    13099.188   -1712.7358    8197.3461    313.91571    15589 
177000000   -3068.9844    3415.2429    12990.007   -1619.3249    8103.5522    311.29926    15565 
178000000   -3092.7159    3411.4338    12986.709   -1640.8333     8144.983    311.22022    15566 
179000000   -3132.1669     3461.891    12806.574   -1572.1501     8166.208    306.90336    15581 
180000000   -3063.5083    3545.0636    12919.564   -1570.4335    8179.0054    309.61111    15565 
181000000   -3091.9534     3559.821    12988.704   -1547.9281    8199.7025    311.26801    15582 
182000000   -3037.9164    3600.9002    13155.733   -1540.6086    8179.4252    315.27079    15571 
183000000   -3023.6612    3618.3961    12888.483   -1653.4493    8295.5066    308.86627    15585 
184000000   -2976.7002    3677.9358    13066.292   -1593.6907    8248.3267    313.12738    15573 
185000000   -2993.0301    3557.0648    12900.304   -1590.6205    8140.7154    309.14956    15558 
186000000   -2972.5998    3672.8176      12933.7   -1520.1367    8165.5541    309.94987    15559 
187000000   -2965.9024    3643.2169    12827.322    -1592.991    8202.1102    307.40057    15569 
188000000   -2954.8662    3471.4754    12946.183   -1717.7852    8144.1268    310.24903    15577 
189000000   -2965.5303    3582.8532    13077.234   -1631.6189    8180.0024     313.3896    15578 
190000000   -2929.9725     3670.129    12952.641   -1596.8559    8196.9574    310.40379    15573 
191000000   -2957.2868    3607.6057    12979.309   -1577.0566    8141.9491    311.04287    15575 
192000000   -2953.9021    3578.4902    12931.193   -1678.8095    8211.2018    309.88981    15586 
193000000   -3047.9552    3651.6773    12876.601   -1493.6799    8193.3124    308.58153    15569 
194000000   -3004.9056    3546.0404    13051.327   -1625.7254    8176.6714    312.76876    15573 
195000000   -2981.1824    3508.6105    12979.123     -1672.26    8162.0529    311.03842    15576 
196000000   -2961.0572    3608.9866    12954.194   -1669.0152     8239.059    310.44102    15585 
197000000   -3029.8005     3472.685    12953.798   -1695.8929    8198.3784    310.43151    15590 
198000000   -3021.3986    3657.1527    13077.926    -1551.775    8230.3263    313.40618    15579 
199000000   -3060.6601    3539.0416    13064.092   -1684.8513     8284.553    313.07465    15577 
200000000   -2979.7917    3762.8116    12957.171   -1552.8626    8295.4659    310.51235    15561 
201000000   -2955.9125    3545.5297    12728.638   -1592.2527    8093.6949    305.03566    15571 
202000000   -2891.1143    3691.4255    12824.668   -1579.7958    8162.3356    307.33699    15575 
203000000    -2870.948    3823.5934    12970.279   -1615.9663    8310.5077    310.82648    15571 
204000000   -2902.5864    3760.0686     12952.96   -1485.1039    8147.7589    310.41144    15563 
205000000   -2867.7821    3596.7325    12844.775    -1656.971    8121.4857    307.81882    15580 
206000000   -2976.5371    3600.7805    12984.432   -1587.8351    8165.1527    311.16564    15565 
207000000   -2918.5431    3595.1679    12779.887   -1678.1965    8191.9075    306.26381    15576 
208000000   -2949.8265    3569.8468    13143.771   -1748.8986    8268.5719    314.98412    15588 
209000000   -2872.3388    3651.6246    12800.018   -1658.2495    8182.2129    306.74626    15566 
210000000   -2923.6229    3586.5125     12956.61   -1537.6664    8047.8018    310.49891    15564 
211000000   -2878.4297    3678.4322    13004.472   -1597.1669    8154.0288    311.64589    15577 
212000000   -2944.8131    3598.2297    12884.993   -1645.2054    8188.2482    308.78264    15563 
213000000    -2965.425    3741.4609    12954.046    -1506.844    8213.7299    310.43746    15564 
214000000   -2993.6412    3643.3432    12921.577   -1569.0683    8206.0527    309.65935    15554 
215000000   -2952.0224    3513.3118    13086.881   -1665.4344    8130.7686    313.62079    15576 
216000000   -3032.0416    3450.0238    13020.995   -1629.4253    8111.4907    312.04185    15578 
217000000   -2960.4413    3670.3986    13014.041   -1581.4728    8212.3127     311.8752    15569 
218000000   -3007.8623    3529.6525    12978.672   -1601.9399    8139.4546    311.02762    15555 
219000000   -3003.0944    3579.0003    12922.003   -1588.2607    8170.3555    309.66956    15556 
220000000   -2967.0888    3624.0317    12932.854   -1573.6064    8164.7268    309.92961    15566 
221000000   -3004.4077    3567.0683    13002.469   -1588.5568    8160.0327    311.59788    15568 
222000000   -2948.7077    3591.3357    12860.304   -1612.9305     8152.974    308.19099    15581 
223000000   -2937.0412      3870.13    13013.194   -1438.0224    8245.1937    311.85492    15551 
224000000   -3002.8758    3625.6637    12835.685   -1515.9331    8144.4726    307.60099    15582 
225000000   -2981.2434    3672.7627    12922.834   -1530.4503    8184.4565    309.68948    15564 
226000000   -3019.8422    3702.5982    13000.585   -1567.3463    8289.7868    311.55275    15570 
227000000   -3089.9836    3478.1969    12820.236   -1587.8202    8156.0008    307.23077    15589 
228000000   -3011.0449     3648.952    12913.771   -1559.3592    8219.3561    309.47228    15568 
229000000   -2994.9389    3469.1199    13003.745   -1556.7769    8020.8357    311.62847    15570 
230000000   -2971.9233    3709.9613    12920.003   -1579.1964     8261.081    309.62164    15566 
231000000   -2916.3495     3864.617    12969.729   -1420.0361    8201.0025    310.81331    15547 
232000000   -2954.0918     3609.563    12830.365   -1716.6622     8280.317    307.47349    15583 
233000000   -2917.5485    3710.6009    12952.838   -1594.8016     8222.951    310.40852    15566 
234000000   -2977.6584    3609.5199    12994.248   -1530.5864    8117.7647    311.40089    15573 
235000000   -2951.7509     3604.722    12802.071   -1490.0142    8046.4871    306.79544    15568 
236000000   -2981.6162    3654.8109    12991.613   -1617.7178     8254.145    311.33774    15573 
237000000   -2948.6859    3713.6812    13136.022   -1532.5494    8194.9165    314.79844    15579 
238000000   -2913.9211     3793.308    13139.978   -1551.8347    8259.0638    314.89322    15589 
239000000   -2985.8386    3542.9213    12858.576   -1528.1604    8056.9204    308.14956    15584 
240000000   -3035.2878    3534.1641    12882.567   -1556.5545    8126.0064    308.72451    15566 
241000000   -2936.2574    3794.0711    12980.578    -1568.317    8298.6455    311.07329    15587 
242000000   -2961.1433    3771.8843    12898.035   -1497.1718    8230.1994    309.09518    15572 
243000000   -3008.1606    3484.1826     12946.03   -1683.8752    8176.2183    310.24536    15573 
244000000   -2929.0825    3596.4526    13053.596   -1580.6786    8106.2137    312.82312    15561 
245000000   -2931.1925    3443.4306    12996.883   -1696.2897    8070.9129    311.46404    15586 
246000000   -2970.2482    3696.8661    12839.317   -1582.3067     8249.421    307.68803    15567 
247000000   -2994.7409    3651.4223    12903.758   -1565.2498    8211.4129    309.23233    15580 
248000000   -2822.9036    3740.5216    12844.166   -1519.4413    8082.8665    307.80423    15581 
249000000   -2916.3606    3710.5527    12841.488   -1495.9292    8122.8424    307.74006    15563 
250000000   -2947.6151    3763.7595    12997.481   -1498.1933    8209.5679    311.47835    15558 
251000000   -2870.0724    3781.4281    12847.158   -1461.2315     8112.732    307.87594    15562 
252000000   -2908.6912    3604.7553    12934.831   -1603.2861    8116.7326    309.97697    15569 
253000000    -2966.666    3702.4193    12923.234   -1538.5155    8207.6008    309.69906    15573 
254000000   -2920.4011    3780.9472    12880.364   -1491.1735    8192.5219    308.67171    15551 
255000000   -2926.9071    3799.2516    12991.825   -1490.7909    8216.9497    311.34282    15575 
256000000   -2970.6727    3714.4272    12967.662   -1580.1166    8265.2164    310.76376    15573 
257000000    -2889.183    3708.2104    12832.979   -1516.4814    8113.8748    307.53615    15575 
258000000   -2943.8008    3726.2763    13026.044   -1607.2478    8277.3249    312.16285    15583 
259000000   -2882.5899    3616.5574    13121.702   -1680.0514    8179.1987    314.45526    15572 
260000000   -2888.6463    3661.0272    12870.585   -1552.9263    8102.5997    308.43735    15573 
261000000   -2924.8725    3615.2926     12926.66   -1686.7073    8226.8724    309.78117    15581 
262000000   -2933.5386    3581.3177    13151.363   -1614.6995    8129.5559    315.16606    15588 
263000000   -2936.8896    3787.3831     12854.45   -1558.9398    8283.2125    308.05069    15573 
264000000   -2915.6084     3766.244    12919.477   -1517.5997    8199.4522    309.60904    15564 
265000000   -2953.8093    3551.7853    12954.396   -1575.2697    8080.8643    310.44585    15550 
266000000   -2942.0274    3728.7637    12894.624   -1545.1122    8215.9033    309.01345    15558 
267000000   -2939.6227    3655.6453    12936.314   -1528.0036    8123.2715    310.01252    15568 
268000000   -2899.7916     3604.535    12888.716   -1561.7321    8066.0588    308.87186    15574 
269000000   -2935.7209    3649.1091    12884.702   -1598.0463    8182.8763    308.77567    15575 
270000000   -2912.7999    3798.3875    12868.642    -1531.674    8242.8614    308.39078    15559 
271000000   -3032.2926      3606.71     12799.49   -1528.4108    8167.4133    306.73361    15564 
272000000   -2935.5531    3808.0139    12831.231   -1487.1312    8230.6981    307.49425    15566 
273000000   -3002.4589    3493.8516    12913.057   -1653.6744    8149.9849    309.45518    15579 
274000000   -2920.8006    3637.6589    12980.757   -1562.2662    8120.7256    311.07758    15575 
275000000   -2974.2056    3642.1126    12939.669    -1580.132    8196.4502    310.09291    15573 
276000000   -2916.8699    3675.0062    12995.893   -1593.8859    8185.7619    311.44029    15583 
277000000   -2965.0268    3680.2801    12891.987   -1600.3092    8245.6161    308.95024    15573 
278000000   -2981.7523    3647.9452    12856.981   -1546.5142    8176.2118    308.11134    15572 
279000000   -2999.2131    3672.3603    13024.121    -1574.712    8246.2854    312.11677    15566 
280000000   -3031.9678    3637.0484    12964.215   -1510.1126    8179.1288    310.68116    15569 
281000000   -2996.1398    3567.3456    12943.946   -1573.6478    8137.1332    310.19541    15571 
282000000   -2879.9771    3567.3148    12924.965   -1589.0124    8036.3042    309.74056    15580 
283000000   -2918.0389    3756.2924    12967.843   -1490.8111    8165.1424    310.76809    15564 
284000000   -2912.4031    3650.1135    13002.386   -1552.1238    8114.6404    311.59591    15568 
285000000   -2880.2433      3731.07     12924.42   -1573.8388    8185.1522    309.72749    15592 
286000000   -2909.6493    3484.1024    12841.917   -1694.8937    8088.6454    307.75035    15579 
287000000   -2952.1859    3590.2241    13022.179   -1519.2224    8061.6323    312.07023    15581 
288000000   -2908.2477    3601.8399    12848.473   -1648.3736    8158.4612    307.90746    15581 
289000000   -2902.1624    3599.5478    13014.289   -1588.3943    8090.1045    311.88116    15569 
290000000   -2894.8867    3698.1225    13084.558   -1525.7821    8118.7913    313.56512    15579 
291000000   -2924.4146    3684.1315    12882.952   -1562.6733    8171.2194    308.73372    15579 
292000000   -2857.1288    3784.0878    13042.878   -1535.7975     8177.014    312.56627    15566 
293000000   -2910.8396    3650.6044    12982.387   -1606.9129    8168.3569    311.11663    15574 
294000000    -2902.253    3647.4815    12951.656   -1629.6225     8179.357    310.38018    15583 
295000000   -2913.1748    3619.3487    12894.013   -1550.5229    8083.0465    308.99879    15561 
296000000   -2933.2096    3619.2368    12948.947   -1555.6332    8108.0796    310.31527    15581 
297000000    -2924.235    3709.4519    12961.817   -1559.5824    8193.2693    310.62368    15586 
298000000   -2997.4294    3687.8452    12914.484   -1536.6187    8221.8932    309.48938    15557 
299000000   -2906.5293     3512.223    12950.632   -1555.1437     7973.896    310.35563    15558 
300000000   -3021.3832    3516.4303    12797.307   -1626.5822    8164.3958    306.68128    15578 
301000000      -2962.1    3543.0062    12931.219   -1605.8173    8110.9235    309.89042    15561 
302000000   -2965.4868    3808.1698    12930.826   -1488.2491    8261.9056      309.881    15549 
303000000   -2978.7022    3852.1549    12842.311   -1469.3536    8300.2108    307.75979    15556 
304000000   -2984.4282     3688.925    12994.303    -1566.177    8239.5302    311.40219    15569 
305000000   -2964.3824    3607.3639    12988.399   -1592.2634    8164.0096    311.26072    15568 
306000000   -2870.9262    3848.7847    12931.461   -1528.9311    8248.6419    309.89622    15557 
307000000   -2915.9684    3650.6469    12947.071   -1594.8785    8161.4938    310.27032    15574 
308000000   -2915.7942    3620.7807    12970.074   -1666.7876    8203.3626    310.82155    15579 
309000000   -2985.0229    3671.6336    12796.917   -1628.3459    8285.0024    306.67193    15577 
310000000   -2968.2053      3591.25    13034.036   -1630.7064    8190.1617    312.35438    15559 
311000000   -3038.2092    3521.0354    12838.082   -1560.7625    8120.0072    307.65844    15561 
312000000   -2968.9671    3468.7629    13081.166   -1564.7178    8002.4478    313.48382    15579 
313000000   -2975.9982    3646.3215    12887.389   -1498.3756    8120.6954    308.84005    15562 
314000000   -3004.8416    3487.3748    12833.289   -1626.5145    8118.7309    307.54358    15582 
315000000   -2989.5822    3620.7272    12805.306   -1611.5497    8221.8591    306.87299    15580 
316000000   -3067.6277    3460.3818    12762.088   -1585.9947    8114.0043    305.83729    15561 
317000000   -3013.6729    3732.2913    12885.374   -1496.1513    8242.1154    308.79177    15560 
318000000   -2964.3213    3600.6726    12991.241   -1608.3117    8173.3056    311.32882    15576 
319000000    -2983.984    3776.3054    12922.807   -1488.1801    8248.4695    309.68883    15550 
320000000   -2975.2468    3498.9261     12816.22   -1665.0782    8139.2511    307.13453    15578 
321000000   -2985.2966    3588.6449    12978.868    -1547.455    8121.3965    311.03229    15573 
322000000   -3013.0095    3502.3454    12921.218   -1649.1379    8164.4929    309.65076    15585 
323000000   -3056.6178    3411.7314    12816.576   -1728.9929     8197.342    307.14305    15585 
324000000   -3001.7306    3572.8392    12992.565   -1637.0425    8211.6123    311.36056    15576 
325000000   -3022.0494    3669.8528    13012.045   -1557.7502    8249.6524    311.82738    15584 
326000000   -3069.3009    3481.7757    12951.772   -1661.5434      8212.62    310.38296    15583 
327000000   -3006.4266    3511.4057    12913.666   -1602.8038    8120.6362    309.46978    15581 
328000000   -2955.3573    3716.1084    13011.129   -1596.0195    8267.4852    311.80541    15585 
329000000    -2945.915    3671.8418    12881.836   -1569.8761    8187.6329    308.70699    15564 
330000000   -2982.3262     3758.932    12816.547   -1501.6519    8242.9101    307.14237    15558 
331000000   -2985.2189    3479.9415    12816.941   -1668.2189    8133.3793    307.15181    15583 
332000000   -2960.1214    3675.6959    12867.142   -1536.5251    8172.3424    308.35485    15575 
333000000    -2943.946    3667.2031    12964.973   -1589.8433    8200.9924    310.69932    15590 
334000000    -3003.253    3609.3316    12914.181   -1589.8171    8202.4017    309.48211    15584 
335000000   -2953.7037    3815.8616    12929.656   -1446.0488     8215.614    309.85297    15583 
336000000   -2988.6388    3791.8219    12788.286   -1461.4151    8241.8758    306.46509    15571 
337000000   -3040.7702    3736.5261    12969.661    -1551.299    8328.5952    310.81167    15562 
338000000   -3018.0218    3674.4514    13046.209   -1566.8233    8259.2965    312.64611    15584 
339000000   -3007.7742    3581.3452    12954.609   -1566.7214    8155.8408    310.45096    15563 
340000000   -3015.7169    3633.0915    12799.109   -1532.8228    8181.6312    306.72446    15571 
341000000    -3022.481    3633.7866    12931.103   -1564.0774     8220.345    309.88765    15570 
342000000    -2951.388    3631.1809    12934.909   -1508.2587    8090.8277    309.97884    15573 
343000000   -3030.2639    3440.6229    12892.215   -1624.9751     8095.862     308.9557    15603 
344000000   -2976.7981    3590.7767    12972.025   -1566.8566    8134.4314    310.86832    15581 
345000000    -3014.161    3590.8858    13061.978    -1603.724    8208.7709    313.02401    15576 
346000000    -3020.603    3642.4303    12900.102    -1555.267    8218.3003    309.14472    15586 
347000000   -2995.8355    3564.0121    12949.576   -1641.2191    8201.0667    310.33034    15595 
348000000   -2984.0233    3686.3029    12990.571   -1546.9687     8217.295    311.31277    15579 
349000000   -2952.9124     3506.253    12996.312   -1629.4482    8088.6136    311.45033    15594 
350000000   -2946.7191    3593.0934    12902.552   -1631.2704    8171.0829    309.20343    15565 
351000000   -2947.8928    3532.6897    12984.542   -1614.4374    8095.0199    311.16828    15574 
352000000   -3013.6296    3557.5929    12976.038   -1610.3261    8181.5485    310.96449    15564 
353000000   -3047.4465    3441.9162    12896.253   -1614.6233     8103.986    309.05247    15564 
354000000   -3076.0431    3447.0028    12932.571    -1596.581     8119.627    309.92283    15567 
355000000   -3084.8037    3435.4855    12932.533   -1632.8064    8153.0956    309.92191    15574 
356000000   -3053.7271    3593.3287    12921.029   -1585.1548    8232.2106    309.64623    15563 
357000000   -2996.4254     3717.206    12876.572   -1484.0933    8197.7247    308.58082    15570 
358000000   -3073.1293    3591.0081     12951.55   -1539.1395    8203.2769    310.37765    15552 
359000000   -3061.0727    3355.3268    12754.775   -1559.0471    7975.4466    305.66203    15551 
360000000   -3024.4352    3511.3411    12910.637   -1641.6944    8177.4707    309.39718    15564 
361000000   -2967.0194    3611.2288    12838.352   -1580.7907    8159.0389    307.66492    15564 
362000000    -3046.699    3437.6101    12895.853   -1555.6671    8039.9762    309.04289    15569 
363000000   -2989.9904     3701.429    12973.858   -1475.9553    8167.3748    310.91225    15547 
364000000   -2964.3884    3710.3152    13032.325   -1504.5176    8179.2212    312.31337    15557 
365000000   -2990.3054    3427.9508    13145.194   -1557.7636    7976.0198    315.01822    15566 
366000000   -2994.4667    3861.1246    12818.256    -1473.474    8329.0653    307.18332    15570 
367000000   -2955.9163    3663.6695    12910.795   -1475.9295    8095.5153    309.40098    15562 
368000000    -2957.813    3438.9352    12866.693   -1673.1461    8069.8943    308.34409    15609 
369000000    -3059.951    3371.4029    13110.139   -1649.9848    8081.3387    314.17815    15575 
370000000   -3006.8605    3493.4176    12967.431   -1614.1361    8114.4141    310.75822    15585 
371000000   -2947.4142    3667.4289    13010.689   -1540.4435    8155.2866    311.79489    15555 
372000000   -2918.7146    3608.5121    12834.571   -1596.5761    8123.8028    307.57431    15574 
373000000   -2922.0059    3647.9933    12911.939   -1483.6078     8053.607    309.42839    15557 
374000000    -2918.267    3587.9565    13183.784   -1589.3001    8095.5236    315.94302    15574 
375000000   -2911.8377    3673.2998    12894.277   -1552.3717    8137.5092    309.00513    15570 
376000000   -2966.4284    3566.4605    12877.189   -1583.5092     8116.398    308.59562    15579 
377000000   -2987.9963    3645.9514    12823.323   -1550.1557    8184.1034    307.30474    15564 
378000000   -3017.0061    3562.1009    13085.792    -1638.765    8217.8719    313.59469    15574 
379000000   -2916.9179    3546.7001    12799.166   -1592.1363    8055.7543    306.72584    15557 
380000000   -2998.2954    3546.4075    13095.666   -1615.7716    8160.4745    313.83131    15575 
381000000   -2993.9479    3327.9125    12971.406    -1668.102    7989.9624    310.85349    15571 
382000000   -2976.6731    3535.5226    12761.854   -1547.2996    8059.4953    305.83168    15557 
383000000   -2988.0813    3569.4191    12914.403   -1536.8328    8094.3332    309.48742    15563 
384000000    -2956.933    3709.8781    12960.889   -1408.7574    8075.5686    310.60144    15550 
385000000   -2989.5474    3596.4461    12941.111   -1606.2025    8192.1961    310.12748    15580 
386000000   -2996.2057    3697.0362    12840.443   -1585.4862    8278.7281    307.71503    15570 
387000000   -2936.1145    3586.9543    12833.758   -1552.3295    8075.3983    307.55481    15569 
388000000   -3066.7187    3617.6148    12909.754   -1584.8067    8269.1402    309.37601    15581 
389000000   -2975.9352    3662.0497    12880.645   -1588.6362     8226.621    308.67844    15567 
390000000   -3013.2431    3461.1529    12857.547   -1656.5919     8130.988    308.12491    15582 
391000000   -3048.2351    3575.4218    12923.218   -1595.8754    8219.5323    309.69868    15572 
392000000   -2971.3636    3675.8813    12902.008    -1511.071    8158.3159     309.1904    15568 
393000000   -3018.9211      3564.86    12926.763   -1596.6275    8180.4086    309.78363    15589 
394000000    -3042.623    3581.0227    12877.094   -1516.1931    8139.8388    308.59335    15567 
395000000   -3108.0765    3391.3135    12990.397   -1641.3758    8140.7658    311.30859    15563 
396000000   -3045.0654    3681.0689    13027.778   -1468.6972    8194.8314    312.20441    15544 
397000000   -3036.9395    3646.2869    12983.088   -1507.3289    8190.5553    311.13343    15558 
398000000   -3047.0957     3549.032    12814.163   -1513.3066    8109.4343    307.08522    15554 
399000000   -3041.6963    3668.5713    12934.293   -1524.1121    8234.3797    309.96408    15548 
400000000   -3085.4072    3470.3676    12991.723   -1482.8777    8038.6525    311.34036    15561 
Loop time of 110015 on 28 procs for 400000000 steps with 14000 atoms

Performance: 9424.148 ns/day, 0.003 hours/ns, 3635.860 timesteps/s
99.7% CPU use with 28 MPI tasks x no OpenMP threads

MPI task timing breakdown:
Section |  min time  |  avg time  |  max time  |%varavg| %total
---------------------------------------------------------------
Pair    | 14629      | 17186      | 21610      |1397.8 | 15.62
Bond    | 4469.1     | 6186.8     | 9522.8     |2714.6 |  5.62
Neigh   | 21223      | 21553      | 21955      | 137.7 | 19.59
Comm    | 29309      | 36958      | 42314      |1894.8 | 33.59
Output  | 0.65074    | 0.65138    | 0.65281    |   0.1 |  0.00
Modify  | 19049      | 19285      | 19720      | 134.3 | 17.53
Other   |            | 8846       |            |       |  8.04

Nlocal:    500 ave 534 max 476 min
Histogram: 3 2 10 3 0 4 0 0 2 4
Nghost:    727.107 ave 970 max 478 min
Histogram: 4 1 3 3 3 3 1 3 5 2
Neighs:    5572.64 ave 6490 max 3428 min
Histogram: 1 1 0 0 2 1 8 6 3 6

Total # of neighbors = 156034
Ave neighs/atom = 11.1453
Ave special neighs/atom = 8.19343
Neighbor list builds = 36820273
Dangerous builds = 0
System init for write_restart ...
Total wall time: 30:33:42
