LAMMPS (5 Jun 2019)
Reading restart file ...
  restart file = 5 Jun 2019, LAMMPS = 5 Jun 2019
  restoring atom style full from restart
  orthogonal box = (-420 -420 -420) to (420 420 420)
  2 by 2 by 7 MPI processor grid
  restoring pair style lj/cut from restart
  restoring bond style hybrid from restart
  restoring angle style cosine from restart
  14000 atoms
  15706 bonds
  13600 angles
Finding 1-2 1-3 1-4 neighbors ...
  special bond factors lj:   1          1          1         
  special bond factors coul: 0          0          0         
  3 = max # of 1-2 neighbors
  6 = max # of 1-3 neighbors
  17 = max # of 1-4 neighbors
  56 = max # of special neighbors
  special bonds CPU = 0.65198 secs
  read_restart CPU = 0.715917 secs
Finding 1-2 1-3 1-4 neighbors ...
  special bond factors lj:   0          1          1         
  special bond factors coul: 0          0          0         
  3 = max # of 1-2 neighbors
  6 = max # of 1-3 neighbors
  17 = max # of 1-4 neighbors
  40004 = # of 1-3 neighbors before angle trim
  27200 = # of 1-3 neighbors after angle trim
  56 = max # of special neighbors
  special bonds CPU = 0.00315376 secs
Unused restart file global fix info:
  fix style: colvars, fix ID: CV_Rg
Neighbor list info ...
  update every 1 steps, delay 1 steps, check yes
  max neighbors/atom: 2000, page size: 100000
  master list distance cutoff = 26.9
  ghost atom cutoff = 26.9
  binsize = 13.45, bins = 63 63 63
  1 neighbor lists, perpetual/occasional/extra = 1 0 0
  (1) pair lj/cut, perpetual
      attributes: half, newton on
      pair build: half/bin/newton
      stencil: half/bin/3d/newton
      bin: standard
Setting up Verlet run ...
  Unit style    : real
  Current step  : 250000000
  Time step     : 0.1
Per MPI rank memory allocation (min/avg/max) = 1.103 | 7.732 | 16.66 Mbytes
Step Temp E_pair E_mol TotEng Press 
250000000    30.962652   -6282.9505    6271.5709    1280.6411   -4.1918796 
250010000    262.45694   -6114.5368    5047.7672    9885.1279    1.1507636 
Loop time of 6.03439 on 28 procs for 10000 steps with 14000 atoms

Performance: 14.318 ns/day, 1.676 hours/ns, 1657.168 timesteps/s
99.6% CPU use with 28 MPI tasks x no OpenMP threads

MPI task timing breakdown:
Section |  min time  |  avg time  |  max time  |%varavg| %total
---------------------------------------------------------------
Pair    | 0.00033568 | 0.85564    | 3.3969     | 120.4 | 14.18
Bond    | 0.00062935 | 0.12633    | 0.48016    |  44.6 |  2.09
Neigh   | 0.017098   | 0.01793    | 0.019634   |   0.8 |  0.30
Comm    | 0.0019181  | 1.5967     | 3.6589     | 108.1 | 26.46
Output  | 7.5794e-05 | 0.00042918 | 0.00078861 |   0.0 |  0.01
Modify  | 0.0010044  | 0.27181    | 0.97989    |  64.9 |  4.50
Other   |            | 3.166      |            |       | 52.46

Nlocal:    500 ave 1932 max 0 min
Histogram: 16 0 0 3 1 2 2 2 1 1
Nghost:    544.75 ave 1735 max 0 min
Histogram: 16 0 0 0 0 6 2 0 1 3
Neighs:    10167.9 ave 42166 max 0 min
Histogram: 16 0 1 2 2 3 0 2 1 1

Total # of neighbors = 284702
Ave neighs/atom = 20.3359
Ave special neighs/atom = 7.92443
Neighbor list builds = 6
Dangerous builds = 0
4000 atoms in group rxnSites
Neighbor list info ...
  update every 1 steps, delay 1 steps, check yes
  max neighbors/atom: 2000, page size: 100000
  master list distance cutoff = 26.9
  ghost atom cutoff = 26.9
  binsize = 13.45, bins = 63 63 63
  2 neighbor lists, perpetual/occasional/extra = 1 1 0
  (1) pair lj/cut, perpetual
      attributes: half, newton on
      pair build: half/bin/newton
      stencil: half/bin/3d/newton
      bin: standard
  (2) fix bond/create/random, occasional, copy from (1)
      attributes: half, newton on
      pair build: copy
      stencil: none
      bin: none
Setting up Verlet run ...
  Unit style    : real
  Current step  : 0
  Time step     : 25
Per MPI rank memory allocation (min/avg/max) = 17.81 | 18.24 | 19.04 Mbytes
Step E_pair PotEng KinEng E_bond E_angle Temp Bonds 
       0   -6114.5368   -1066.7696    10951.897   -2923.7238    7971.4909    262.45694    15706 
 1000000   -3087.3406     3744.756    12908.552   -1372.5268    8204.6234    309.34721    15524 
 2000000   -2969.8739     3922.807    13001.528    -1443.346    8336.0269    311.57535    15543 
 3000000    -2939.833    3871.8883    13011.298   -1524.1837     8335.905    311.80947    15566 
 4000000   -2883.0928    3754.2663    12815.771   -1628.9146    8266.2737    307.12376    15589 
 5000000   -2815.3784    3904.5354    12954.988   -1498.7713    8218.6852    310.46005    15569 
 6000000   -2765.5633    3862.4435    13015.921     -1604.68    8232.6868    311.92026    15577 
 7000000    -2787.036    3926.6148     13064.12   -1448.1382     8161.789    313.07532    15568 
 8000000   -2851.8102      3586.24    12891.784   -1697.3385    8135.3887    308.94539    15593 
 9000000    -2840.529      4005.48    12853.107   -1500.7641     8346.773     308.0185    15567 
10000000   -2875.7697    3710.3634    12864.519    -1631.251    8217.3842    308.29198    15573 
11000000   -2800.6938    3766.4688    12912.329   -1695.3553    8262.5179    309.43772    15613 
12000000   -2828.6047    4035.1429     12911.75   -1435.4284    8299.1759    309.42386    15568 
13000000    -2917.533    3681.8729    13080.104   -1621.4833    8220.8892    313.45838    15590 
14000000   -2837.0506    3648.6381    12924.447   -1698.7637    8184.4524    309.72812    15590 
15000000   -2775.3046    3808.2427    12893.595   -1548.2984    8131.8458    308.98879    15574 
16000000   -2901.1944    3709.5265    12954.261   -1565.2035    8175.9244    310.44262    15566 
17000000   -2915.1207    3646.5295    12839.503    -1654.127    8215.7773    307.69249    15606 
18000000   -2916.6186    3706.9564    12912.568   -1686.3627    8309.9377    309.44347    15606 
19000000   -2846.6485    3691.3841     12955.98    -1706.428    8244.4606     310.4838    15595 
20000000   -2907.4574    3605.9244    13079.571    -1558.453    8071.8348    313.44561    15589 
21000000   -2798.0913    3618.0545    13048.022   -1705.4696    8121.6154    312.68954    15591 
22000000   -2956.8177    3771.9788    12802.101    -1457.977    8186.7735    306.79617    15578 
23000000   -2923.9549    3737.3638    12950.551   -1496.0443    8157.3631     310.3537    15578 
24000000   -2871.7804    3804.7423    12843.373   -1521.1712    8197.6938    307.78523    15566 
25000000   -2936.4259    3724.8271    12845.218   -1596.0241    8257.2772    307.82944    15584 
26000000   -2867.1058    3935.5672    12940.078   -1504.0483    8306.7213    310.10271    15572 
27000000   -3081.9425    3348.4965    12701.153   -1716.8642    8147.3033      304.377    15601 
28000000   -2874.1319    3727.6718    12837.969   -1620.2119    8222.0156    307.65573    15600 
29000000   -2875.2286    3691.9338    12921.999    -1574.994    8142.1563    309.66947    15571 
30000000   -2885.1928    3728.1644    12963.829   -1594.4041    8207.7613     310.6719    15569 
31000000   -2760.0643    3950.0646    12992.532   -1480.5967    8190.7256    311.35976    15564 
32000000   -2742.5354    3813.8871     13145.22   -1624.7064    8181.1288    315.01885    15588 
33000000   -2773.4215    3678.4942    12947.509   -1599.8817    8051.7974    310.28081    15581 
34000000    -2855.241    3648.0196     13027.51   -1730.0123    8233.2728    312.19798    15587 
35000000    -2880.239    3608.9914    12894.026   -1657.2701    8146.5004    308.99911    15598 
36000000   -2928.5169    3859.8661     12798.72    -1544.469     8332.852    306.71516    15598 
37000000   -2858.3722    3658.5345    12986.302   -1634.4961    8151.4028    311.21047    15590 
38000000   -2758.0987    3732.5525    12877.816   -1574.5979    8065.2491    308.61064    15585 
39000000   -2804.9722    3947.1805    12875.785   -1541.9046    8294.0573    308.56196    15594 
40000000    -2818.326     3607.297     12920.09   -1696.8418    8122.4648    309.62372    15582 
41000000   -2921.7494    3927.8298    13006.087   -1485.3576    8334.9368    311.68461    15575 
42000000   -2915.9777    3790.3212    12864.405   -1543.4089    8249.7078    308.28926    15580 
43000000   -2837.1921    3562.4962    13014.643   -1581.4212    7981.1095    311.88963    15584 
44000000   -2891.6043    3636.9359     12878.93   -1616.7089    8145.2491    308.63734    15584 
45000000   -3024.7987    3541.0868    12838.903   -1604.0329    8169.9185    307.67812    15580 
46000000   -2907.8789     3577.679    12844.327    -1595.547     8081.105    307.80809    15588 
47000000   -2899.4817    3779.5594    12982.272    -1574.502     8253.543    311.11387    15587 
48000000   -2811.7589    3872.6718    12917.816   -1505.4441    8189.8748    309.56924    15567 
49000000   -2947.7605    3726.5331    12880.019   -1473.1675    8147.4611    308.66344    15577 
50000000   -2857.1301    3758.0096    12902.455   -1631.8989    8247.0386     309.2011    15569 
51000000   -2937.1393    3522.5432    12767.912    -1615.488    8075.1705    305.97685    15577 
52000000    -2886.418    3580.9272    12862.779   -1571.3122    8038.6574    308.25029    15583 
53000000   -3000.2782    3548.4185    12871.043    -1622.943    8171.6397    308.44832    15581 
54000000   -2930.5169    3667.8475     12889.51   -1572.0807    8170.4451    308.89088    15580 
55000000   -3006.6098    3666.7722    12719.314     -1529.93     8203.312    304.81222    15574 
56000000   -2897.0968    3550.1085    12979.051   -1642.5483    8089.7537    311.03669    15581 
57000000   -3009.7221    3781.3051    13027.819   -1412.1645    8203.1917    312.20539    15589 
58000000   -2944.2784    3580.4607    12954.244   -1603.5512    8128.2903    310.44221    15574 
59000000   -2822.7949    3797.1441    12843.818   -1525.2222    8145.1612    307.79589    15597 
60000000   -3006.5981    3657.5459    12941.784   -1523.3145    8187.4585     310.1436    15576 
61000000   -2963.1134    3745.3394    12916.424   -1481.9641    8190.4168    309.53586    15574 
62000000   -3019.2204     3611.176    12823.375   -1533.8856    8164.2821    307.30598    15573 
63000000   -2923.0938    3854.6403    12921.058   -1523.5689    8301.3031    309.64691    15578 
64000000   -3003.1882    3665.5072    12814.392   -1503.4148    8172.1103    307.09071    15572 
65000000   -2922.4567    3548.7475    12692.927   -1575.6287    8046.8329    304.17987    15587 
66000000   -2964.9822    3625.0542    13040.534   -1555.3132    8145.3495    312.51009    15583 
67000000   -2932.2243    3567.6267    12898.361     -1600.63     8100.481      309.103    15571 
68000000   -2930.9765    3611.1284    12923.242   -1658.5355    8200.6404    309.69926    15579 
69000000   -2995.4013    3600.2975    12801.019   -1474.7612      8070.46    306.77023    15571 
70000000    -2942.482    3672.0296    12859.995   -1618.5544    8233.0659    308.18356    15593 
71000000   -3003.5452    3502.9379    12918.148   -1598.6312    8105.1143    309.57719    15565 
72000000   -2966.0599    3744.9384    12975.356   -1505.1102    8216.1086    310.94815    15562 
73000000   -2902.3994    3653.7453    13073.651    -1612.751    8168.8956    313.30375    15583 
74000000   -2993.6896    3691.1101    12970.074   -1544.1592     8228.959    310.82155    15569 
75000000   -2945.0293    3786.4026      13013.4   -1454.5723    8186.0042    311.85986    15565 
76000000    -2918.836    3795.4448    12880.017   -1468.6938    8182.9745     308.6634    15563 
77000000   -2991.0199     3589.743    12953.972   -1665.2588    8246.0217    310.43568    15583 
78000000   -2919.7268    3631.0627    13040.125   -1542.0331    8092.8227    312.50029    15576 
79000000   -2970.5931    3554.7372    12874.907   -1578.1629    8103.4932    308.54093    15574 
80000000   -3046.8818    3757.0115     12909.61   -1467.7119    8271.6051    309.37257    15571 
81000000   -2937.0971    3541.7548    12856.234    -1609.367    8088.2189    308.09345    15576 
82000000     -3029.45    3432.2072    12935.054   -1580.4615    8042.1187    309.98233    15593 
83000000   -2913.5351    3733.8511    13006.378   -1521.7731    8169.1594    311.69157    15562 
84000000   -2914.0135    3694.7781    12903.045    -1487.837    8096.6286    309.21525    15571 
85000000     -2863.19    3794.9119    13002.601    -1435.544    8093.6459    311.60105    15560 
86000000    -2966.277    3498.0538    12981.818   -1659.8195    8124.1502    311.10299    15584 
87000000   -3047.8787     3655.376    13059.883   -1390.0129    8093.2676    312.97378    15541 
88000000    -2938.519    3455.1468    12856.661   -1652.1931    8045.8588    308.10367    15577 
89000000   -2928.4773    3530.5327    13017.752   -1631.4341    8090.4441    311.96413    15581 
90000000   -2926.0208    3747.7341    12781.951   -1536.7161     8210.471    306.31328    15577 
91000000    -2982.818    3555.2661    13003.254   -1650.0344    8188.1184     311.6167    15583 
92000000   -3029.2171     3616.779    12977.866   -1532.9772    8178.9733     311.0083    15564 
93000000   -2943.2249    3805.1212    13003.782   -1477.3386    8225.6847    311.62935    15556 
94000000   -3081.5984    3447.6774        12953   -1575.8605    8105.1363    310.41239    15579 
95000000   -2985.7669    3548.6767    13053.484   -1658.9125    8193.3561    312.82044    15582 
96000000   -3026.7104    3698.6981    12852.131   -1518.6509    8244.0595    307.99513    15570 
97000000   -3002.6792    3521.9109    12987.213   -1561.7539    8086.3439    311.23228    15564 
98000000   -3042.2247    3390.6907    12877.474   -1659.1712    8092.0866    308.60244    15565 
99000000   -2970.6204    3680.8659    12717.567   -1530.6682    8182.1545    304.77036    15567 
100000000   -3058.7806    3663.5154    13054.411   -1437.6378    8159.9337    312.84265    15577 
101000000    -2985.629    3407.1487    13019.686   -1719.5427    8112.3203    312.01048    15596 
102000000   -3017.5564    3607.9251    12989.976   -1473.1835    8098.6651     311.2985    15565 
103000000   -3055.0867    3460.3908    12938.271   -1568.9636    8084.4411    310.05942    15573 
104000000   -2933.3352     3602.464    12878.425   -1582.7662    8118.5654    308.62523    15584 
105000000   -2939.7278    3673.9013    12988.339   -1520.5124    8134.1416    311.25928    15562 
106000000   -3021.3323    3641.8103    12942.708   -1570.0994     8233.242    310.16575    15578 
107000000    -2975.693    3628.1972    12835.995   -1573.4147    8177.3049    307.60842    15557 
108000000   -2908.2444    3772.0539    12743.685   -1462.2355    8142.5338    305.39627    15583 
109000000   -2948.0589    3564.5395     12835.52   -1615.5622    8128.1606    307.59705    15572 
110000000   -2929.2375    3696.5107    13077.852   -1589.3662    8215.1144    313.40441    15573 
111000000   -3046.9055    3447.3431    12930.757   -1643.4493    8137.6979    309.87935    15595 
112000000   -3017.3846    3604.8962    12908.747   -1506.8036    8129.0845    309.35188    15576 
113000000   -2973.2615     3607.192    13095.989   -1549.2492    8129.7027    313.83905    15575 
114000000   -2990.4007    3734.5211    12889.238   -1436.5405    8161.4622    308.88437    15572 
115000000    -2973.353    3707.8987    13108.267   -1494.7632     8176.015    314.13328    15567 
116000000   -3017.4076     3399.067    13013.955     -1605.52    8021.9947    311.87315    15585 
117000000   -2874.8615    3664.0445    12904.374   -1528.7339      8067.64    309.24709    15562 
118000000    -2994.198    3462.2285    12998.589   -1640.2244     8096.651     311.5049    15585 
119000000   -3006.8481    3596.2881     12880.23   -1577.2378     8180.374    308.66849    15575 
120000000   -2928.5639    3511.9173    13020.034   -1546.3646    7986.8458    312.01882    15564 
121000000   -3055.2243    3677.7866    12854.206    -1482.111    8215.1219    308.04484    15580 
122000000   -2952.4113    3665.0073    12838.794   -1515.0155    8132.4342     307.6755    15559 
123000000   -2934.4938    3638.5996     12826.87   -1562.5777    8135.6712    307.38974    15582 
124000000   -2969.4492    3612.0987    12988.068   -1610.4768    8192.0247    311.25278    15582 
125000000   -3021.9374    3575.6777    13020.058   -1508.2982    8105.9134    312.01942    15569 
126000000    -2957.637    3656.4128    12960.995   -1486.3673    8100.4171    310.60398    15555 
127000000   -3107.0464    3459.6117    12898.513    -1485.876     8052.534    309.10665    15570 
128000000   -3049.7481    3538.4575    12932.641   -1562.4031    8150.6086    309.92451    15572 
129000000   -3084.8761      3563.88    12994.365   -1475.0597    8123.8159    311.40368    15575 
130000000   -3022.0008    3817.1965    12778.833   -1529.8469    8369.0442    306.23857    15574 
131000000   -2920.7216    3739.4241    12932.757   -1571.4343      8231.58    309.92727    15562 
132000000   -3051.0631    3400.5396    12906.975   -1700.3641    8151.9669    309.30942    15614 
133000000   -2987.9442    3494.4432     12928.45   -1638.2456     8120.633    309.82406    15584 
134000000   -3124.1205    3554.9892    13066.419   -1612.9945    8292.1042    313.13043    15569 
135000000   -3035.8808    3637.7419    12977.866   -1535.7083     8209.331     311.0083    15554 
136000000   -3042.6131     3529.124    12894.847   -1584.7337    8156.4708    309.01878    15582 
137000000   -3087.6628     3525.718    12758.571   -1538.6693    8152.0501      305.753    15580 
138000000   -3012.9625    3549.2124    12864.469   -1545.8368    8108.0116    308.29079    15586 
139000000    -2990.963    3477.8203    12942.303   -1581.2172    8050.0005    310.15605    15590 
140000000   -2966.0824    3555.1606    12864.727   -1522.4318    8043.6748    308.29697    15570 
141000000    -2980.656    3542.0562    12922.106   -1603.5501    8126.2624    309.67204    15583 
142000000   -2955.8207    3510.0383    12988.689    -1561.781      8027.64    311.26767    15565 
143000000   -2972.3774    3493.7752    13162.561   -1646.3882    8112.5408    315.43442    15580 
144000000   -3016.3248    3523.5248    12999.271   -1535.8745    8075.7241    311.52124    15578 
145000000   -2955.9283    3659.0479    13062.818   -1551.3701    8166.3463    313.04413    15584 
146000000   -3094.5836    3584.3929    13041.463   -1543.7885     8222.765    312.53237    15575 
147000000   -3035.9692    3498.1336    12855.741    -1605.185    8139.2878    308.08164    15570 
148000000   -3030.3029    3436.1722    13079.939   -1645.5877    8112.0627    313.45443    15592 
149000000   -3092.4392    3587.8994    12818.658   -1542.7244     8223.063    307.19295    15583 
150000000   -3030.1293    3462.5935    13079.285   -1594.4065    8087.1293    313.43875    15585 
151000000   -2965.1702    3628.1422    12911.749   -1598.4399    8191.7522    309.42382    15578 
152000000   -3009.3778    3523.3154    13032.702   -1523.8122    8056.5054    312.32242    15560 
153000000   -2997.1373      3661.67    13000.267   -1439.9771    8098.7844    311.54513    15549 
154000000    -3004.413    3737.9308     12805.08   -1486.6253    8228.9691    306.86756    15557 
155000000   -2956.8867    3684.4875    13135.196   -1570.9859    8212.3601    314.77862    15575 
156000000   -2939.9076    3688.1449    12936.284   -1586.7772    8214.8297    310.01181    15585 
157000000   -3059.3342     3512.561    12860.724   -1527.2608     8099.156    308.20105    15586 
158000000   -2982.4681    3616.3627    12947.046   -1465.7305    8064.5613     310.2697    15581 
159000000   -2964.4731    3771.6136    13149.673   -1478.2247    8214.3114    315.12558    15583 
160000000   -3041.2584    3675.0846    12968.198   -1478.7441    8195.0871    310.77661    15551 
161000000   -2913.6439    3720.2635    12915.756   -1506.0038    8139.9112    309.51986    15565 
162000000   -3082.2284    3499.2082    12805.614   -1555.0425     8136.479    306.88035    15566 
163000000   -3065.7691    3619.5784    12940.601   -1524.8548    8210.2022    310.11527    15567 
164000000   -3030.6195    3564.2135    12906.387   -1544.2818    8139.1149    309.29532    15581 
165000000   -2917.4161    3567.2847    12831.873   -1560.3376    8045.0384    307.50963    15579 
166000000    -3027.728    3575.3782    13045.438   -1532.1212    8135.2273    312.62762    15579 
167000000   -3073.4502    3596.0568    13037.111   -1547.6338    8217.1408    312.42807    15562 
168000000   -2900.0863    3754.1274    12853.263   -1491.4163      8145.63    308.02223    15548 
169000000   -3080.1996     3624.085    12820.586   -1456.8817    8161.1664    307.23915    15565 
170000000   -2957.6139    3503.2411    13007.047    -1686.015      8146.87    311.70761    15598 
171000000   -3047.9693    3648.0369    12886.139   -1399.8327    8095.8389    308.81011    15548 
172000000   -3018.1476    3284.4333    12813.693   -1789.8676    8092.4485    307.07396    15591 
173000000   -3023.3769    3580.3938    12769.989   -1593.1608    8196.9315    306.02663    15582 
174000000   -3062.0315    3551.8875    12984.616   -1556.6673    8170.5863    311.17007    15566 
175000000   -2944.3189    3651.5843      12783.2   -1434.2709    8030.1742    306.34321    15552 
176000000   -2974.5512    3484.0024    12958.602   -1678.2904     8136.844    310.54663    15597 
177000000   -3027.0488    3520.2989    13005.974   -1478.7997    8026.1474    311.68189    15576 
178000000   -2997.3974    3536.8057    12896.698   -1647.4259     8181.629    309.06315    15587 
179000000   -2963.9542    3701.7858    13037.111   -1510.6781    8176.4181    312.42807    15570 
180000000   -3106.5612    3467.8431    13018.146   -1554.4905    8128.8948    311.97358    15565 
181000000   -3072.2576    3572.9746    12996.219   -1551.8509    8197.0832    311.44811    15571 
182000000   -2978.0058    3656.3105     12976.73   -1640.8026    8275.1189    310.98106    15591 
183000000   -3084.4776    3405.2835    12945.745   -1644.7114    8134.4725    310.23852    15598 
184000000   -3029.1662    3557.0297    12895.573   -1545.9311     8132.127    309.03619    15566 
185000000   -2967.0266    3553.6073    13036.971   -1545.4891     8066.123    312.42472    15579 
186000000   -3030.0461     3715.787    12810.575   -1514.6541    8260.4872    306.99924    15565 
187000000    -3041.635    3689.1507    12955.512   -1509.1188    8239.9044     310.4726    15582 
188000000   -2894.0066    3737.7917    12924.537   -1562.8253    8194.6236    309.73029    15576 
189000000   -2951.5715    3505.0547    12814.563   -1639.4926    8096.1188    307.09482    15580 
190000000   -2997.1646    3487.6021    12894.377   -1596.5831    8081.3498    309.00753    15590 
191000000   -2984.0681    3492.9629    12967.619   -1618.1411     8095.172    310.76273    15597 
192000000   -2990.8589    3364.7027    12910.832   -1725.3062    8080.8679    309.40187    15591 
193000000   -2983.5827    3589.1027    12925.734   -1530.9004    8103.5858    309.75897    15576 
194000000   -2991.2011    3621.7486    12991.627   -1495.2358    8108.1856    311.33806    15551 
195000000   -3084.6383    3521.9627    12953.584   -1478.4157    8085.0167    310.42638    15549 
196000000   -3012.6741    3792.5672    12872.799   -1445.6133    8250.8546    308.49041    15561 
197000000   -3002.1923    3498.2136    12886.524   -1579.0944    8079.5003    308.81933    15587 
198000000    -3193.719    3481.7854    12965.639   -1459.9333    8135.4377    310.71527    15555 
199000000   -3121.8838    3450.0974    12924.098     -1552.84    8124.8212    309.71977    15581 
200000000   -3001.3754    3665.9679    12884.143   -1438.3813    8105.7245    308.76227    15575 
201000000    -3110.713    3423.5182    12996.582   -1685.2832    8219.5144    311.45681    15590 
202000000   -3067.3404    3403.3181    12993.649   -1607.8467    8078.5052    311.38652    15602 
203000000   -3012.4602    3499.5439    12907.844   -1558.9733    8070.9775    309.33025    15590 
204000000   -3036.8183    3566.0066    12999.766   -1546.1395    8148.9645    311.53312    15578 
205000000   -2948.8723    3533.3395    12954.758   -1633.1609    8115.3727    310.45451    15584 
206000000   -2992.3974     3602.495     12963.55   -1486.0652    8080.9576    310.66522    15595 
207000000   -2999.6318    3592.6752    12886.271   -1602.2722    8194.5792    308.81327    15584 
208000000   -2948.1862    3478.5536    12917.414   -1570.4501      7997.19    309.55959    15579 
209000000    -3042.269    3420.5278     12688.87   -1648.4263    8111.2231    304.08265    15588 
210000000   -3051.8334    3440.7405    12811.926   -1643.6767    8136.2507    307.03161    15597 
211000000     -2971.59    3670.9312    13083.996   -1522.1504    8164.6716    313.55164    15575 
212000000    -2910.736    3652.9761    12939.734   -1574.6534    8138.3655    310.09447    15589 
213000000   -3024.6788    3471.2092    12854.423    -1583.393     8079.281    308.05005    15583 
214000000   -3061.3897    3566.8213    13021.918   -1475.1218    8103.3328    312.06398    15571 
215000000   -2988.0945    3515.1445    13011.084   -1541.4213    8044.6603    311.80435    15571 
216000000   -3038.6191    3681.0873    12802.642    -1398.096    8117.8024    306.80913    15557 
217000000   -2984.4468    3748.5089    13080.653   -1486.7119    8219.6676    313.47153    15566 
218000000   -3085.2805    3429.8287    12932.255   -1544.8762    8059.9854    309.91525    15566 
219000000   -3007.5005    3570.7468    13030.824   -1653.4762    8231.7235    312.27741    15589 
220000000   -2972.4807    3633.7607    12947.336   -1501.2927    8107.5341    310.27666    15572 
221000000   -2999.3521    3608.0739    12993.973   -1567.6082    8175.0342    311.39429    15572 
222000000   -2894.0443    3717.4263    12723.104   -1575.2589    8186.7295    304.90304    15570 
223000000   -3014.0948    3596.3219    12986.672   -1519.0379    8129.4547    311.21932    15565 
224000000   -2981.4826    3539.2749    12927.585   -1565.0193    8085.7768    309.80332    15577 
225000000   -3042.0257     3546.062    12743.844   -1570.8708    8158.9585    305.40007    15571 
226000000   -3043.8484    3589.4469    12858.359   -1539.8114    8173.1067    308.14438    15578 
227000000   -2978.6565    3742.3648     12951.25   -1445.7755    8166.7968    310.37044    15593 
228000000   -3027.5625    3474.3844    12969.089    -1585.103    8087.0498    310.79795    15579 
229000000   -2982.3086    3557.5809    12905.227   -1608.8516     8148.741    309.26753    15565 
230000000   -2970.3188    3807.7612    12888.606   -1546.8148    8324.8948    308.86921    15571 
231000000   -2912.7927    3641.1875    12957.282   -1623.9091    8177.8893    310.51501    15582 
232000000   -2978.0244    3674.9792    13079.659   -1603.2921    8256.2957    313.44771    15574 
233000000   -2938.8178    3478.3203    12875.538   -1606.7583    8023.8964    308.55605    15569 
234000000   -2928.2459     3545.818    12950.728   -1597.4099    8071.4738    310.35795    15584 
235000000   -2956.4669    3665.3278    13078.536   -1478.8844     8100.679     313.4208    15560 
236000000   -2902.8659    3878.5692    12882.472   -1441.3158    8222.7509    308.72222    15571 
237000000   -2942.3874    3699.8934    12988.925   -1604.6811    8246.9618    311.27331    15586 
238000000   -2864.0513    3679.5431    12968.325    -1539.739    8083.3335    310.77966    15571 
239000000     -3006.62    3620.8259    12911.261   -1698.7014    8326.1473    309.41213    15609 
240000000   -2959.5532    3419.3988    12823.779   -1684.2035    8063.1555    307.31568    15581 
241000000   -2978.1194    3657.6037    13031.233   -1503.0179    8138.7409     312.2872    15582 
242000000   -2950.3992    3617.4697    12834.832    -1653.474    8221.3429    307.58055    15590 
243000000   -2938.6033    3600.8769    12794.912   -1602.3568     8141.837    306.62388    15585 
244000000   -2966.3397    3668.7781    12936.117   -1614.5116    8249.6294    310.00779    15578 
245000000   -2938.8074    3756.4122     12884.23   -1491.3991    8186.6186    308.76436    15585 
246000000   -2956.4713    3707.7432    12902.348   -1457.9901    8122.2045    309.19855    15570 
247000000   -2890.3237    3757.4601    12967.017   -1498.0682     8145.852    310.74831    15557 
248000000   -2984.1232    3621.3392    12944.341   -1530.3156    8135.7781    310.20488    15554 
249000000   -2961.7356    3766.9093    12682.164   -1518.9026    8247.5475    303.92195    15581 
250000000   -2951.7292    3668.6473    12950.837    -1584.746    8205.1225    310.36055    15569 
251000000   -2908.0645    3707.8168    12955.661   -1576.3154    8192.1968    310.47616    15578 
252000000   -2932.1292    3744.8692    12985.795    -1579.717    8256.7154    311.19831    15587 
253000000   -2886.5837    3638.9362    12890.621   -1615.3942    8140.9142    308.91752    15587 
254000000   -2995.0434    3486.1267    12903.484    -1556.883    8038.0531    309.22577    15590 
255000000   -2914.1745    3790.6087     12855.89   -1565.5687    8270.3518    308.08519    15572 
256000000   -2848.9382    3796.6559    12971.479   -1535.4228    8181.0168    310.85523    15574 
257000000   -2880.4814    3699.6124    12970.947   -1549.8464    8129.9402    310.84249    15589 
258000000   -2912.1056    3526.0077    12973.138   -1671.4347    8109.5479    310.89498    15601 
259000000   -2908.5334     3764.146    13081.634   -1570.3818    8243.0612    313.49504    15571 
260000000   -2989.2446    3523.8244    12853.341   -1579.9943    8093.0633    308.02412    15561 
261000000   -2945.9274    3666.5101    13014.331   -1502.9798    8115.4173    311.88216    15598 
262000000   -3007.0114    3706.3545    12963.413   -1492.9052    8206.2711    310.66192    15564 
263000000   -2923.7282    3640.5801    12915.291   -1610.0443    8174.3526    309.50871    15581 
264000000   -3016.1769    3629.2685    12881.479   -1541.8111    8187.2566    308.69842    15556 
265000000   -2970.1068    3686.1051    12986.004   -1538.8188    8195.0308    311.20331    15580 
266000000   -2906.2609     3652.164    12876.296   -1562.3253    8120.7502    308.57422    15565 
267000000   -2992.2517    3673.7302    12919.671   -1536.6769    8202.6588    309.61368    15576 
268000000   -3027.1282    3712.5829    12954.397    -1501.803    8241.5141    310.44588    15577 
269000000   -2991.1384    3739.1519    12876.972   -1546.3305    8276.6209    308.59043    15571 
270000000   -3035.6455    3542.1805    13014.865   -1528.4519    8106.2779    311.89496    15559 
271000000   -2941.2838    3857.2172    12952.177   -1359.9189    8158.4199    310.39266    15564 
272000000   -3063.4228    3632.1167     13000.08   -1441.9736    8137.5132    311.54064    15561 
273000000    -3042.948     3517.058    12879.323   -1714.9437    8274.9497    308.64675    15604 
274000000   -2935.9255    3697.6079    12999.071   -1613.6406     8247.174    311.51647    15580 
275000000   -3074.3053    3492.1547    12941.399    -1570.508     8136.968    310.13437    15569 
276000000   -3028.1067    3600.1364    12865.118   -1566.6816    8194.9248    308.30634    15575 
277000000   -2911.2536    3662.2593     13009.41   -1529.1874    8102.7003    311.76423    15570 
278000000   -2952.6563    3767.4687    12923.211   -1524.5479    8244.6729    309.69852    15577 
279000000   -3036.5487    3650.4571    12926.316    -1578.224    8265.2298    309.77291    15562 
280000000   -3110.4429    3641.9875    12835.224   -1438.6567    8191.0871    307.58995    15567 
281000000   -3020.6977    3622.3743    12849.945   -1526.3179    8169.3899    307.94272    15561 
282000000   -3001.6916    3406.0738    12999.242   -1609.9905    8017.7559    311.52057    15580 
283000000   -3031.5768    3485.3614    13007.673   -1573.4911    8090.4292     311.7226    15564 
284000000   -2961.6131    3656.0399    12947.456   -1587.9698    8205.6228    310.27952    15568 
285000000   -2888.0114    3488.8927    12685.048   -1569.5069     7946.411    303.99105    15586 
286000000   -2867.6053    3838.4259    12906.679   -1585.3572    8291.3884    309.30232    15572 
287000000    -3016.134    3516.7912    12937.821   -1591.6956    8124.6208    310.04864    15605 
288000000   -3011.2407    3603.9358    12869.461   -1507.8401    8123.0165    308.41042    15578 
289000000   -3093.4127    3472.2146    12974.737   -1524.7536     8090.381    310.93331    15579 
290000000   -3028.6479    3758.9197    12831.107   -1461.6235    8249.1911    307.49129    15540 
291000000   -3044.4392    3554.2726    13040.699   -1554.1896    8152.9014    312.51407    15576 
292000000   -3094.7411    3583.2027    12882.895   -1459.4328    8137.3765    308.73235    15562 
293000000   -3070.7448    3453.6832    12994.153   -1656.5652    8180.9932     311.3986    15587 
294000000   -3026.1168    3496.6327    12875.693   -1616.4885     8139.238    308.55977    15572 
295000000   -2977.8667    3416.9058    12832.792   -1713.1369    8107.9093    307.53166    15586 
296000000   -3031.2602    3512.7878    12845.582   -1580.5671    8124.6152    307.83816    15591 
297000000   -2926.5699    3633.2855    12791.632   -1597.8824    8157.7378    306.54529    15584 
298000000   -2967.1366    3592.8248    12797.868   -1634.5559    8194.5174    306.69473    15591 
299000000   -2984.5692    3440.9465    12952.489   -1698.5957    8124.1113    310.40014    15601 
300000000   -3041.8931    3649.9998     13035.44   -1601.6063    8293.4991    312.38802    15566 
301000000   -3007.5945    3643.2962    12884.829   -1504.0729    8154.9636     308.7787    15578 
302000000   -3045.0135    3684.3599    12913.312   -1517.9491    8247.3226    309.46129    15572 
303000000   -2969.6965    3548.1278    13074.272    -1697.312    8215.1363    313.31861    15589 
304000000   -3034.2632    3454.2346    12905.269   -1598.5477    8087.0454    309.26854    15579 
305000000   -3112.6254    3434.5421    12755.464   -1552.5036    8099.6711    305.67853    15563 
306000000   -3009.7499     3678.897    13003.305   -1518.4274    8207.0743    311.61792    15571 
307000000   -2987.9824    3514.4976    12807.817   -1636.7262    8139.2062    306.93315    15593 
308000000   -3009.0681    3629.7937    12956.116   -1509.7373    8148.5991    310.48707    15569 
309000000    -3027.971    3435.8016    12874.079   -1653.0673    8116.8398    308.52109    15590 
310000000   -2994.5638    3555.1129    12849.475   -1506.0539    8055.7305    307.93147    15556 
311000000   -3085.4668    3733.6548    12907.997   -1461.3115     8280.433    309.33391    15554 
312000000   -2961.6965    3584.5967    13009.463   -1591.4488     8137.742    311.76551    15570 
313000000   -2984.2538    3612.7814    12993.542   -1520.7756    8117.8108    311.38396    15570 
314000000   -2935.7006     3674.346    12936.616   -1583.4877    8193.5344    310.01975    15572 
315000000   -2957.7233    3589.2436    13055.042   -1612.9979    8159.9648    312.85777    15582 
316000000   -2919.3503    3597.1523    12983.284   -1610.8011    8127.3036    311.13813    15563 
317000000   -2949.1378     3666.221     12926.82   -1526.3741     8141.733    309.78499    15567 
318000000   -2950.8451    3628.0607    13019.702   -1528.6372    8107.5429    312.01086    15573 
319000000   -2950.4373    3586.0109    12975.754   -1607.6813    8144.1296    310.95769    15593 
320000000   -3068.4238    3486.1776    12947.651   -1639.2775    8193.8788    310.28419    15582 
321000000    -3003.754    3659.2809    12879.523   -1526.3182    8189.3531    308.65154    15569 
322000000     -3006.43    3715.7698    12908.812   -1406.8542     8129.054    309.35345    15567 
323000000   -3007.4638    3468.5372    12867.571    -1636.735    8112.7361    308.36514    15588 
324000000   -3113.2208    3499.9063    13092.783   -1589.8949     8203.022    313.76223    15585 
325000000   -3059.2281    3490.2611     13060.81   -1586.5367    8136.0258    312.99602    15574 
326000000   -2977.1257    3619.9882    12958.258   -1526.4639    8123.5779     310.5384    15549 
327000000   -3109.3195    3467.7903    12838.355   -1565.9747    8143.0845    307.66499    15580 
328000000   -2880.8448    3807.3406    13008.529   -1536.7037    8224.8891    311.74312    15568 
329000000   -2997.3534     3519.493    12836.991   -1597.9745    8114.8209    307.63228    15581 
330000000   -3000.2376    3561.5974    12870.069   -1572.7127    8134.5477    308.42499    15571 
331000000   -2902.8355    3865.4288    12877.044   -1386.5524    8154.8167    308.59213    15550 
332000000   -2906.6204     3708.756    12811.246   -1485.7093    8101.0857    307.01532    15563 
333000000   -3081.4837    3462.3837    12967.439   -1550.5116    8094.3789    310.75841    15576 
334000000   -3116.7847    3444.2564     12809.99   -1502.5237    8063.5649    306.98522    15574 
335000000   -3026.9171    3629.6749    13030.426   -1574.3983    8230.9902    312.26787    15561 
336000000   -2966.8458    3536.7932     12844.56   -1649.0545    8152.6934    307.81368    15579 
337000000   -2959.5728     3638.863     12919.74   -1598.6409    8197.0766    309.61533    15586 
338000000    -2997.583    3521.9072    12963.096   -1518.7102    8038.2004    310.65433    15587 
339000000   -2952.5938    3800.4789    12802.888   -1435.6577    8188.7304    306.81503    15586 
340000000   -2950.0461    3672.6022    12899.756   -1423.9985    8046.6469    309.13643    15563 
341000000   -2966.5135     3564.803    12774.784   -1607.2428    8138.5593    306.14152    15583 
342000000    -3076.604    3542.7884     12954.64   -1609.1419    8228.5343     310.4517    15570 
343000000   -3016.0095    3572.5051    12972.209   -1492.9768    8081.4914    310.87272    15576 
344000000   -2976.0919    3651.4086    13132.512   -1462.2021    8089.7025     314.7143    15555 
345000000   -2998.8621    3625.0963    12997.745   -1533.8556     8157.814    311.48468    15578 
346000000   -3077.8579    3630.3108    12918.273   -1583.5016    8291.6703    309.58018    15582 
347000000   -2963.6091    3609.3812    12938.996   -1548.0877    8121.0781     310.0768    15569 
348000000   -3082.5583    3612.2697    12868.499   -1600.6011    8295.4291    308.38736    15582 
349000000   -3016.6412    3729.2352    12873.343   -1470.1567    8216.0331    308.50346    15564 
350000000    -3075.462    3528.6743     12904.26    -1621.374    8225.5103    309.24437    15587 
351000000   -2976.9562    3760.2628    12815.547   -1563.7032    8300.9222     307.1184    15576 
352000000   -2947.2552    3680.0111    12898.063   -1489.6509    8116.9171    309.09586    15553 
353000000   -3006.9262    3563.0932    12989.315   -1499.9501    8069.9695    311.28267    15576 
354000000   -2998.5392     3571.793    12906.923   -1593.2174    8163.5496    309.30818    15574 
355000000   -3027.2729    3565.0414    12924.923   -1597.7802    8190.0945    309.73954    15579 
356000000   -2948.6078    3509.9765    12961.284    -1637.183    8095.7672    310.61092    15583 
357000000   -2997.1436    3436.9983    12934.215   -1635.1872     8069.329    309.96223    15581 
358000000   -3031.3208    3578.1792    12862.612   -1578.9092    8188.4092    308.24629    15582 
359000000   -2974.8325    3560.0562     12825.05   -1586.0387    8120.9274    307.34613    15575 
360000000   -3014.6175    3545.2113    12914.778   -1563.2809    8123.1096    309.49643    15567 
361000000   -2958.5555    3699.0689    12878.404   -1517.8727    8175.4972    308.62475    15560 
362000000   -3004.7373    3423.5568     12877.31   -1673.2468    8101.5409    308.59851    15582 
363000000   -2941.4269    3636.4158    12860.907   -1642.9408    8220.7835    308.20544    15586 
364000000   -2912.0071    3735.3204    12786.289   -1599.0091    8246.3366    306.41724    15576 
365000000    -2902.939    3541.0582    13002.474   -1586.3422    8030.3394    311.59801    15589 
366000000   -2971.9861    3626.7258    12952.738   -1542.8913    8141.6032    310.40612    15577 
367000000   -2999.7544    3409.4442    12784.174      -1704.7    8113.8986    306.36656    15593 
368000000   -3044.0602    3539.9034    12914.539   -1540.3114     8124.275    309.49068    15586 
369000000   -3024.6131    3721.4164    12985.371   -1462.8996    8208.9292    311.18815    15572 
370000000   -2986.5349    3638.1848     12868.92   -1524.0049    8148.7246    308.39746    15584 
371000000   -3003.2958    3581.6956    12902.957   -1552.5409    8137.5322    309.21315    15584 
372000000   -3014.6686    3440.7373    13110.122   -1595.9686    8051.3745    314.17774    15573 
373000000   -3008.9872    3502.2057    12886.414   -1713.0898    8224.2827    308.81668    15601 
374000000   -2950.8943    3487.9987    12856.298   -1604.7389    8043.6318    308.09497    15586 
375000000   -2923.4757     3744.786    12988.788   -1499.3936    8167.6552    311.27003    15585 
376000000   -3019.5936    3515.0593    12751.563   -1576.6068    8111.2597    305.58506    15590 
377000000    -3008.389    3649.2567    12958.736   -1556.6503    8214.2959    310.54985    15568 
378000000   -3000.6864    3735.9132    12922.089   -1506.8686    8243.4682    309.67161    15562 
379000000   -3051.4353    3596.5636    12697.239   -1557.1791    8205.1781     304.2832    15570 
380000000   -3059.1671    3442.9569    12951.632   -1668.1148    8170.2389    310.37961    15588 
381000000   -2941.6883    3689.8484    12976.868   -1492.4727    8124.0093    310.98438    15571 
382000000   -3061.0138    3536.1476    13035.895   -1564.2091    8161.3705    312.39892    15574 
383000000   -3020.0976     3639.626     12941.06   -1550.6086    8210.3322    310.12626    15570 
384000000    -3019.642    3462.4229    13002.422    -1567.449    8049.5139    311.59676    15580 
385000000   -2959.6444    3704.4282    12878.871   -1427.1447    8091.2173    308.63593    15565 
386000000   -2944.9176      3526.18    12979.004   -1581.7663    8052.8639    311.03556    15589 
387000000   -2950.2833    3662.6067    12895.342   -1618.2904    8231.1804    309.03065    15587 
388000000   -2874.8876    3729.3547    12979.472   -1622.3777    8226.6199    311.04678    15579 
389000000   -2921.1213    3633.2308    12959.527   -1588.3531    8142.7053    310.56882    15565 
390000000   -2992.6509     3503.887    12768.201   -1530.0181    8026.5559    305.98378    15588 
391000000   -2985.1481    3651.5106    12868.975   -1570.4343     8207.093    308.39878    15572 
392000000   -3015.9044    3616.8931    12903.522   -1592.8819    8225.6794    309.22669    15569 
393000000    -2955.242    3776.5783    12983.631   -1482.3025    8214.1228    311.14645    15578 
394000000   -2996.7091    3563.6547    12835.525   -1646.0961    8206.4598    307.59715    15576 
395000000   -2917.5318    3681.0649    12794.401   -1549.8046    8148.4012    306.61165    15565 
396000000   -2897.8961    3625.9361    12950.386   -1658.6225    8182.4547    310.34975    15587 
397000000    -2931.095    3675.8517    12973.638   -1597.9857    8204.9323    310.90696    15585 
398000000   -2963.9866    3589.0174    12883.212   -1578.6461    8131.6502    308.73995    15583 
399000000   -3005.1001    3614.3369    13028.645   -1586.8538    8206.2907     312.2252    15592 
400000000   -2947.7919    3625.7577    12915.655   -1605.9522    8179.5019    309.51744    15574 
Loop time of 150895 on 28 procs for 400000000 steps with 14000 atoms

Performance: 5725.837 ns/day, 0.004 hours/ns, 2650.851 timesteps/s
99.5% CPU use with 28 MPI tasks x no OpenMP threads

MPI task timing breakdown:
Section |  min time  |  avg time  |  max time  |%varavg| %total
---------------------------------------------------------------
Pair    | 16372      | 18819      | 22940      |1243.7 | 12.47
Bond    | 4666.1     | 6566.5     | 9561.8     |2512.5 |  4.35
Neigh   | 48091      | 48565      | 49315      | 145.8 | 32.18
Comm    | 36122      | 43587      | 48976      |1669.9 | 28.89
Output  | 0.65474    | 0.65546    | 0.65703    |   0.1 |  0.00
Modify  | 20680      | 21055      | 21668      | 187.3 | 13.95
Other   |            | 1.23e+04   |            |       |  8.15

Nlocal:    500 ave 526 max 476 min
Histogram: 1 2 3 3 5 4 7 1 1 1
Nghost:    701.929 ave 1002 max 315 min
Histogram: 1 1 1 5 3 3 4 4 5 1
Neighs:    5371.54 ave 6662 max 3966 min
Histogram: 3 1 4 1 3 5 4 1 4 2

Total # of neighbors = 150403
Ave neighs/atom = 10.7431
Ave special neighs/atom = 8.16314
Neighbor list builds = 79928059
Dangerous builds = 0
System init for write_restart ...
Total wall time: 41:55:02
