LAMMPS (5 Jun 2019)
Reading data file ...
  orthogonal box = (-420 -420 -420) to (420 420 420)
  2 by 2 by 7 MPI processor grid
  reading atoms ...
  14000 atoms
  scanning bonds ...
  51 = max bonds/atom
  scanning angles ...
  1 = max angles/atom
  reading bonds ...
  13800 bonds
  reading angles ...
  13600 angles
Finding 1-2 1-3 1-4 neighbors ...
  special bond factors lj:   0          0          0         
  special bond factors coul: 0          0          0         
  2 = max # of 1-2 neighbors
  2 = max # of 1-3 neighbors
  4 = max # of 1-4 neighbors
  56 = max # of special neighbors
  special bonds CPU = 0.692755 secs
  read_data CPU = 0.8796 secs
Finding 1-2 1-3 1-4 neighbors ...
  special bond factors lj:   1          1          1         
  special bond factors coul: 0          0          0         
  2 = max # of 1-2 neighbors
  2 = max # of 1-3 neighbors
  4 = max # of 1-4 neighbors
  56 = max # of special neighbors
  special bonds CPU = 0.000726001 secs
WARNING: Using 'neigh_modify every 1 delay 0 check yes' setting during minimization (../min.cpp:168)
Neighbor list info ...
  update every 1 steps, delay 0 steps, check yes
  max neighbors/atom: 2000, page size: 100000
  master list distance cutoff = 26.9
  ghost atom cutoff = 26.9
  binsize = 13.45, bins = 63 63 63
  1 neighbor lists, perpetual/occasional/extra = 1 0 0
  (1) pair lj/cut, perpetual
      attributes: half, newton on
      pair build: half/bin/newton
      stencil: half/bin/3d/newton
      bin: standard
Setting up cg style minimization ...
  Unit style    : real
  Current step  : 0
Per MPI rank memory allocation (min/avg/max) = 1.164 | 13.81 | 17.68 Mbytes
Step Temp E_pair E_mol TotEng Press 
       0            0 2.4262116e+12      2649600 2.4262142e+12 1.1227655e+09 
    7035            0   -6144.0854    5742.4468   -401.63854  -0.02117856 
Loop time of 2.89958 on 28 procs for 7035 steps with 14000 atoms

99.5% CPU use with 28 MPI tasks x no OpenMP threads

Minimization stats:
  Stopping criterion = energy tolerance
  Energy initial, next-to-last, final = 
     2.42621421633e+12     -401.614938723     -401.638544729
  Force two-norm initial, final = 2.10957e+10 0.584999
  Force max component initial, final = 1.04817e+09 0.0848794
  Final line search alpha, max atom move = 0.948135 0.0804771
  Iterations, force evaluations = 7035 9919

MPI task timing breakdown:
Section |  min time  |  avg time  |  max time  |%varavg| %total
---------------------------------------------------------------
Pair    | 0.15392    | 0.51655    | 0.92389    |  31.4 | 17.81
Bond    | 0.044037   | 0.12797    | 0.20796    |  12.1 |  4.41
Neigh   | 0.26445    | 0.27024    | 0.27671    |   0.5 |  9.32
Comm    | 0.58248    | 0.99476    | 1.4419     |  24.9 | 34.31
Output  | 0          | 0          | 0          |   0.0 |  0.00
Modify  | 0          | 0          | 0          |   0.0 |  0.00
Other   |            | 0.9901     |            |       | 34.15

Nlocal:    500 ave 824 max 176 min
Histogram: 2 2 4 3 3 2 5 4 0 3
Nghost:    338.464 ave 536 max 168 min
Histogram: 3 4 2 2 3 6 2 2 2 2
Neighs:    5465.89 ave 9884 max 1749 min
Histogram: 2 7 2 3 1 3 2 3 3 2

Total # of neighbors = 153045
Ave neighs/atom = 10.9318
Ave special neighs/atom = 5.82857
Neighbor list builds = 571
Dangerous builds = 0
Setting up Verlet run ...
  Unit style    : real
  Current step  : 7035
  Time step     : 0.1
Per MPI rank memory allocation (min/avg/max) = 1.128 | 14 | 16.55 Mbytes
Step Temp E_pair E_mol TotEng Press 
    7035            0   -6144.0854    5742.4468   -401.63854  -0.02117856 
   17035    215.18523   -4911.4505    9417.8701    13485.746   -1.1660599 
Loop time of 1.91068 on 28 procs for 10000 steps with 14000 atoms

Performance: 45.219 ns/day, 0.531 hours/ns, 5233.733 timesteps/s
99.5% CPU use with 28 MPI tasks x no OpenMP threads

MPI task timing breakdown:
Section |  min time  |  avg time  |  max time  |%varavg| %total
---------------------------------------------------------------
Pair    | 0.084292   | 0.31977    | 0.62999    |  29.1 | 16.74
Bond    | 0.037148   | 0.10908    | 0.17471    |  11.5 |  5.71
Neigh   | 0.0030753  | 0.0031644  | 0.0032591  |   0.1 |  0.17
Comm    | 0.55501    | 0.87794    | 1.1832     |  19.7 | 45.95
Output  | 9.6762e-05 | 0.00014867 | 0.00018826 |   0.0 |  0.01
Modify  | 0.087193   | 0.25404    | 0.41001    |  17.1 | 13.30
Other   |            | 0.3465     |            |       | 18.14

Nlocal:    500 ave 827 max 173 min
Histogram: 2 2 4 3 3 2 4 5 0 3
Nghost:    339.929 ave 540 max 170 min
Histogram: 3 4 2 2 3 6 2 3 1 2
Neighs:    5456.75 ave 9766 max 1727 min
Histogram: 2 6 3 3 1 3 2 3 2 3

Total # of neighbors = 152789
Ave neighs/atom = 10.9135
Ave special neighs/atom = 5.82857
Neighbor list builds = 5
Dangerous builds = 0
4000 atoms in group rxnSites
Neighbor list info ...
  update every 1 steps, delay 1 steps, check yes
  max neighbors/atom: 2000, page size: 100000
  master list distance cutoff = 26.9
  ghost atom cutoff = 26.9
  binsize = 13.45, bins = 63 63 63
  2 neighbor lists, perpetual/occasional/extra = 1 1 0
  (1) pair lj/cut, perpetual
      attributes: half, newton on
      pair build: half/bin/newton
      stencil: half/bin/3d/newton
      bin: standard
  (2) fix bond/create/random, occasional, copy from (1)
      attributes: half, newton on
      pair build: copy
      stencil: none
      bin: none
Setting up Verlet run ...
  Unit style    : real
  Current step  : 0
  Time step     : 25
Per MPI rank memory allocation (min/avg/max) = 17.88 | 18.29 | 18.88 Mbytes
Step E_pair PotEng KinEng E_bond E_angle Temp Bonds 
       0   -4911.4505    4506.4196    8979.3266      3089.15    6328.7201    215.18523    13800 
 1000000   -873.45662    11749.385    13009.194    4050.5668    8572.2751    311.75906    13902 
 2000000   -901.64438    11408.617    12901.232    3973.9072    8336.3537    309.17178    13934 
 3000000   -879.01996    11498.447    12981.776    3991.1364    8386.3302      311.102    13896 
 4000000   -921.16021    11338.753    12996.243    3833.9028    8426.0101    311.44869    13934 
 5000000   -914.10983    11350.397      12980.5    3988.8011    8275.7062    311.07141    13932 
 6000000   -935.18268    11371.114    12900.579    3922.4129    8383.8835    309.15616    13947 
 7000000   -1017.4039    11310.455    12794.451     4008.647    8319.2114    306.61283    13965 
 8000000   -971.59535    11487.732    12933.156    4023.7764    8435.5514    309.93684    13930 
 9000000   -1036.7768    11279.036    12880.611    3851.6227    8464.1898    308.67764    13958 
10000000   -967.18789     11400.99    12900.256    3916.9118     8451.266     309.1484    13969 
11000000   -978.78566    11380.852    12799.334    3905.8112    8453.8266    306.72987    13946 
12000000   -1022.7984    11345.966    12849.587    3904.6509    8464.1139    307.93415    13961 
13000000   -975.73226    11445.226    13041.637    4036.6161     8384.342    312.53654    13964 
14000000    -914.6892    11423.728    12781.778    3952.5395    8385.8781    306.30913    13949 
15000000   -910.37385    11521.163    12985.759     3973.103    8458.4342    311.19744    13935 
16000000   -914.53408    11385.233     12865.01    3939.7481    8360.0194    308.30374    13940 
17000000   -895.10689    11439.898    12962.956    3970.9285     8364.076    310.65098    13923 
18000000   -899.05166    11487.392    12886.321    3905.5956    8480.8483    308.81446    13931 
19000000   -935.59151    11419.995    13004.368    3946.2154     8409.371    311.64341    13948 
20000000   -926.80034     11473.78    12948.336    4025.1384    8375.4423    310.30063    13929 
21000000    -948.6114    11370.032    12918.651    3896.8379    8421.8051    309.58923    13954 
22000000   -934.65576     11431.14     12846.53    4007.3672    8358.4284     307.8609    13935 
23000000    -948.1175    11467.753    12830.289    4042.2746    8373.5955    307.47168    13949 
24000000   -922.32055    11468.828    12995.042    3963.8952    8427.2529    311.41991    13919 
25000000   -957.68714    11531.943    12860.284    4013.3767    8476.2538    308.19049    13922 
26000000   -945.00474    11416.471    13046.946    4052.6711    8308.8046    312.66375    13944 
27000000   -941.97878    11376.691    13099.286    4004.5517    8314.1181    313.91806    13927 
28000000   -924.59397    11482.179    13041.797    4034.5897    8372.1832    312.54036    13918 
29000000   -914.38865    11423.294    12938.126    3970.9517    8366.7312    310.05595    13943 
30000000   -914.24815    11437.399    13130.394    3912.1308    8439.5167    314.66356    13943 
31000000   -949.05075    11422.826    12880.047    3913.6084    8458.2679    308.66411    13951 
32000000   -937.08338    11544.242    12927.339    3980.4837    8500.8413    309.79743    13928 
33000000    -911.6039    11440.278    12928.821    4015.9212    8335.9604    309.83295    13929 
34000000   -901.33392    11458.805    12969.708      4031.19    8328.9489    310.81279    13935 
35000000   -950.49086    11490.578    13003.737    3981.4538    8459.6155    311.62828    13930 
36000000   -916.62058    11453.231    12918.865    3941.8162    8428.0353    309.59436    13936 
37000000   -937.36081      11374.4    13005.749     3858.147    8453.6141    311.67649    13936 
38000000   -864.68502    11541.812    12921.523    3940.7779    8465.7194    309.65806    13907 
39000000   -912.77651     11407.32     13180.96    3956.4829    8363.6133    315.87535    13943 
40000000   -942.56918    11270.356    12897.331    3905.8775    8307.0473    309.07832    13924 
41000000   -934.22062    11348.156    12803.413    3888.1571      8394.22    306.82762    13961 
42000000   -924.71731    11458.114    12918.153     3983.147    8399.6847     309.5773    13932 
43000000   -1004.8214    11229.973    13015.424    3929.6998    8305.0949    311.90836    13941 
44000000   -1036.6584    11308.125    12989.909    3910.0151    8434.7679    311.29689    13958 
45000000   -992.36349    11339.409    12868.407    3992.4137     8339.359    308.38515    13937 
46000000   -984.06588    11353.918    12951.984    3874.6018    8463.3817    310.38804    13955 
47000000   -966.24339    11463.678    13022.242    4002.7386    8427.1829    312.07173    13946 
48000000   -964.56054    11341.511    13093.832    3887.7231    8418.3485    313.78736    13949 
49000000   -948.02149     11408.02    12909.908    3972.6565    8383.3848     309.3797    13937 
50000000   -946.57763     11340.95    12764.024    3914.4701    8373.0576    305.88367    13944 
51000000   -927.02293    11311.066     12927.03    3940.1164    8297.9725    309.79004    13916 
52000000   -897.66786    11399.287    13039.994    3935.5562    8361.3989    312.49716    13935 
53000000   -953.65482    11544.851    12879.769    3999.5087    8498.9973    308.65745    13934 
54000000   -932.59763    11497.373    12898.835    3961.3523    8468.6179    309.11435    13944 
55000000   -961.84838    11463.125    12960.265    3996.7064     8428.267    310.58649    13925 
56000000   -980.59548    11227.497    12838.215    3862.4449    8345.6475    307.66163    13937 
57000000    -912.9856    11286.731     12850.06    3928.0798    8271.6368    307.94549    13934 
58000000   -934.56472    11501.919    12918.105    3997.7339    8438.7501    309.57616    13938 
59000000   -944.16641    11563.924    12895.676    3987.4367    8520.6537    309.03865    13940 
60000000   -952.35943    11490.986    13009.441    3964.2716    8479.0737    311.76496    13935 
61000000   -946.12443     11476.16    12989.636    3984.1932    8438.0912    311.29036    13932 
62000000   -982.91611    11216.781    12929.726    3850.0375    8349.6594    309.85464    13959 
63000000   -938.09828    11476.616    13056.613    3909.3066     8505.408    312.89542    13914 
64000000   -927.16449    11399.891    12906.969    3974.6699    8352.3859    309.30928    13956 
65000000   -913.30078    11424.755    13006.917    3964.5619    8373.4942    311.70449    13913 
66000000   -982.72321    11404.617    12778.373    3952.4756    8434.8644    306.22754    13930 
67000000   -983.33049    11433.836    12908.981    4010.4557    8406.7103    309.35751    13926 
68000000   -919.27523    11439.667    13051.735    3894.2696    8464.6724    312.77852    13908 
69000000   -940.51882    11398.669    12838.752     4026.241    8312.9468     307.6745    13921 
70000000   -931.40836    11472.839    12847.577    3995.5663    8408.6812    307.88598    13936 
71000000   -888.97937    11402.231    12941.811    3886.0171    8405.1937    310.14426    13935 
72000000   -967.82884    11332.075    13095.053      3927.66    8372.2435    313.81663    13930 
73000000   -922.68654     11427.51    12895.151    3922.9987    8427.1982    309.02608    13934 
74000000   -977.34795    11501.134    13122.708    4023.8328    8454.6494    314.47936    13924 
75000000     -1025.28    11464.487    13017.426    4001.1713    8488.5955    311.95633    13940 
76000000   -901.55342    11439.624    12926.655    3951.8879    8389.2894    309.78106    13934 
77000000   -870.92534      11609.4     12748.91     3951.354    8528.9713    305.52148    13928 
78000000   -922.67478    11356.724    12990.177    3972.4944    8306.9047    311.30331    13937 
79000000   -939.67892    11537.194    12921.988    3921.4383    8555.4348     309.6692    13919 
80000000    -918.9055    11403.483    12882.254    3991.4674    8330.9213    308.71701    13920 
81000000   -912.32069    11457.168     12805.26    4057.1941    8312.2946    306.87188    13912 
82000000   -930.12637    11405.219    12945.565    3921.0191    8414.3261    310.23421    13923 
83000000   -902.71343    11486.397    13114.932    3962.9422    8426.1687      314.293    13916 
84000000   -984.49675    11505.796    13006.455    3963.9205    8526.3723    311.69343    13934 
85000000   -906.90576    11471.562    13000.393    3983.3417    8395.1261    311.54815    13929 
86000000   -958.80506    11536.887    12884.738    4066.1039    8429.5885    308.77654    13930 
87000000   -991.89418    11564.762    13000.677    4039.4254    8517.2308    311.55495    13922 
88000000   -933.65826    11505.908    12977.075    4023.6664    8415.9001    310.98934    13925 
89000000   -923.83902    11527.032    13008.897    3931.5765    8519.2947    311.75194    13940 
90000000    -880.2479    11463.049    12975.319    3951.9453    8391.3517    310.94725    13953 
91000000   -902.22895    11505.806    12846.876    3970.9936    8437.0412    307.86918    13918 
92000000   -931.03526    11512.788    12885.066     3936.873    8506.9501    308.78437    13938 
93000000   -947.17371    11786.833    13133.396    4080.0378    8653.9687    314.73549    13933 
94000000   -993.13636    11379.182    12890.832      3906.99     8465.328    308.92257    13955 
95000000   -910.37576    11323.472    13059.853    3911.6359    8322.2121    312.97307    13958 
96000000    -899.6117    11512.299    12921.307    3983.0922     8428.819    309.65289    13923 
97000000   -876.50829    11470.299    12877.455    4012.2063    8334.6008    308.60199    13907 
98000000   -969.35854    11407.267     12827.96    4014.7966    8361.8294    307.41586    13930 
99000000   -898.77261    11563.131    12833.836    4042.4076    8419.4962    307.55669    13900 
100000000   -932.38903    11391.166    12906.885    3955.4839    8368.0715    309.30728    13932 
101000000   -908.91448    11520.076    12849.787    3945.1387    8483.8518    307.93894    13932 
102000000   -928.41345     11469.09    13049.398    3970.3219    8427.1812    312.72252    13915 
103000000   -883.42988    11581.184    13063.127      3990.33    8474.2839    313.05154    13914 
104000000   -943.40491    11700.428     12849.46    4082.4998    8561.3329    307.93111    13913 
105000000   -865.37777     11606.21    12922.279    4060.2333    8411.3549    309.67619    13895 
106000000   -935.72009    11524.846    12883.099    3928.5167    8532.0492    308.73726    13944 
107000000   -902.52599    11526.027    12825.924    3997.6198    8430.9327    307.36708    13956 
108000000   -898.46989    11552.303    12810.319    4061.8335    8388.9394     306.9931    13923 
109000000   -920.66886    11368.242    12848.417    3922.4812    8366.4302    307.90612    13931 
110000000   -914.66088    11350.901    12888.945    3967.8899    8297.6719    308.87735    13933 
111000000   -953.29662    11495.756    12928.014    3974.1966    8474.8558    309.81362    13924 
112000000   -982.01619    11559.892    12893.148    3991.9955    8549.9125    308.97806    13940 
113000000   -964.35522    11562.517     12935.82    3964.3154    8562.5569    310.00069    13934 
114000000   -922.26363    11491.423    12872.298    3963.7168    8449.9703    308.47841    13924 
115000000   -963.09008    11447.329    13052.207    3958.5849    8451.8338    312.78984    13957 
116000000   -927.66267    11348.914    12980.393    3973.4535    8303.1228    311.06884    13930 
117000000   -1042.0197    11361.893    13070.992    3940.2826      8463.63    313.24001    13970 
118000000   -932.72491     11504.37    12947.466    4092.3228    8344.7725    310.27976    13931 
119000000   -972.20284    11399.676    13008.768    3952.6419    8419.2366    311.74885    13944 
120000000   -938.38768    11248.026    12899.461    3926.2059     8260.208    309.12935    13928 
121000000   -916.07814    11428.476    12965.621    4023.3373     8321.217    310.71485    13943 
122000000   -914.62016    11454.798     12989.52     3986.224    8383.1939    311.28757    13924 
123000000   -961.08328    11509.164    12969.577     3962.833    8507.4144    310.80965    13939 
124000000   -960.51551    11385.492    13005.618    3925.0076    8420.9997    311.67336    13934 
125000000   -949.29642    11420.103    12948.688    3982.7474    8386.6515    310.30907    13941 
126000000   -926.13804    11410.613    13022.999    3989.2462    8347.5049    312.08988    13923 
127000000   -980.38612    11471.424    12995.704     4016.675    8435.1346    311.43578    13923 
128000000   -1007.1723    11391.023    12865.938    3969.4167    8428.7783    308.32599    13949 
129000000   -971.37561    11345.042    12803.698     3915.098    8401.3192    306.83444    13948 
130000000   -988.34945     11359.89    12957.009    3983.1246    8365.1151    310.50848    13944 
131000000   -945.68757     11360.27    12990.504    3959.4862     8346.471    311.31116    13951 
132000000   -919.05177    11503.078    13043.622    4025.3578    8396.7723    312.58411    13924 
133000000   -917.86839    11598.765    12902.738    4018.2148    8498.4184    309.20788    13925 
134000000   -937.52762    11495.545    13031.531    4122.3804    8310.6926    312.29434    13929 
135000000   -907.43059    11589.258    12885.939    4124.9427    8371.7462     308.8053    13928 
136000000   -856.02265    11429.802    12877.368    4014.8104    8271.0145    308.59991    13943 
137000000   -951.84798    11421.855    12702.767    3933.7712    8439.9318    304.41569    13942 
138000000   -920.68122    11408.133    12899.951    3953.1312    8375.6833    309.14109    13938 
139000000   -992.39984    11486.991    12866.647    4032.5434    8446.8478    308.34299    13931 
140000000    -949.8272    11404.276    12798.949    3901.8951    8452.2079    306.72064    13953 
141000000   -974.31543    11402.826    13087.167    3920.5772    8456.5643    313.62765    13973 
142000000   -962.71828    11567.299     12923.44    4017.4029    8512.6147    309.70399    13927 
143000000   -947.88749    11473.906    12984.042    3990.3587     8431.435     311.1563    13953 
144000000   -918.43873    11329.744    12939.693    3846.6132     8401.569    310.09349    13938 
145000000   -918.35789    11413.278    12993.431    3955.1301    8376.5063     311.3813    13945 
146000000   -922.44169    11405.062    12834.452    3872.6949    8454.8085    307.57144    13936 
147000000   -980.45714    11390.628    12968.204    3932.8118    8438.2738    310.77675    13930 
148000000   -1017.9327    11300.627    12804.301     3925.672    8392.8881     306.8489    13942 
149000000   -950.19091    11289.199    12954.813    3888.1254    8351.2647    310.45584    13962 
150000000   -938.21303    11492.597    12850.593    3949.1872    8481.6232    307.95827    13932 
151000000    -893.8644    11452.652    12956.902    3973.7415    8372.7749    310.50591    13932 
152000000    -918.0299    11560.971    13041.011     3976.109     8502.892    312.52152    13937 
153000000   -926.76012    11416.845    12770.359    3922.7037    8420.9018    306.03548    13933 
154000000   -926.88796    11441.145    13020.547    3976.9507    8391.0823    312.03113    13927 
155000000   -936.14111    11574.554    12970.786    4043.9752    8466.7203    310.83862    13913 
156000000   -949.12988    11534.017    12893.923    4035.6639    8447.4829    308.99663    13948 
157000000   -955.48605    11329.441    12791.311    3943.3281    8341.5987    306.53758    13937 
158000000   -886.55455    11428.261    12800.574    3999.4926    8315.3229    306.75957    13919 
159000000   -1005.4055    11262.864    12841.531    3888.1606    8380.1091    307.74109    13945 
160000000   -921.33074    11461.838    12940.571    3989.2455    8393.9228    310.11454    13921 
161000000    -949.4895    11360.696    12995.701    3936.6001    8373.5854    311.43569    13939 
162000000   -930.70302    11499.142    12917.288    4041.3805    8388.4642    309.55657    13926 
163000000    -936.8755     11385.03    12964.756    3932.5224    8389.3833    310.69412    13935 
164000000   -975.11285    11459.308    12875.279    4036.7088    8397.7122    308.54985    13941 
165000000   -919.75713    11440.434    13034.327    3996.7204    8363.4704    312.36135    13944 
166000000   -960.15097    11491.635    13004.249    4038.3874    8413.3983    311.64056    13929 
167000000   -983.80129    11362.069    12776.061    3997.3948    8348.4751    306.17214    13949 
168000000   -924.39765     11635.18    12916.497    4088.0737    8471.5035    309.53762    13924 
169000000   -1029.4299    11280.095    12899.455    3903.3549    8406.1697    309.12921    13961 
170000000   -949.82457    11540.332    12809.679    4026.5517    8463.6052    306.97776    13947 
171000000   -960.50248    11421.403      12839.8    4043.2845    8338.6211    307.69962    13948 
172000000   -916.82967    11443.548    12948.726    3900.5428    8459.8345    310.30996    13943 
173000000   -993.49428    11410.443    13024.063     3906.014    8497.9231    312.11538    13937 
174000000   -972.58925    11352.213    12916.258     3947.422    8377.3798    309.53188    13945 
175000000   -927.55242    11490.726    12883.007    3961.6403     8456.638    308.73505    13937 
176000000   -928.98511    11719.339    12737.488    4026.2647    8622.0596    305.24774    13933 
177000000   -917.68725    11597.764    12921.664    4055.7714    8459.6803    309.66143    13909 
178000000   -902.82667    11458.249    13009.795    3983.4354    8377.6405    311.77347    13925 
179000000   -906.52589     11639.02    12854.701    4024.3968    8521.1488     308.0567    13924 
180000000   -966.09004    11487.277    12934.265     3998.754    8454.6133    309.96343    13927 
181000000   -940.97931    11563.652     12951.33    3999.0068    8505.6247    310.37237    13934 
182000000   -860.13269    11492.386     12948.08    3962.5369    8389.9821    310.29449    13919 
183000000   -936.25081    11349.582    12853.999    3917.6892    8368.1439    308.03988    13934 
184000000   -936.28506    11408.127    12994.432    3966.8447    8377.5676     311.4053    13940 
185000000   -1001.4619    11279.445    12897.489    3932.5959    8348.3106    309.08209    13937 
186000000   -1002.2348    11427.574    12915.293    3930.5985    8499.2106    309.50876    13938 
187000000   -938.86291    11387.653    12878.508    3857.9548    8468.5612    308.62723    13930 
188000000   -909.49783    11454.158    12922.105    4002.9707    8360.6852      309.672    13953 
189000000   -942.61179     11471.19    13114.445    3920.1596    8493.6422    314.28135    13933 
190000000   -943.40012    11418.163    12971.921    3940.6209    8420.9422    310.86582    13954 
191000000   -966.86582    11533.313     12992.58    4021.0008    8479.1778     311.3609    13938 
192000000   -946.09769    11473.245    12886.737    3968.3189    8451.0238    308.82443    13939 
193000000   -932.71262    11314.742    13047.802    3953.1254    8294.3295    312.68427    13932 
194000000   -901.43672    11535.946    12873.351    4021.1708    8416.2117    308.50364    13918 
195000000   -925.39003    11528.845    12942.335    4057.6401    8396.5945    310.15682    13913 
196000000   -891.34833     11638.99    12929.564     4034.751    8495.5877    309.85077    13936 
197000000   -904.41464    11502.287    12954.507    4013.0477    8393.6537    310.44851    13907 
198000000   -935.14433    11539.523    12825.918    3989.4764    8485.1913    307.36693    13937 
199000000   -919.34356     11423.14    12903.769    3933.4539      8409.03    309.23259    13928 
200000000   -939.05325    11539.756     12903.07    3979.6852    8499.1236    309.21584    13924 
201000000   -920.45455     11421.55    12795.469    4005.3131    8336.6911    306.63723    13924 
202000000   -904.79612    11491.243    12912.388     3974.991    8421.0477    309.43914    13918 
203000000   -867.27684    11371.593    12911.219    3921.5919    8317.2776    309.41113    13932 
204000000   -929.18752    11427.922    12944.154    3992.3366    8364.7735    310.20039    13921 
205000000   -937.99066    11333.447    12954.714    3895.9981    8375.4392    310.45348    13929 
206000000   -948.31767    11429.576    13097.758    3937.8899    8440.0033    313.88144    13923 
207000000   -1023.8859     11349.88    12813.644    3926.0488     8447.717    307.07279    13957 
208000000     -962.256    11442.716    13109.348    3948.0702    8456.9021     314.1592    13951 
209000000   -945.69682    11373.411    12903.821    3914.1007    8405.0067    309.23383    13929 
210000000   -950.58048    11522.417    12876.398    4059.7608    8413.2368    308.57667    13942 
211000000   -930.85031     11332.63    12964.834    3961.9949    8301.4856      310.696    13933 
212000000   -939.93598    11444.153    12821.523    3982.3718     8401.717    307.26161    13933 
213000000   -928.96581    11381.084    12796.556    3908.5909    8401.4594    306.66329    13952 
214000000   -904.24924    11505.163    12958.343    3948.1183    8461.2943    310.54043    13928 
215000000   -881.43342    11549.229    12865.383    3940.8439     8489.818    308.31269    13918 
216000000   -901.35707    11535.765    13035.402    4112.6038    8324.5185    312.38711    13913 
217000000   -908.81389    11532.545    12937.868     4055.592    8385.7666    310.04975    13922 
218000000   -907.74577    11425.493     12860.01    3898.2093    8435.0297    308.18392    13944 
219000000   -931.46664     11667.01    12976.523    4032.8045    8565.6722    310.97612    13926 
220000000   -950.49299    11520.845    12940.032    3999.4773    8471.8603    310.10163    13946 
221000000   -872.52887    11443.501    12913.072    3974.1864    8341.8431    309.45554    13920 
222000000   -882.12036     11580.41    12907.208    4052.1605    8410.3696    309.31502    13922 
223000000   -945.42073    11265.023    13187.336    3835.3205    8375.1234    316.02814    13938 
224000000   -929.89846    11373.275    12927.806    3964.2806    8338.8929    309.80862    13935 
225000000   -933.08557    11417.719    12937.355    3989.2596    8361.5447    310.03746    13939 
226000000   -922.64076    11406.222    13066.694    3955.7655    8373.0974    313.13702    13932 
227000000   -946.19233    11491.517    13041.219    4001.4703    8436.2393    312.52652    13928 
228000000   -876.90772    11518.197    13179.177    3945.6656    8449.4388    315.83262    13911 
229000000   -827.03392    11638.012    12966.352    4017.5161    8447.5303    310.73237    13920 
230000000   -973.08387     11451.38    12924.906    4064.4977    8359.9667    309.73913    13918 
231000000   -881.52536     11548.18    13010.751    4049.6445     8380.061    311.79637    13923 
232000000   -873.97978    11620.979    13101.443    4124.1977    8370.7611    313.96975    13915 
233000000   -898.63256    11497.679    12989.882    3891.5225    8504.7888    311.29625    13946 
234000000   -934.11416    11513.256    12954.591    4032.2393    8415.1311    310.45053    13922 
235000000   -902.54121    11412.481    12892.605    3955.3711    8359.6511    308.96505    13940 
236000000   -910.85235    11408.855    12994.267    3859.6054     8460.102    311.40134    13932 
237000000   -911.00491    11435.922    12781.375    3952.2075    8394.7196    306.29949    13919 
238000000   -914.83158    11414.284    12686.923    3910.5895    8418.5256    304.03599    13935 
239000000   -899.60937    11435.306    12901.463    3952.9464    8381.9689    309.17733    13940 
240000000   -877.10543     11493.05    12898.093    4023.6104    8346.5455    309.09656    13919 
241000000   -884.18071    11521.699    13047.511    4004.6018    8401.2782    312.67731    13927 
242000000   -940.77194    11413.683    12842.994    3893.4643    8460.9904    307.77616    13925 
243000000   -927.15849     11587.01    12919.309    4007.7978    8506.3707    309.60499    13915 
244000000   -947.32339    11361.273    12864.285    3946.9187    8361.6777    308.28637    13926 
245000000   -935.33604    11451.262    12925.192    3965.6607    8420.9369    309.74598    13939 
246000000   -942.86055    11296.284     12910.06    3848.1886     8390.956    309.38335    13936 
247000000   -917.01167    11570.318    13019.504    3984.5666    8502.7632    312.00612    13934 
248000000   -937.52164    11487.901    12930.905    3960.3965    8465.0261    309.88289    13933 
249000000   -929.02464    11345.643    13079.912    3948.9415    8325.7263    313.45378    13952 
250000000   -930.40385    11386.503    12760.384     3955.868    8361.0391    305.79643    13932 
251000000   -960.68802    11604.281    12810.967    4026.9484    8538.0201    307.00864    13935 
252000000   -892.23202    11550.447    13006.959    3986.3012    8456.3777    311.70549    13945 
253000000   -905.89817    11538.808    12921.945    3900.2396    8544.4662    309.66817    13937 
254000000   -908.19147    11407.832    12911.613    4030.1342    8285.8892    309.42058    13918 
255000000   -907.95526    11427.847    12884.663    3907.5533    8428.2488    308.77473    13934 
256000000   -940.66132    11468.954    12878.247    4073.1236    8336.4921    308.62097    13925 
257000000   -944.31251    11331.042    12879.061    3923.7342    8351.6201    308.64047    13920 
258000000   -965.76139    11356.947    12890.699    3903.7182      8418.99    308.91938    13950 
259000000   -945.50148    11359.628    12955.142    3884.4305    8420.6991    310.46373    13953 
260000000   -942.49843    11396.458    12985.767    3936.8281    8402.1284    311.19764    13942 
261000000    -926.3463    11430.708    12981.481    3980.2142    8376.8402    311.09493    13927 
262000000    -920.4752    11532.015    12841.688    3978.8424    8473.6476    307.74484    13912 
263000000   -854.72249    11559.851    12914.158    4051.1888    8363.3846    309.48156    13915 
264000000    -909.9831    11495.588    12933.872    4021.9471    8383.6242    309.95399    13920 
265000000   -921.55264    11480.849    12823.207    4010.9526    8391.4486    307.30197    13937 
266000000   -871.00672    11605.436    12854.745     4041.495    8434.9475    308.05775    13912 
267000000   -971.58337     11403.63    12800.074    3955.7573    8419.4562    306.74759    13939 
268000000   -911.08186    11485.755    12900.796    3989.1694     8407.667    309.16134    13919 
269000000   -983.35206    11466.516    12848.544    3917.2876    8532.5807    307.90917    13939 
270000000   -961.04208    11448.269    12743.355     3994.279    8415.0317    305.38835    13923 
271000000   -885.72226      11552.6    12931.152     4005.632    8432.6905    309.88882    13932 
272000000   -885.77261    11491.643    12967.518    3994.5808    8382.8347    310.76031    13916 
273000000   -933.20879    11441.023    12892.096    4064.0676    8310.1644    308.95286    13926 
274000000    -866.4719    11492.424    12892.785    3973.0628    8385.8328    308.96936    13931 
275000000   -950.90089    11479.597    12718.171    4006.9069    8423.5909    304.78484    13939 
276000000   -965.95523    11382.177    12870.572     3981.403    8366.7288    308.43705    13943 
277000000   -956.69703     11402.95    12890.127    4016.8467    8342.8005    308.90566    13930 
278000000    -859.3269     11612.56    12817.313    4067.9511    8403.9361    307.16071    13898 
279000000   -930.51763    11629.379    12931.966    4041.0327    8518.8639    309.90832    13923 
280000000   -892.90228    11535.002    12940.385    4013.0197    8414.8847    310.11007    13928 
281000000   -990.67111    11433.636    12937.373      4077.42    8346.8875    310.03791    13941 
282000000   -916.69111    11480.154    12915.292    3972.2058    8424.6389    309.50875    13929 
283000000    -894.1879    11588.175    13102.889    3981.9467    8500.4163     314.0044    13913 
284000000   -973.64111    11480.073    12892.716    3960.0885    8493.6257    308.96771    13968 
285000000   -874.52901    11517.887    12970.972    4008.1497    8384.2662    310.84308    13902 
286000000   -928.44846    11432.864    12958.626    3920.8281    8440.4848    310.54722    13957 
287000000   -902.19794    11591.835    13085.379    4023.5525    8470.4808    313.58478    13920 
288000000   -920.08955    11435.548    12902.722    3936.2705    8419.3673    309.20749    13930 
289000000   -905.57382    11421.493    12799.348    3972.8876    8354.1791    306.73019    13928 
290000000   -919.28027    11487.015     12965.27    4012.6367    8393.6589    310.70644    13924 
291000000   -924.77725    11478.523    12958.532     3999.893    8403.4071    310.54497    13932 
292000000   -887.09192    11608.229    12930.454    4070.2994    8425.0214    309.87209    13915 
293000000   -948.16688     11493.75    13056.193     3936.542    8505.3746    312.88537    13949 
294000000   -871.18692     11411.81     12933.64    3956.1357    8326.8613    309.94845    13915 
295000000   -910.73293     11529.02    12925.332    4029.1239    8410.6291    309.74935    13929 
296000000   -953.61983    11544.234    12792.278    4029.9035    8467.9498    306.56076    13936 
297000000   -941.78107    11567.409    12921.973    3998.9603    8510.2296    309.66884    13941 
298000000   -901.03901    11523.778     12816.98    4005.0085    8419.8081    307.15274    13933 
299000000   -897.89555    11476.456    12858.344    3957.6557    8416.6963    308.14402    13936 
300000000   -897.00112    11597.602    12992.181    3918.3606    8576.2423    311.35134    13935 
301000000   -918.73096    11550.393    12914.093    3947.2019    8521.9222    309.48001    13931 
302000000   -985.05306    11369.216    12776.481    3947.0178    8407.2508     306.1822    13929 
303000000   -921.15417    11405.831      13104.2     3971.866    8355.1195    314.03582    13924 
304000000   -877.71101    11574.338    12963.867    4118.9923     8333.057    310.67281    13925 
305000000    -867.9724     11431.77    12855.564    3960.1197     8339.623    308.07739    13931 
306000000   -919.09745    11302.228    13040.127    3915.3919     8305.934    312.50035    13937 
307000000   -932.51189    11546.851    12981.758    4011.5849    8467.7776    311.10157    13935 
308000000   -897.12069    11553.038    12886.721    4031.3795    8418.7788    308.82406    13911 
309000000   -888.29111    11404.309    12762.319    3959.1975    8333.4025    305.84282    13909 
310000000    -916.7947    11335.669    12889.033    3972.5164    8279.9474    308.87944    13944 
311000000   -945.64605    11455.793    12843.634    4035.2117    8366.2278    307.79149    13926 
312000000   -910.21567    11430.152    12891.602    3985.0253    8355.3424    308.94101    13920 
313000000   -858.24091    11475.065    12888.929    3981.5464      8351.76    308.87695    13925 
314000000   -932.94206    11394.495    12852.326    3922.6568    8404.7807    307.99978    13924 
315000000   -980.38504    11411.386    12911.952    3970.4175    8421.3537    309.42869    13948 
316000000   -905.44222     11321.86     12895.85    3903.7744    8323.5273    309.04282    13933 
317000000    -930.4307    11633.772    12950.838    4027.5123    8536.6903    310.36058    13905 
318000000   -908.44742    11503.514    12919.968    3997.8242    8414.1377    309.62079    13934 
319000000   -902.15827     11559.72    12899.753    4008.8908    8452.9875    309.13635    13926 
320000000   -891.26596    11434.666     12866.76    3934.7182    8391.2136     308.3457    13931 
321000000   -878.77515    11463.331     12924.19    3950.9871    8391.1192    309.72198    13923 
322000000   -869.14375    11364.917    12870.357    3946.9526     8287.108    308.43189    13921 
323000000   -930.95921    11395.551     12922.49    4015.3261    8311.1843    309.68125    13926 
324000000   -962.08127    11555.839    13047.496    3994.2469    8523.6731    312.67694    13945 
325000000   -915.07954    11471.058    12982.235    3997.8301    8388.3078    311.11299    13928 
326000000   -932.38157    11470.725    12724.079    4027.9738    8375.1323     304.9264    13922 
327000000   -947.46976    11389.608    13011.605    3909.8524     8427.225    311.81683    13936 
328000000    -899.6779    11307.151     12829.87     3909.399    8297.4298    307.46165    13935 
329000000   -968.91205    11604.265    13025.052    4044.5837    8528.5934    312.13909    13930 
330000000   -921.09765    11587.983    13008.912    3966.0821    8542.9986     311.7523    13923 
331000000   -978.28369    11375.412    13029.808    3952.0849    8401.6104    312.25306    13933 
332000000   -977.59007    11416.341    13028.468    3942.0733    8451.8577    312.22095    13929 
333000000   -872.55799    11569.494    12801.962     4032.726     8409.326    306.79284    13911 
334000000   -902.07609    11483.661    13020.119    3936.3963    8449.3407    312.02088    13922 
335000000    -942.6913    11461.879    12947.793    3950.0419    8454.5288     310.2876    13906 
336000000   -917.21062    11419.341    12923.625    4006.6354     8329.916    309.70844    13927 
337000000   -896.06323    11529.611    13000.208    4044.8879     8380.786    311.54371    13933 
338000000   -907.53157     11322.87      12825.1    3944.8381    8285.5636    307.34733    13922 
339000000   -972.27348    11342.201     12996.92    3924.5298    8389.9442    311.46491    13943 
340000000   -914.51052    11218.947    12957.104    3863.1671    8270.2901    310.51074    13942 
341000000   -995.49495    11249.201    13013.882     3970.163    8274.5334     311.8714    13943 
342000000   -921.38184    11387.814    12933.247    3985.5171    8323.6789    309.93902    13943 
343000000   -971.58208    11494.909    12842.163    4014.3844    8452.1064    307.75625    13932 
344000000   -915.76026    11512.847     13044.04    3957.6354    8470.9714    312.59413    13933 
345000000   -910.31787    11467.583    12832.022    4006.3139    8371.5873    307.51322    13932 
346000000   -959.94892    11388.517    13016.053    3918.1561    8430.3094    311.92343    13951 
347000000   -964.58443    11327.437    13002.711    3911.4314    8380.5904    311.60369    13933 
348000000   -882.45968    11453.143    12658.587    4023.1306    8312.4719    303.35692    13921 
349000000   -967.69068     11446.41    12956.686    3993.6996    8420.4014    310.50073    13954 
350000000   -958.77284    11479.875    12856.622    4049.7402     8388.908    308.10274    13942 
351000000   -971.09335    11474.253    12961.758    3945.0433    8500.3034    310.62226    13931 
352000000    -927.9913    11441.105    12963.161    4001.3347    8367.7613    310.65589    13941 
353000000   -958.58627    11468.066    12927.412    4068.8818    8357.7706    309.79919    13927 
354000000   -927.43954    11457.186     12881.64    4017.9594    8366.6658    308.70229    13918 
355000000   -944.71307    11352.188    12860.222    3920.6459    8376.2551    308.18902    13942 
356000000   -930.87121    11427.804     12903.62    3906.4879    8452.1878    309.22902    13950 
357000000   -978.70029    11361.106    12900.484     3855.957    8483.8491    309.15388    13936 
358000000   -920.96778    11512.306    12889.579    4030.1096    8403.1644    308.89253    13914 
359000000   -902.17731    11578.976    12846.885     4075.707    8405.4465    307.86939    13909 
360000000   -887.56685    11524.324    12996.975    4037.3295    8374.5618    311.46624    13912 
361000000    -846.5528     11451.49    12962.802    3899.2292    8398.8139    310.64729    13921 
362000000   -935.89685    11506.167    12871.364    4005.2044    8436.8598    308.45603    13931 
363000000   -928.75721    11350.189    12832.866    3894.2834    8384.6629    307.53343    13950 
364000000   -1016.6103    11447.915    12795.751    4029.3414    8435.1837    306.64399    13934 
365000000   -918.82009    11509.156    12826.257    3973.2897    8454.6863    307.37505    13929 
366000000   -909.48505    11597.326      12999.4     4063.177    8443.6343    311.52433    13919 
367000000   -908.64145    11268.493    12908.414    3946.2286    8230.9059    309.34391    13933 
368000000    -913.0337    11547.682    13045.629    3936.6707    8524.0449     312.6322    13927 
369000000   -920.40643    11536.859    13107.534    4031.2297    8426.0355    314.11573    13923 
370000000    -917.7311    11317.529    12866.762    3901.7836    8333.4769    308.34574    13925 
371000000   -954.40361    11420.934    12774.609    3928.6079    8446.7302    306.13733    13931 
372000000   -973.44985    11384.952    12805.192    3939.9902    8418.4114    306.87025    13943 
373000000   -888.94051    11285.054    12934.516     3876.278    8297.7165    309.96944    13928 
374000000    -884.0199    11336.289    12881.931    3922.5118    8297.7967    308.70926    13938 
375000000   -954.33254    11312.799    12976.812    3830.0998    8437.0318    310.98303    13950 
376000000   -903.11314    11493.545    12935.369    3980.9553    8415.7033    309.98986    13919 
377000000   -894.47899    11516.144    12984.438    4018.0139    8392.6089    311.16579    13914 
378000000   -958.24831    11578.504    12917.421     4015.302    8521.4501    309.55977    13930 
379000000   -886.88126      11457.8    13049.179    3948.9843     8395.697    312.71729    13921 
380000000   -905.12099    11491.813    12800.508    4093.8602    8303.0741    306.75801    13931 
381000000   -895.24617    11630.406    12889.909    3978.3999    8547.2524    308.90044    13916 
382000000   -915.40075    11445.073    13053.664    3948.2563    8412.2172    312.82475    13928 
383000000   -962.21877    11421.249    12895.505    3945.6691    8437.7986    309.03455    13943 
384000000   -897.58504    11565.582     12807.27    4017.0773    8446.0901    306.92004    13918 
385000000   -893.93797    11522.773    12944.415    3972.8267    8443.8846    310.20666    13908 
386000000   -922.90518    11576.442    12748.792    4050.2143     8449.133    305.51865    13926 
387000000    -913.1153    11342.107    12929.277    3934.6916    8320.5308    309.84389    13938 
388000000   -853.58562    11481.062    12882.153     3992.091     8342.557    308.71457    13935 
389000000   -921.62633    11283.022     12900.57    3961.7559    8242.8919    309.15593    13918 
390000000   -881.49502    11534.093    12751.588    3937.5101    8478.0775    305.58565    13927 
391000000   -926.75867    11417.902    12807.915      3901.24    8443.4212    306.93551    13941 
392000000   -958.77601    11371.826    12924.713    3916.3403    8414.2615    309.73451    13935 
393000000   -943.94412    11560.067    12895.296    4043.7316    8460.2799    309.02955    13930 
394000000   -918.51896    11365.648     13143.57    3975.8477    8308.3188    314.97931    13924 
395000000   -971.27453    11286.953     12852.06    3806.7019    8451.5253    307.99341    13949 
396000000   -896.33959    11415.784    12762.967    4045.9257    8266.1977    305.85833    13924 
397000000   -940.26251    11307.947    12907.305     3936.162    8312.0476    309.31733    13941 
398000000   -919.21262    11475.495    12917.617     3996.792     8397.916    309.56446    13906 
399000000    -891.6863    11392.791    12908.012    3948.7949    8335.6825    309.33428    13919 
400000000    -931.9114    11312.177    12967.938    3901.1184    8342.9696    310.77038    13932 
401000000   -920.42254    11523.023    13077.711    4001.7994     8441.646    313.40102    13915 
402000000   -943.48177    11584.555    12968.378    4002.6962    8525.3409    310.78092    13919 
403000000   -925.02404    11563.211    12856.052    4050.2097    8438.0256    308.08908    13938 
404000000   -881.85342     11744.22    12987.986    4108.2757    8517.7976    311.25081    13929 
405000000   -899.55641    11508.272    12866.294    3988.6705    8419.1583    308.33452    13922 
406000000   -848.93667    11525.825     13005.13    3983.9578    8390.8044    311.66165    13918 
407000000   -896.10091    11360.477    12949.403     3879.968    8376.6094    310.32618    13929 
408000000   -939.99436     11461.34    13006.091    4030.3996    8370.9351    311.68469    13929 
409000000   -929.43113    11380.023    12928.888    3945.8213    8363.6324    309.83457    13925 
410000000   -915.58972    11416.396    12946.533    3961.3492    8370.6365    310.25741    13934 
411000000   -916.14915    11588.689    12860.588    4077.6701    8427.1678    308.19779    13924 
412000000   -981.32491    11482.633    13020.963    3990.0765    8473.8816    312.04109    13939 
413000000    -967.1442    11271.574     12987.04    3947.7162    8291.0016    311.22814    13935 
414000000   -941.61132    11470.765    12970.828    3887.2298    8525.1465    310.83962    13939 
415000000   -977.47451    11466.349    12977.848    3908.2669    8535.5563    311.00786    13946 
416000000   -1005.0667    11346.071    12895.197    3945.9744    8405.1636    309.02717    13931 
417000000   -959.72608    11475.147    12887.582    4028.2025    8406.6706    308.84467    13936 
418000000   -962.75998    11519.584    12945.735    4010.0646    8472.2791    310.23828    13939 
419000000    -932.6304     11528.92    12824.468    4003.7037    8457.8465    307.33219    13925 
420000000   -912.69947    11544.254    12958.403    3988.8643    8468.0892    310.54186    13917 
421000000   -915.35762    11544.417    13002.725    3981.7367    8478.0377    311.60403    13925 
422000000   -927.79548    11522.999    12860.615    3950.0115    8500.7833    308.19844    13944 
423000000    -887.5388    11422.423    12958.145    4000.4241     8309.538    310.53569    13923 
424000000   -947.16139    11391.759    12813.978    3942.7375    8396.1827    307.08079    13935 
425000000   -906.53863    11563.299    12863.387    4040.3305    8429.5075    308.26485    13932 
426000000    -924.8305    11483.445    13046.464    3982.4847    8425.7905    312.65221    13927 
427000000   -864.99875    11553.912     12941.17    3971.1471    8447.7633    310.12889    13913 
428000000   -905.34911    11525.753    12988.636    4072.9005    8358.2013     311.2664    13927 
429000000   -968.17942    11436.936    13073.913    3921.4428    8483.6727    313.31001    13922 
430000000   -886.27346     11632.31    13091.178     3995.452    8523.1314    313.72376    13925 
431000000   -919.85199    11415.291    12924.822    3988.6983    8346.4449    309.73711    13938 
432000000   -910.48179    11477.924    12704.258    4048.7494     8339.656     304.4514    13910 
433000000    -939.1544    11448.008    12828.915    3997.5721    8389.5906    307.43875    13940 
434000000   -935.16863    11511.805    12754.471     4056.994    8389.9798    305.65473    13932 
435000000   -920.75003    11442.758    12886.689     3988.425    8375.0826    308.82329    13958 
436000000   -887.62193    11511.578      13036.1    4003.6343    8395.5654    312.40384    13925 
437000000   -920.60423    11424.606    12759.932    3935.9913    8409.2191    305.78561    13937 
438000000    -920.3827    11614.441    12902.571    4052.5707    8482.2534    309.20388    13937 
439000000   -871.98703    11384.474    12905.493    3913.0839    8343.3769     309.2739    13928 
440000000   -889.23898    11521.443    12809.663    4001.3274    8409.3541    306.97738    13915 
441000000   -896.49307     11506.33    12900.092    3958.4089    8444.4138    309.14449    13928 
442000000   -931.98745    11637.771    12867.365    4071.1366    8498.6222    308.36019    13941 
443000000    -915.6789        11510    12875.647    4018.0346    8407.6447    308.55866    13947 
444000000   -933.77003    11449.764    12879.369    3927.9953    8455.5389    308.64785    13932 
445000000    -967.0357    11333.787    12933.002     3828.815     8472.008    309.93315    13950 
446000000   -961.31453    11474.116    12836.329    4041.1498     8394.281    307.61642    13951 
447000000   -939.94334    11334.805     12872.49    3981.8675    8292.8806    308.48302    13954 
448000000   -975.20617    11392.427    12971.607    3999.4495    8368.1837    310.85829    13947 
449000000   -922.26436    11360.537    12958.477    3864.7363    8418.0647    310.54364    13916 
450000000   -877.22456     11610.87    12851.711    3968.5935    8519.5015    307.98506    13912 
451000000   -884.66745    11542.417    13077.525    3968.3395    8458.7453    313.39656    13914 
452000000   -883.50202    11629.133    13017.547    4092.3367    8420.2986    311.95923    13927 
453000000   -867.40023    11376.418     12908.63    3949.2429    8294.5753    309.34909    13923 
454000000   -907.66861    11575.901    13031.978    3969.5746    8513.9952    312.30506    13926 
455000000   -899.38997    11581.343    12869.925    3993.3999    8487.3335    308.42155    13931 
456000000    -948.0585    11405.573    12908.165     3911.827    8441.8048    309.33795    13934 
457000000   -985.81517    11397.609    13049.382    3931.7007     8451.723    312.72214    13940 
458000000   -889.72739    11590.557    12917.086    4011.1258    8469.1585    309.55173    13916 
459000000    -931.8972    11494.464    12904.711    3981.3687    8444.9928    309.25517    13938 
460000000   -880.79932    11290.034    12899.071     3859.853    8310.9808    309.12001    13923 
461000000   -867.78638    11520.566    12872.749    3962.5746    8425.7781    308.48923    13923 
462000000   -878.05632    11702.925    12878.516    4057.7267    8523.2544    308.62742    13930 
463000000   -854.33592    11553.194    13044.962    4023.1934    8384.3364    312.61621    13917 
464000000   -884.30957    11547.694    12882.232    3928.2252    8503.7788    308.71646    13908 
465000000    -912.2109     11631.08    13024.361    3996.4859    8546.8053    312.12253    13904 
466000000   -879.38653    11589.552    12871.359    4021.0431    8447.8956    308.45591    13917 
467000000   -891.83775    11473.373    12745.749    3989.2431    8375.9673    305.44573    13917 
468000000   -880.68899    11555.243    12823.801    3994.4477    8441.4844     307.3162    13915 
469000000   -930.08594    11495.012    12942.427    4036.7338    8388.3643    310.15901    13922 
470000000   -876.66198    11578.137    12868.997    3985.0191    8469.7795    308.39931    13934 
471000000   -901.27313    11499.888    12904.055    3998.8763    8402.2847    309.23944    13926 
472000000   -898.04741    11331.877    12820.213    3974.5643    8255.3603    307.23022    13915 
473000000   -935.98092    11459.428    12874.948    4038.7155    8356.6934    308.54191    13912 
474000000   -887.74052    11414.702    12827.485    3968.9283    8333.5146    307.40447    13924 
475000000    -898.0194    11466.868    13001.555    3964.9665    8399.9212    311.57598    13934 
476000000   -863.43832    11523.504    13081.146    3970.7193    8416.2233    313.48334    13910 
477000000   -868.26901    11368.069    12738.404    3965.9004    8270.4373     305.2697    13917 
478000000   -861.16023    11636.311    13082.454    4012.8919    8484.5791    313.51469    13921 
479000000   -926.35906    11449.355    12887.832    3950.3111    8425.4028    308.85068    13927 
480000000   -876.68309    11539.584    13087.869    4008.4552    8407.8116    313.64446    13923 
481000000   -913.11609    11604.689    13002.477    4066.2074    8451.5978    311.59808    13893 
482000000   -912.50224    11453.427    12882.416    3997.2617    8368.6679    308.72089    13917 
483000000   -916.85041    11573.194    12942.712     3925.297    8564.7476    310.16585    13928 
484000000   -945.00575    11493.611    12768.819    4042.2568    8396.3599    305.99858    13901 
485000000   -954.06096    11197.888    12758.326    3971.6606    8180.2885    305.74711    13924 
486000000   -935.47123    11409.736    12975.277    3934.7521    8410.4555    310.94625    13935 
487000000   -915.44146     11526.46    12880.821    4033.9561    8407.9452    308.68267    13926 
488000000   -945.20192    11410.797    12991.512    4010.8964    8345.1029    311.33531    13942 
489000000   -962.14836    11446.977    13061.905    4026.4725    8382.6531    313.02224    13953 
490000000   -989.93584    11451.397    12960.557    4040.3764    8400.9562    310.59348    13921 
491000000    -939.1555    11501.478    12887.917    3921.1147    8519.5193     308.8527    13915 
492000000   -964.90028    11484.632    12890.346    3991.9621    8457.5699    308.91092    13919 
493000000   -929.89372    11195.257     12945.64     3849.127    8276.0237    310.23602    13955 
494000000   -973.18846    11405.714    13070.161    4012.7104    8366.1922    313.22009    13942 
495000000   -878.98639    11475.637    12899.724    3985.1264    8369.4968    309.13566    13946 
496000000   -918.54821    11398.283    12935.504    3905.2724    8411.5584    309.99311    13935 
497000000    -987.7282    11422.305    12962.851    3967.7299    8442.3037    310.64846    13926 
498000000   -924.59877    11487.653    13042.768    4003.6042    8408.6476    312.56363    13923 
499000000   -915.34663    11590.667    12999.354    4073.4467     8432.567    311.52325    13915 
500000000   -959.25997    11595.801    12922.377    3982.1801    8572.8806    309.67853    13921 
Loop time of 145267 on 28 procs for 500000000 steps with 14000 atoms

Performance: 7434.590 ns/day, 0.003 hours/ns, 3441.940 timesteps/s
99.5% CPU use with 28 MPI tasks x no OpenMP threads

MPI task timing breakdown:
Section |  min time  |  avg time  |  max time  |%varavg| %total
---------------------------------------------------------------
Pair    | 8324.8     | 9001.5     | 12300      | 732.4 |  6.20
Bond    | 5794.3     | 6242.4     | 12264      |1553.3 |  4.30
Neigh   | 28783      | 29057      | 29334      |  79.9 | 20.00
Comm    | 48715      | 56358      | 59121      | 940.5 | 38.80
Output  | 0.7323     | 0.73384    | 0.73641    |   0.1 |  0.00
Modify  | 26997      | 27242      | 27701      | 143.8 | 18.75
Other   |            | 1.737e+04  |            |       | 11.95

Nlocal:    500 ave 533 max 454 min
Histogram: 1 0 2 5 2 3 6 4 4 1
Nghost:    418.25 ave 590 max 261 min
Histogram: 1 6 1 3 3 5 1 4 3 1
Neighs:    2318.32 ave 3215 max 1501 min
Histogram: 1 2 5 4 4 1 5 4 1 1

Total # of neighbors = 64913
Ave neighs/atom = 4.63664
Ave special neighs/atom = 6.05086
Neighbor list builds = 100018478
Dangerous builds = 0
System init for write_restart ...
Total wall time: 40:21:13
