LAMMPS (5 Jun 2019)
Reading data file ...
  orthogonal box = (-420 -420 -420) to (420 420 420)
  2 by 2 by 7 MPI processor grid
  reading atoms ...
  14000 atoms
  scanning bonds ...
  51 = max bonds/atom
  scanning angles ...
  1 = max angles/atom
  reading bonds ...
  13800 bonds
  reading angles ...
  13600 angles
Finding 1-2 1-3 1-4 neighbors ...
  special bond factors lj:   0          0          0         
  special bond factors coul: 0          0          0         
  2 = max # of 1-2 neighbors
  2 = max # of 1-3 neighbors
  4 = max # of 1-4 neighbors
  56 = max # of special neighbors
  special bonds CPU = 0.00253831 secs
  read_data CPU = 0.0793285 secs
Finding 1-2 1-3 1-4 neighbors ...
  special bond factors lj:   1          1          1         
  special bond factors coul: 0          0          0         
  2 = max # of 1-2 neighbors
  2 = max # of 1-3 neighbors
  4 = max # of 1-4 neighbors
  56 = max # of special neighbors
  special bonds CPU = 0.000688578 secs
WARNING: Using 'neigh_modify every 1 delay 0 check yes' setting during minimization (../min.cpp:168)
Neighbor list info ...
  update every 1 steps, delay 0 steps, check yes
  max neighbors/atom: 2000, page size: 100000
  master list distance cutoff = 26.9
  ghost atom cutoff = 26.9
  binsize = 13.45, bins = 63 63 63
  1 neighbor lists, perpetual/occasional/extra = 1 0 0
  (1) pair lj/cut, perpetual
      attributes: half, newton on
      pair build: half/bin/newton
      stencil: half/bin/3d/newton
      bin: standard
Setting up cg style minimization ...
  Unit style    : real
  Current step  : 0
Per MPI rank memory allocation (min/avg/max) = 1.164 | 13.81 | 17.68 Mbytes
Step Temp E_pair E_mol TotEng Press 
       0            0 2.4262116e+12      2649600 2.4262142e+12 1.1227655e+09 
    7035            0   -6144.0854    5742.4468   -401.63854  -0.02117856 
Loop time of 2.0504 on 28 procs for 7035 steps with 14000 atoms

99.3% CPU use with 28 MPI tasks x no OpenMP threads

Minimization stats:
  Stopping criterion = energy tolerance
  Energy initial, next-to-last, final = 
     2.42621421633e+12     -401.614938723     -401.638544729
  Force two-norm initial, final = 2.10957e+10 0.584999
  Force max component initial, final = 1.04817e+09 0.0848794
  Final line search alpha, max atom move = 0.948135 0.0804771
  Iterations, force evaluations = 7035 9919

MPI task timing breakdown:
Section |  min time  |  avg time  |  max time  |%varavg| %total
---------------------------------------------------------------
Pair    | 0.16109    | 0.5213     | 0.97277    |  33.1 | 25.42
Bond    | 0.048256   | 0.1282     | 0.21127    |  12.5 |  6.25
Neigh   | 0.26499    | 0.26894    | 0.27361    |   0.4 | 13.12
Comm    | 0.27427    | 0.72265    | 1.1523     |  30.3 | 35.24
Output  | 0          | 0          | 0          |   0.0 |  0.00
Modify  | 0          | 0          | 0          |   0.0 |  0.00
Other   |            | 0.4093     |            |       | 19.96

Nlocal:    500 ave 824 max 176 min
Histogram: 2 2 4 3 3 2 5 4 0 3
Nghost:    338.464 ave 536 max 168 min
Histogram: 3 4 2 2 3 6 2 2 2 2
Neighs:    5465.89 ave 9884 max 1749 min
Histogram: 2 7 2 3 1 3 2 3 3 2

Total # of neighbors = 153045
Ave neighs/atom = 10.9318
Ave special neighs/atom = 5.82857
Neighbor list builds = 571
Dangerous builds = 0
Setting up Verlet run ...
  Unit style    : real
  Current step  : 7035
  Time step     : 0.1
Per MPI rank memory allocation (min/avg/max) = 1.128 | 14 | 16.55 Mbytes
Step Temp E_pair E_mol TotEng Press 
    7035            0   -6144.0854    5742.4468   -401.63854  -0.02117856 
   17035    215.28209   -4867.0421    9413.1544    13529.481   -1.0830476 
Loop time of 1.59032 on 28 procs for 10000 steps with 14000 atoms

Performance: 54.329 ns/day, 0.442 hours/ns, 6288.043 timesteps/s
99.4% CPU use with 28 MPI tasks x no OpenMP threads

MPI task timing breakdown:
Section |  min time  |  avg time  |  max time  |%varavg| %total
---------------------------------------------------------------
Pair    | 0.086555   | 0.31835    | 0.65139    |  30.2 | 20.02
Bond    | 0.038244   | 0.10752    | 0.17595    |  11.7 |  6.76
Neigh   | 0.002124   | 0.002232   | 0.00245    |   0.2 |  0.14
Comm    | 0.30192    | 0.63718    | 0.91935    |  23.4 | 40.07
Output  | 7.4071e-05 | 9.9079e-05 | 0.00012585 |   0.0 |  0.01
Modify  | 0.090875   | 0.25082    | 0.40782    |  17.4 | 15.77
Other   |            | 0.2741     |            |       | 17.24

Nlocal:    500 ave 822 max 174 min
Histogram: 2 2 4 3 3 2 4 5 0 3
Nghost:    338.75 ave 530 max 164 min
Histogram: 3 3 2 2 3 7 2 2 2 2
Neighs:    5462.36 ave 9818 max 1730 min
Histogram: 2 6 3 3 1 3 2 3 3 2

Total # of neighbors = 152946
Ave neighs/atom = 10.9247
Ave special neighs/atom = 5.82857
Neighbor list builds = 4
Dangerous builds = 0
4000 atoms in group rxnSites
Neighbor list info ...
  update every 1 steps, delay 1 steps, check yes
  max neighbors/atom: 2000, page size: 100000
  master list distance cutoff = 26.9
  ghost atom cutoff = 26.9
  binsize = 13.45, bins = 63 63 63
  2 neighbor lists, perpetual/occasional/extra = 1 1 0
  (1) pair lj/cut, perpetual
      attributes: half, newton on
      pair build: half/bin/newton
      stencil: half/bin/3d/newton
      bin: standard
  (2) fix bond/create/random, occasional, copy from (1)
      attributes: half, newton on
      pair build: copy
      stencil: none
      bin: none
Setting up Verlet run ...
  Unit style    : real
  Current step  : 0
  Time step     : 25
Per MPI rank memory allocation (min/avg/max) = 17.88 | 18.29 | 18.78 Mbytes
Step E_pair PotEng KinEng E_bond E_angle Temp Bonds 
       0   -4867.0421    4546.1123    8983.3687    3066.6571    6346.4973    215.28209    13800 
 1000000   -926.59752    11518.118    13059.538    3986.6193    8458.0965    312.96552    13911 
 2000000    -911.1287    11506.642    12953.914    3998.9341    8418.8368     310.4343    13924 
 3000000   -928.39994    11314.101    13025.289    3901.5154    8340.9856    312.14476    13934 
 4000000   -927.15139    11448.228    12742.687       3959.5    8415.8789    305.37234    13927 
 5000000   -926.54965    11409.783    12996.001    3925.3805     8410.952    311.44289    13944 
 6000000   -1006.5728    11337.043    12961.359    3885.0245    8458.5917    310.61271    13965 
 7000000   -978.74015    11332.358    12893.127    3930.6092    8380.4891    308.97755    13950 
 8000000   -949.53544    11462.674    12882.663     3988.735    8423.4748     308.7268    13954 
 9000000   -946.96067    11416.236    13015.258    3938.3783    8424.8183    311.90438    13937 
10000000   -966.79005    11421.288    12893.355    3931.1917    8456.8859    308.98303    13923 
11000000   -936.10865    11399.842     12976.66    3920.0492    8415.9014    310.97939    13907 
12000000   -956.96508    11282.958    12869.512    3893.3673    8346.5561    308.41165    13935 
13000000   -999.18845    11352.368    12997.692    3945.5861    8405.9705    311.48341    13957 
14000000   -964.83086     11486.35    12886.026    4030.3612    8420.8196    308.80738    13948 
15000000   -976.27461    11439.769    13016.944     3953.987    8462.0567    311.94478    13939 
16000000   -916.15548    11545.363    12988.746    4014.8151    8446.7036    311.26903    13936 
17000000   -950.41172    11383.224    12880.842    4003.7735     8329.862    308.68316    13938 
18000000   -978.69983    11311.438    13050.199    4010.6897    8279.4485    312.74172    13947 
19000000   -1022.7577     11344.55     12966.46    3959.8681    8407.4393    310.73495    13959 
20000000   -962.05682    11461.227    12949.668    3987.9388    8435.3445    310.33253    13939 
21000000   -921.56795     11577.63    13044.557    3995.6658    8503.5324     312.6065    13928 
22000000   -913.14843    11540.663    12931.264    3967.3847    8486.4269    309.89149    13962 
23000000   -980.01053    11159.094     12967.48     3839.988    8299.1169    310.75939    13954 
24000000   -919.87848    11546.998    12961.495    4048.4108    8418.4661    310.61596    13909 
25000000   -937.76878    11442.848    12987.559    3933.6811    8446.9352    311.24059    13961 
26000000   -902.28084    11359.813    12877.912    3956.9149    8305.1792    308.61295    13925 
27000000   -930.52702    11586.431    13069.798    4029.8408    8487.1174     313.2114    13923 
28000000    -908.0586    11597.276    12906.039    3986.4594    8518.8748    309.28699    13910 
29000000   -975.90473    11414.865    13137.061    4016.4202    8374.3494    314.82332    13936 
30000000   -921.26296     11441.04     12804.51    3938.6976    8423.6053    306.85391    13941 
31000000   -960.80596    11356.077     13074.51    3962.1002    8354.7831    313.32431    13937 
32000000   -974.33557    11453.748    12873.077    3991.3513    8436.7318    308.49708    13949 
33000000   -919.50074    11292.071    12844.926    3942.2457    8269.3258    307.82245    13949 
34000000   -995.83626    11320.547    12947.379    3950.3121     8366.071    310.27768    13945 
35000000   -924.59795    11607.718    12836.561    4035.5014    8496.8145    307.62199    13936 
36000000   -890.14247    11540.259    12997.837    3972.6385    8457.7629    311.48688    13946 
37000000   -882.11376    11473.368    12813.168    3995.3295    8360.1524    307.06139    13919 
38000000    -963.4041    11290.029    12996.315    3869.3991    8384.0344     311.4504    13953 
39000000   -897.15432    11635.837    12925.272    4075.1148    8457.8761    309.74791    13916 
40000000   -979.14041    11419.741    13029.424    3936.6682    8462.2128    312.24386    13945 
41000000   -957.20682    11296.342    12798.169    3903.0547    8350.4946    306.70195    13927 
42000000   -969.48468    11460.918     12782.97    4007.2371    8423.1657    306.33769    13951 
43000000    -909.0054    11397.081    12929.524    3871.9103    8434.1762    309.84979    13928 
44000000   -910.91563    11390.481    12828.667    3954.6901    8346.7062    307.43282    13916 
45000000   -842.28073    11489.996    12876.853    3963.8607    8368.4158    308.58756    13903 
46000000   -840.38153    11648.897    12818.629    4022.3218    8466.9567    307.19226    13906 
47000000   -901.65866    11572.417    12931.007    3998.7607    8475.3153    309.88535    13913 
48000000   -859.43679    11401.633    12896.382    3941.7348    8319.3348    309.05557    13924 
49000000    -864.8988    11525.676    12869.067    3986.7711    8403.8039    308.40099    13898 
50000000   -870.06313    11517.328     12959.46    3954.9731    8432.4179    310.56721    13904 
51000000   -858.35423    11623.442     12800.38    4069.8844    8411.9118    306.75492    13921 
52000000   -823.63287     11616.09     12777.03    4041.3562    8398.3666    306.19534    13897 
53000000   -956.66315    11533.281    12778.684    4052.3942    8437.5497    306.23499    13918 
54000000   -891.54374    11580.832     13031.32    4074.6813    8397.6942    312.28929    13922 
55000000   -836.30346    11491.539    13038.283    3989.4105    8338.4318    312.45616    13908 
56000000   -846.02224    11540.319    12949.263    4016.0334    8370.3077    310.32283    13898 
57000000   -870.50242    11415.526    12796.038    3876.9798    8409.0486    306.65088    13917 
58000000   -961.57877    11551.329    12798.712    4021.3061    8491.6017    306.71495    13937 
59000000   -929.94873    11481.822    12931.192    4000.6782    8411.0924    309.88978    13914 
60000000   -875.80326     11381.03    12733.303    3896.9013    8359.9322    305.14746    13948 
61000000   -905.03883    11584.548    13000.382     3973.108    8516.4788    311.54789    13935 
62000000   -939.66473    11598.094     12988.43    3957.9249    8579.8334    311.26145    13944 
63000000    -877.7612    11566.493    12949.822    3953.9432    8490.3107    310.33623    13933 
64000000   -902.30025    11505.856    12902.783    3961.5398    8446.6164    309.20896    13909 
65000000   -902.80216     11600.16    12749.076    4032.3507    8470.6115    305.52545    13923 
66000000   -921.10942    11529.212    12842.662    3975.6556    8474.6658    307.76818    13924 
67000000   -932.16627    11408.927    12965.608    3894.5453    8446.5478    310.71454    13929 
68000000   -894.13806    11500.336    12971.474    3974.0668     8420.407    310.85512    13936 
69000000   -959.72807    11233.168    13093.894    3865.8712    8327.0246    313.78886    13913 
70000000   -919.19397    11435.191    12853.338    3943.2273    8411.1577    308.02403    13921 
71000000   -966.99454    11620.983     12824.65    4052.7934    8535.1839    307.33655    13939 
72000000   -942.20124     11541.67    12973.296    4016.8696    8467.0019    310.89878    13932 
73000000   -885.71372    11571.856    12949.653    3971.5872     8485.983    310.33218    13927 
74000000   -913.72465    11523.401    12924.319    4017.4729    8419.6525    309.72506    13909 
75000000   -849.37523    11402.763    13053.204    3958.3229    8293.8151    312.81372    13907 
76000000   -888.26617    11441.599    12976.922    3908.1377    8421.7271    310.98567    13932 
77000000   -894.06611    11597.883    12986.897    4103.1588    8388.7906    311.22473    13922 
78000000   -858.57471    11682.866    13070.869    4076.1857    8465.2547    313.23706    13897 
79000000   -891.63832    11491.234    12970.508    3997.6367    8385.2355    310.83196    13921 
80000000    -877.6288    11555.988    12882.455    3982.6564    8450.9608    308.72182    13911 
81000000   -856.61244    11421.742    12936.416    3888.9622    8389.3918    310.01496    13923 
82000000   -879.53647    11542.711    12892.191    3935.3085    8486.9394    308.95514    13916 
83000000   -891.25033    11458.213    12863.147    3961.2441     8388.219     308.2591    13920 
84000000   -918.21574    11552.327    12893.228    4031.9668    8438.5755    308.97998    13910 
85000000   -929.26824    11360.055    12964.347    3923.1834    8366.1397    310.68431    13931 
86000000    -961.1576    11420.253    13013.499    4001.3196    8380.0912    311.86223    13933 
87000000   -964.43467    11493.717    12909.157    4002.9997    8455.1523    309.36172    13936 
88000000   -917.09098    11598.738    12983.223     3987.387     8528.442    311.13668    13911 
89000000   -928.16919    11489.665    13012.381    3965.1153    8452.7186    311.83542    13918 
90000000   -930.23947    11364.609    12870.029    3972.6255    8322.2233    308.42404    13925 
91000000   -941.17065      11475.3    13036.284    3962.9897    8453.4805    312.40826    13916 
92000000   -917.92672    11582.427    12903.649    4036.6947    8463.6595    309.22972    13911 
93000000   -847.07805    11617.022    13030.344    4030.2989    8433.8016    312.26591    13893 
94000000   -908.56637    11408.245    12931.937    3961.9288    8354.8827    309.90762    13915 
95000000   -908.41243    11372.841    12901.771    3931.8465    8349.4071    309.18471    13932 
96000000   -895.20477    11492.003    12918.191    3987.3626    8399.8456    309.57821    13911 
97000000   -903.39222    11488.058    12960.874    3992.1605    8399.2896    310.60108    13924 
98000000   -898.02054    11496.794    12816.578    4040.1174    8354.6972    307.14311    13924 
99000000   -891.30419    11550.851    12967.296    4020.7171    8421.4384    310.75498    13925 
100000000   -900.54407    11427.713    12927.777    3991.6538     8336.603    309.80792    13920 
101000000   -861.87198    11591.575    13041.642    4000.9256    8452.5214    312.53666    13926 
102000000   -909.28399    11529.495    12959.086    4030.9857    8407.7938    310.55825    13909 
103000000    -890.7587    11515.812    13042.261    4005.8689    8400.7013     312.5515    13931 
104000000   -916.06909    11636.549    12920.061    4031.8654    8520.7526    309.62304    13930 
105000000   -941.39853    11429.115    13036.656     3896.132    8474.3817    312.41717    13942 
106000000   -885.18349     11527.34    13036.143    3962.1066    8450.4167    312.40487    13920 
107000000   -908.65995    11567.068    12917.277    3970.1177    8505.6108     309.5563    13927 
108000000   -958.16392    11462.222    12834.912    3996.6862    8423.6994    307.58246    13924 
109000000   -968.63483    11297.135    13055.407    3884.7918     8380.978    312.86652    13929 
110000000   -892.76945    11457.864    13132.188    3957.7752    8392.8581    314.70654    13928 
111000000   -986.37117    11451.704    12880.079    4007.8375    8430.2378    308.66488    13936 
112000000   -927.86219    11563.406    13022.248    4011.8199    8479.4483    312.07189    13927 
113000000   -957.45597    11413.026    12826.387    3954.7974    8415.6849    307.37816    13947 
114000000    -909.5436    11321.755     12911.35    3906.3694    8324.9288    309.41426    13922 
115000000   -958.85456    11487.067    12756.858     4051.569    8394.3527    305.71194    13935 
116000000   -987.96851    11549.254    12980.935    4009.9728    8527.2495    311.08185    13941 
117000000   -872.87453    11698.079    13078.588    4078.6067    8492.3468    313.42205    13915 
118000000   -882.62416    11597.113    13042.568     3965.282    8514.4549    312.55885    13900 
119000000    -895.8277    11509.292    12935.029    4004.7491    8400.3707    309.98173    13934 
120000000   -909.32573    11501.164    12893.692    4019.5382    8390.9517     308.9911    13902 
121000000    -831.6215    11446.239    13075.678    3937.6753     8340.185     313.3523    13924 
122000000   -855.97645    11575.874    12860.368     3973.652    8458.1981    308.19251    13928 
123000000   -918.76722    11497.398    12979.168    3949.2307    8466.9342    311.03949    13925 
124000000   -912.37654    11284.262    13003.214    3913.9143    8282.7247    311.61573    13933 
125000000   -970.51461    11498.033    12803.699    3996.0896     8472.458    306.83447    13935 
126000000   -874.94937    11462.396    13007.181    3933.3304     8404.015    311.71081    13904 
127000000   -939.48689    11509.456    13013.906    3989.7743     8459.169    311.87199    13922 
128000000   -892.66927    11562.456    12806.025    4062.4094    8392.7154     306.8902    13937 
129000000   -897.40593    11486.234    12901.464    3968.2111    8415.4284    309.17735    13940 
130000000   -895.11055    11411.834    12877.794    3894.6547    8412.2899    308.61011    13932 
131000000   -916.81088    11395.292    12864.842     3899.023    8413.0804    308.29973    13922 
132000000   -937.96356    11502.034    12989.564    4016.8188    8423.1787    311.28864    13922 
133000000   -912.53898    11374.677    12873.486    3960.3681    8326.8478    308.50688    13942 
134000000   -928.18069    11409.717    13033.821    3946.8548     8391.043    312.34922    13905 
135000000   -883.21658    11477.877    12687.209    3965.4921    8395.6013    304.04283    13904 
136000000   -883.82167    11612.983    12883.727    4006.3459    8490.4589     308.7523    13921 
137000000   -871.50883    11442.857    12963.873    4017.0766    8297.2897    310.67296    13904 
138000000    -959.9644    11480.382    12950.261    3998.7775    8441.5689    310.34676    13946 
139000000   -887.31228    11558.784    12918.839    4049.5975    8396.4993    309.59373    13929 
140000000   -979.40655     11486.95    12914.848    4019.1893    8447.1669     309.4981    13954 
141000000    -937.2348    11352.117      12884.2    3910.8906    8378.4612    308.76363    13921 
142000000   -923.77395    11341.228    12796.874    3975.0596    8289.9427     306.6709    13940 
143000000   -974.36541    11502.717    12731.914      3969.91    8507.1728    305.11418    13942 
144000000   -946.54578    11435.951    12895.598    4019.7663    8362.7309    309.03677    13947 
145000000   -893.88281    11438.614    12926.982    3999.4684    8333.0282    309.78889    13931 
146000000   -1006.9158    11457.435    12865.709    3922.6098    8541.7411     308.3205    13950 
147000000   -929.25941    11419.044    12900.194    3996.6636    8351.6402    309.14693    13901 
148000000   -937.53462    11560.249    12827.515    4025.9917    8471.7921     307.4052    13942 
149000000   -946.24832    11431.069    12885.255     3937.447    8439.8707    308.78891    13930 
150000000   -982.81546    11476.195    12680.055    3976.7989     8482.212    303.87141    13951 
151000000   -994.18683    11498.304    13004.259    3984.4229    8508.0683     311.6408    13941 
152000000   -924.91311    11615.727    12964.247    4073.6897    8466.9502    310.68191    13948 
153000000    -980.1933     11408.71     12980.08     3959.192    8429.7118    311.06135    13955 
154000000   -951.85344     11489.05    12863.002    3985.5855    8455.3177    308.25564    13944 
155000000   -869.42044    11577.909    12821.562    3925.5767    8521.7524    307.26255    13927 
156000000   -912.79091    11444.324    12932.519    3956.3516    8400.7635    309.92157    13929 
157000000   -868.41832    11650.491    12805.689    4099.7357    8419.1736    306.88216    13914 
158000000   -893.81348    11551.516    13036.331    4068.1669    8377.1627    312.40938    13913 
159000000   -946.67742    11541.562    12906.986    3985.7349    8502.5044    309.30968    13921 
160000000   -892.37219    11488.064    12888.467    3968.8341     8411.602    308.86589    13931 
161000000   -928.36577    11473.583    12938.973    3977.8707    8424.0784    310.07625    13929 
162000000   -915.21261     11571.21    12963.012    3966.3389    8520.0835    310.65232    13930 
163000000   -893.16167    11641.124    12987.523    4050.3926    8483.8933    311.23971    13909 
164000000   -916.48149    11517.475     12901.45    4001.1769    8432.7794    309.17702    13925 
165000000   -915.89269    11347.039     12840.11    3906.0179    8356.9143    307.70703    13936 
166000000    -919.8119    11425.378    13070.304    4024.3507    8320.8396    313.22353    13925 
167000000   -846.28165    11572.495    12960.494     4016.215    8402.5613    310.59198    13923 
168000000   -838.57106    11410.679    12897.452     3969.616    8279.6337     309.0812    13894 
169000000   -897.55484    11673.766     13078.81    4068.2003     8503.121    313.42737    13914 
170000000   -940.73119      11476.9    12860.092    4041.5668    8376.0647    308.18591    13918 
171000000   -887.11219    11365.847    13042.719    3980.0414    8272.9177    312.56246    13927 
172000000   -946.83822    11390.226    12840.337    3920.6238    8416.4406    307.71248    13938 
173000000   -907.95468    11492.783    13073.017     3990.612    8410.1258    313.28855    13925 
174000000   -977.41125    11488.923    12866.244    3941.5272    8524.8074    308.33334    13954 
175000000   -977.83069    11311.469     12857.37    3896.5828    8392.7167    308.12068    13937 
176000000   -967.78799    11339.855    13116.994    3839.4276    8468.2152    314.34243    13959 
177000000   -921.20524    11298.833     12772.61    3916.1088    8303.9293    306.08944    13932 
178000000    -906.8863    11605.682    13053.105    4064.6563    8447.9115    312.81136    13942 
179000000   -919.59905    11378.533    12971.201    3925.7737    8372.3584    310.84856    13952 
180000000   -917.66008     11277.28    13003.752    3876.9452    8317.9947    311.62865    13947 
181000000   -980.30634    11539.247     12865.38    4019.8798    8499.6731    308.31261    13938 
182000000    -920.5936    11476.363    12987.381    3933.9111    8463.0459    311.23631    13937 
183000000   -884.79799    11401.729    12829.546    3884.3262    8402.2007    307.45387    13917 
184000000   -959.86088    11395.739    12934.274    3899.1644    8456.4352    309.96363    13941 
185000000   -991.47885    11392.035    12821.316    3841.5921    8541.9217    307.25666    13978 
186000000   -927.12431    11446.265    12940.714    4022.0888    8351.3008    310.11798    13944 
187000000   -984.70389    11400.684    13003.641     3993.797    8391.5905    311.62599    13971 
188000000   -921.19684    11356.199    13002.996     3907.228    8370.1679    311.61051    13935 
189000000   -915.19357    11424.269    12860.299    3975.2985    8364.1636    308.19086    13939 
190000000   -921.67741    11365.236    12728.597    3885.7337    8401.1798    305.03468    13948 
191000000   -915.68594    11391.577    12850.528    3962.6797    8344.5831    307.95671    13928 
192000000   -952.40149    11482.689    13115.498    3972.4367     8462.654    314.30659    13924 
193000000   -919.78847    11458.823    12831.087    3975.7605    8402.8506     307.4908    13929 
194000000   -980.31026    11411.938    12888.654    3961.0652    8431.1826    308.87038    13946 
195000000   -943.94234      11386.1     13077.49     3944.903    8385.1396    313.39574    13932 
196000000   -906.49759    11461.296    12846.023    3969.4745    8398.3194    307.84875    13930 
197000000   -1009.9003    11295.754    12953.381    3994.3788    8311.2752    310.42151    13940 
198000000   -985.80652    11422.079    13017.112    3979.6739    8428.2115     311.9488    13937 
199000000   -964.20921    11521.872    12893.683    3980.8194    8505.2615    308.99089    13938 
200000000   -903.38457    11407.336    12937.689     3961.536    8349.1841    310.04546    13926 
201000000   -922.84109    11393.707    12901.619    3972.6226    8343.9258    309.18108    13925 
202000000   -912.86851    11408.839    13007.061    3894.7879    8426.9193    311.70793    13932 
203000000   -925.05713    11507.683    12987.905    3962.1236    8470.6167    311.24886    13921 
204000000   -970.14747    11457.857    12882.972    3955.3293    8472.6749    308.73421    13940 
205000000   -927.90803    11509.101    12900.284    3956.2971    8480.7122    309.14908    13934 
206000000   -969.65056    11311.084    12821.629    3933.7622    8346.9721    307.26414    13941 
207000000   -908.85187     11434.13    12858.806    3911.4355    8431.5464    308.15507    13928 
208000000   -994.87788    11310.665    12869.799    3904.6528    8400.8904    308.41853    13954 
209000000   -943.04605    11339.171    13017.147    3995.4934    8286.7235    311.94963    13922 
210000000   -979.77332    11322.677    13043.257    3937.1004      8365.35    312.57536    13954 
211000000   -1070.5166    11206.777    12838.516    3829.7486    8447.5452    307.66883    13976 
212000000   -991.46304     11322.13    12799.604    3971.1507    8342.4424    306.73634    13948 
213000000   -1017.0885    11297.205     12925.43    3917.5662    8396.7277    309.75168    13980 
214000000   -938.95631    11511.751    12958.237    3926.7362    8523.9711     310.5379    13941 
215000000   -1012.2447     11341.69    12924.798    3992.6758     8361.259    309.73653    13924 
216000000   -944.39808    11425.314    12953.124    3923.7078    8446.0043    310.41537    13941 
217000000     -889.688    11515.321    12823.023    3911.0352     8493.974    307.29754    13925 
218000000   -972.26321     11595.34    12858.087    4018.7676    8548.8353    308.13785    13927 
219000000   -985.44082      11351.2    12981.405    3902.6489    8433.9919    311.09311    13949 
220000000   -867.32135    11515.037    12856.974     3949.254    8433.1041    308.11117    13910 
221000000   -903.10573    11614.001    12865.646    3984.4354    8532.6714      308.319    13907 
222000000   -932.38163    11562.924    12921.055    4001.0359    8494.2699    309.64686    13924 
223000000   -984.44685    11386.304    12936.439     3879.063     8491.688     310.0155    13931 
224000000   -902.70561    11656.286     12873.02    4080.0907    8478.9006    308.49571    13912 
225000000   -968.45665    11432.632    12915.894    3983.0674    8418.0208    309.52317    13933 
226000000    -916.1924     11422.03    12879.466    3976.6475    8361.5744    308.65019    13948 
227000000   -929.66656    11360.928    12911.762    4050.2206    8240.3738    309.42414    13935 
228000000    -981.0913    11515.561    12744.844    3968.3958    8528.2563    305.42404    13948 
229000000   -946.28586    11698.839    13033.464    4086.8006    8558.3241    312.34067    13941 
230000000   -907.49427    11422.454    13120.346    3973.2102    8356.7382    314.42277    13925 
231000000   -869.82641    11593.716    12934.079    3997.0019    8466.5406    309.95897    13905 
232000000   -951.80896    11653.863    12891.853    4118.9244    8486.7474    308.94705    13920 
233000000   -949.42188    11419.388    12730.338     4033.293    8335.5166    305.07641    13938 
234000000   -841.40223     11609.83    12831.049    3954.9273     8496.305    307.48989    13906 
235000000   -915.09307    11468.297     12703.02    3876.3842    8507.0056    304.42175    13928 
236000000   -967.95166    11350.903     12911.63    3935.4894    8383.3651    309.42098    13929 
237000000   -890.27425    11589.848    12848.429    4016.9142    8463.2083     307.9064    13926 
238000000   -915.53686    11432.779    13074.808    3918.5664    8429.7491    313.33146    13938 
239000000   -924.69988    11592.144    13004.821    3990.1076    8526.7358    311.65427    13919 
240000000   -948.88829    11393.655    12898.535    3987.4313    8355.1122    309.10717    13940 
241000000    -990.9982    11278.673    13009.331    3910.4177    8359.2538    311.76234    13938 
242000000   -996.30936     11322.25    13116.591     3937.378    8381.1811    314.33276    13928 
243000000   -917.11119    11468.873    12878.957    3946.2162    8439.7676      308.638    13926 
244000000    -965.7265    11284.552    12905.568     3866.034    8384.2447    309.27571    13947 
245000000   -891.48894    11518.998    13007.649     4034.665    8375.8216    311.72204    13951 
246000000   -951.01956    11441.599    12822.637    3994.0776    8398.5409    307.28832    13946 
247000000   -867.34199    11595.729    12919.874    3925.9133    8537.1574    309.61854    13921 
248000000   -900.80978    11450.545    12953.975    4019.1517    8332.2027    310.43576    13923 
249000000   -899.17564    11476.518    12840.715    4014.8246     8360.869    307.72154    13915 
250000000   -943.03607    11561.955    12957.921    4041.4894    8463.5015    310.53033    13946 
251000000   -893.24904    11569.959    13099.508    3991.4346     8471.774     313.9234    13926 
252000000   -856.70141     11447.95    12757.523    3945.7725    8358.8792    305.72788    13918 
253000000   -944.82289     11438.21    12912.227    3915.2437    8467.7892    309.43529    13928 
254000000   -941.51063    11605.293    12895.158    4068.0907    8478.7126    309.02624    13937 
255000000   -964.54176    11452.353    12918.167    3925.7255    8491.1697    309.57763    13925 
256000000   -928.02972    11570.922    12915.164    4009.3888    8489.5631    309.50568    13925 
257000000   -922.82835    11507.083    12972.799    4003.8035    8426.1076    310.88687    13933 
258000000   -973.58755    11501.837    12960.525    4011.1218    8464.3026    310.59271    13915 
259000000   -969.27345    11422.319     13073.71    3981.1085    8410.4835    313.30515    13938 
260000000   -922.44274    11441.662    12813.531    4013.2921    8350.8127    307.07009    13933 
261000000   -880.82861    11434.416    12952.131    3987.2923    8327.9523    310.39158    13926 
262000000   -867.29089    11672.923    12972.104    4066.1511    8474.0627     310.8702    13919 
263000000   -890.35217    11501.937    12933.776    3980.1993    8412.0902    309.95171    13925 
264000000   -915.38831    11648.449    12977.743    4027.7649    8536.0721    311.00536    13925 
265000000   -888.69149    11468.578     12983.23    3953.8588    8403.4102    311.13685    13909 
266000000   -840.69908    11393.015    12959.134    4011.3424    8222.3716    310.55938    13890 
267000000   -951.34133    11670.098    12918.654    3948.0263    8673.4132     309.5893    13917 
268000000   -944.68959    11334.531    12953.462    3893.7428    8385.4779    310.42346    13953 
269000000   -950.86051     11330.24    12965.296    3896.9889    8384.1117    310.70705    13944 
270000000   -926.92513     11523.71    12926.323    4052.0202    8398.6144     309.7731    13938 
271000000   -978.84467    11408.408    12950.239    3967.6062    8419.6462    310.34623    13948 
272000000   -952.85166      11409.9    12882.575    3923.4206     8439.331     308.7247    13935 
273000000   -974.88229    11561.017    12852.464    3961.6643    8574.2353    308.00309    13930 
274000000   -915.98701    11462.188    12778.988    3978.4158    8399.7591    306.24228    13911 
275000000    -865.2437    11576.487    12964.227    4028.7165    8413.0144    310.68145    13905 
276000000   -919.07333    11492.323    13041.655    4013.9282    8397.4684    312.53696    13920 
277000000   -891.12522    11442.397     12873.54    3984.3163     8349.206    308.50817    13926 
278000000   -895.29533    11523.952    12913.171     3952.717      8466.53     309.4579    13923 
279000000   -914.47491    11471.522     12790.86    3971.3462    8414.6508    306.52677    13932 
280000000    -941.9411    11329.261    13068.531    3953.9452    8317.2573    313.18105    13943 
281000000   -894.58784    11523.929    12885.984    3977.5525    8440.9642     308.8064    13945 
282000000   -886.20001    11338.287    12988.062    3880.0457    8344.4416    311.25265    13934 
283000000    -888.3928    11353.579    12838.226    3896.2437    8345.7276    307.66189    13915 
284000000   -919.53196    11420.349    12921.511    3971.4668    8368.4144    309.65777    13932 
285000000    -915.1191    11546.528    12952.408    4015.7533    8445.8939     310.3982    13921 
286000000   -913.80201    11503.279    12924.962    4019.4875    8397.5936    309.74048    13933 
287000000   -938.64415     11477.97     12814.35    4041.7257    8374.8888    307.08972    13925 
288000000   -917.88087    11496.669    12848.182    4014.5166     8400.033    307.90049    13931 
289000000   -921.19572    11576.911    13000.882    4102.3577    8395.7487    311.55986    13928 
290000000   -972.24838    11366.207    12800.523    3945.6886    8392.7666    306.75835    13950 
291000000   -937.19667    11416.201    12874.876    3931.5025    8421.8954    308.54019    13929 
292000000   -908.37687    11386.124    13108.973    3866.4258     8428.075     314.1502    13949 
293000000   -907.84292    11517.857    12886.139    3989.5589    8436.1412     308.8101    13918 
294000000    -944.4171    11522.691    12914.423    4014.7272    8452.3805    309.48791    13933 
295000000   -965.89988    11372.918     12922.55    3877.0031    8461.8148    309.68268    13938 
296000000   -928.71666     11253.53    12837.041    3920.1857    8262.0606    307.63349    13961 
297000000   -941.00686     11559.14    13009.273    3981.4831    8518.6634    311.76096    13915 
298000000   -954.73116    11444.975    13021.417    3925.2492    8474.4572    312.05198    13931 
299000000    -889.3183    11474.363    12947.645    3958.2636    8405.4173    310.28406    13940 
300000000   -875.32352     11457.06    12960.942    4024.5069    8307.8763    310.60272    13917 
301000000    -853.4604    11547.107    13083.365    3971.8189    8428.7482    313.53652    13903 
302000000   -871.97207    11551.494    12827.769    4013.0655    8410.4001     307.4113    13904 
303000000    -892.5532      11463.7     12902.75    3977.5178    8378.7358    309.20818    13913 
304000000   -907.97966    11559.885    12896.041    4001.2555    8466.6089    309.04739    13921 
305000000   -864.19104    11503.352    13049.733    3920.0746    8447.4687    312.73054    13908 
306000000    -902.3244      11369.5    12964.084    3924.8848    8346.9394    310.67802    13917 
307000000    -899.0994    11524.994    12966.493    3940.4832    8483.6105    310.73574    13921 
308000000   -939.50299    11389.471    12941.058    3920.3434    8408.6302    310.12621    13926 
309000000   -876.15923    11601.464    12751.604    4036.6333    8440.9903    305.58602    13911 
310000000    -931.5464    11391.685    13007.211    3922.5693    8400.6619    311.71152    13957 
311000000   -918.30226    11438.073    12883.206    3985.3133    8371.0617    308.73982    13910 
312000000   -863.39096    11483.628    12979.743    3968.1998    8378.8187    311.05327    13902 
313000000    -936.2743    11498.202     12999.56    3941.2566    8493.2197    311.52817    13914 
314000000   -895.66809    11322.993    13004.265    3922.7239    8295.9372    311.64092    13928 
315000000   -863.15284    11585.933    12750.227    3941.3926    8507.6929    305.55305    13920 
316000000    -948.7942    11290.008    12784.199    3953.0877    8285.7146    306.36715    13948 
317000000   -945.59115    11423.198    12914.114    3911.7414    8457.0474     309.4805    13945 
318000000   -961.24716    11294.297    12865.795    3924.2872    8331.2572    308.32256    13947 
319000000   -969.02131    11442.301     12945.27    4048.6451    8362.6776    310.22714    13934 
320000000   -1023.5183    11395.065    13037.089    3954.7393     8463.844    312.42754    13950 
321000000   -934.14259    11458.101    12865.895    3897.3833      8494.86    308.32497    13939 
322000000   -887.77722    11438.848    12986.636    3932.1372    8394.4883    311.21845    13926 
323000000   -882.32904    11464.912    12965.544    4070.3842    8276.8572      310.713    13921 
324000000   -923.33512    11498.599    13052.811    4049.4579    8372.4766    312.80431    13949 
325000000   -912.58043    11545.533    13027.192    4036.5365    8421.5767    312.19037    13933 
326000000    -927.6891    11601.078     12867.05    4064.6042    8464.1625    308.35264    13936 
327000000   -891.84594    11615.586    12983.511    4016.6292    8490.8024    311.14357    13915 
328000000   -894.07191    11617.191    13008.966    4021.4528    8489.8105    311.75358    13907 
329000000   -899.13357    11554.159    12927.978    4037.5417    8415.7505    309.81274    13921 
330000000    -869.5769    11447.956    12972.129    4024.9794    8292.5539    310.87081    13914 
331000000   -939.65658    11500.134    12872.568    3982.1813    8457.6095    308.48489    13920 
332000000   -917.46848    11440.675    12978.068    3964.6029    8393.5406    311.01314    13937 
333000000   -922.63024    11502.894    13021.901    3979.4819    8446.0422    312.06356    13933 
334000000   -893.79002     11398.89    13053.124    4000.0504    8292.6294    312.81182    13925 
335000000   -895.97996    11669.943    12881.414    4126.6104    8439.3127    308.69686    13927 
336000000   -883.18256    11465.784     12899.49    3931.3763    8417.5902    309.13005    13901 
337000000    -896.0008    11676.571    12792.911    4137.9822    8434.5896    306.57594    13919 
338000000    -939.4572    11459.957    12947.566    3990.4067    8409.0072    310.28217    13921 
339000000   -899.90043     11520.31    12885.879    4072.9407    8347.2698    308.80386    13934 
340000000   -896.62231    11468.633    12967.557    3922.9882    8442.2674    310.76124    13926 
341000000   -901.41045     11503.34    12967.925    3946.6407      8458.11    310.77006    13919 
342000000   -927.58834    11626.647      12927.8    4034.9329    8519.3024    309.80848    13938 
343000000   -883.67634    11588.151    12755.067    4021.8307    8449.9965    305.66903    13921 
344000000   -866.03671     11604.67    12936.477    3987.0562    8483.6507    310.01642    13897 
345000000   -829.71114    11586.789    12811.367     4040.381    8376.1195    307.01822    13904 
346000000   -861.32689    11520.372    12917.919    4052.4968    8329.2023    309.57169    13896 
347000000   -891.29505    11484.825    12988.441    3970.9847    8405.1349    311.26173    13914 
348000000   -885.54353     11534.52    13066.418    3991.3088     8428.755    313.13041    13905 
349000000   -901.70445    11519.158    13098.645    3955.1168    8465.7453     313.9027    13931 
350000000   -893.81628    11470.685     12769.57    3966.3321    8398.1697    306.01658    13929 
351000000    -848.5743    11474.056    12872.767    3928.3907    8394.2393    308.48964    13910 
352000000   -889.77185    11505.253     13039.85    4054.3621    8340.6626    312.49371    13925 
353000000   -930.54452    11474.602    12836.503    4000.1965    8404.9501     307.6206    13924 
354000000   -909.65401    11472.853    12914.236    4054.6878    8327.8188    309.48342    13914 
355000000    -946.5006     11470.94    12772.479    4083.2278    8334.2132    306.08629    13954 
356000000   -919.28461    11458.782     12810.16    3919.5878    8458.4791    306.98929    13918 
357000000   -884.01976    11486.758    12981.571    3955.6404    8415.1375    311.09709    13925 
358000000   -939.21942    11463.517    12988.644    4021.2105    8381.5257    311.26659    13923 
359000000   -967.66188    11421.555    12987.633    3981.0185    8408.1988    311.24236    13929 
360000000   -931.35341    11549.303    12941.422    4027.9749     8452.682    310.13492    13935 
361000000   -986.20485    11276.636    12934.739    3931.1387     8331.702    309.97477    13951 
362000000   -938.60732    11332.829    12926.909    3875.8387    8395.5977    309.78713    13941 
363000000   -915.15293     11498.67    12936.516    4039.6145    8374.2089    310.01736    13952 
364000000   -952.45324     11349.42    12841.573    3940.5132    8361.3605     307.7421    13928 
365000000   -957.48628    11421.948    12934.962    3962.5279    8416.9067    309.98011    13932 
366000000   -923.65058    11325.857    12807.094     3916.207    8333.3004    306.91582    13953 
367000000   -909.67708    11544.998    12860.036    4057.3332    8397.3417    308.18455    13908 
368000000   -923.21589    11531.158    13028.884    3966.7881    8487.5863    312.23092    13933 
369000000   -869.14963    11554.534    13065.016    3972.9202     8450.763     313.0968    13909 
370000000   -863.05312    11398.698    12894.904     3980.993    8280.7579    309.02015    13914 
371000000   -955.85372    11499.958    12934.732    3972.0532    8483.7583     309.9746    13939 
372000000     -955.848    11326.344    12977.159    3922.3155    8359.8765    310.99136    13946 
373000000   -941.55594    11390.496    13047.054    3976.1055    8355.9462    312.66636    13927 
374000000   -953.13516     11353.47    12966.521    3907.0937    8399.5115    310.73642    13956 
375000000   -977.75993    11347.255    12874.057    3927.3801    8397.6346    308.52055    13940 
376000000   -978.95566    11391.384    12944.521    3969.8595    8400.4801    310.20919    13938 
377000000   -956.83965    11233.814    12867.675    3918.1305    8272.5234    308.36762    13942 
378000000   -919.25705    11506.992    12893.455     4023.972    8402.2773    308.98541    13939 
379000000   -928.44251    11396.032    12949.959    3922.6541    8401.8209    310.33951    13935 
380000000    -975.8273    11468.896    12787.743    3974.5196    8470.2032    306.45208    13933 
381000000   -964.62219    11446.285    13026.847    4006.8599    8404.0474     312.1821    13937 
382000000   -939.17642    11471.876    13013.599    4070.1836    8340.8692    311.86461    13930 
383000000   -958.94884    11527.446    12940.385    4035.5199    8450.8749    310.11008    13935 
384000000   -1023.6635    11229.747    12862.252    3843.4523    8409.9581    308.23765    13980 
385000000    -939.1385    11538.096    13172.945    4007.0326    8470.2016    315.68327    13926 
386000000    -888.9121    11387.476    12912.187    3865.1596    8411.2289    309.43433    13929 
387000000    -920.2747    11684.057    12981.365    4022.2905    8582.0412    311.09214    13933 
388000000   -906.95695    11540.548    13052.006    4006.5095    8440.9953    312.78502    13929 
389000000   -930.67367    11660.085    12939.153    4006.0539    8584.7052    310.08055    13925 
390000000   -929.67432    11474.557    12890.765     4023.263    8380.9685    308.92096    13923 
391000000   -888.93232    11465.758    12907.439    3986.2329     8368.457    309.32055    13938 
392000000   -970.67103    11483.549    12983.257    3994.0545    8460.1651    311.13748    13931 
393000000   -865.69242    11619.076      12754.3    4005.6235    8479.1451    305.65064    13915 
394000000   -948.43531    11423.471    12907.535    3966.0165    8405.8895    309.32285    13948 
395000000   -981.53115    11374.163    12760.594    3981.2895    8374.4044    305.80147    13963 
396000000   -964.65799    11492.923     13054.07    4025.8228    8431.7581    312.83448    13931 
397000000   -1018.8519    11459.184    12917.475    4045.7713    8432.2648    309.56104    13942 
398000000    -930.9243    11420.767    12854.498    3998.7778    8352.9131    308.05184    13940 
399000000   -966.21066    11355.671    12966.047    3934.3458    8387.5358    310.72507    13959 
400000000   -950.25217    11307.812    12932.336    3846.8986    8411.1651    309.91719    13936 
401000000   -1019.5843    11428.228    12900.682    3988.7554     8459.057     309.1586    13941 
402000000   -997.40048     11221.12    12874.017    3868.7445    8349.7758     308.5196    13944 
403000000   -922.66645    11424.568    12928.576     4027.179    8320.0558    309.82709    13936 
404000000   -980.33906    11308.859    12978.134     3928.111    8361.0874    311.01472    13961 
405000000   -992.68557    11415.721    12807.033    3949.7728     8458.634    306.91435    13956 
406000000    -957.4906    11355.664    12923.491    3903.6418    8409.5133    309.70521    13947 
407000000   -908.62266    11471.391    13111.606    3978.8217    8401.1922     314.2133    13936 
408000000   -925.89691    11377.475    12903.307    4029.4535    8273.9183    309.22152    13934 
409000000   -940.18937    11424.898    13018.887     3981.677    8383.4105    311.99134    13943 
410000000   -902.03568    11374.349    12975.991    3930.3265    8346.0582    310.96335    13935 
411000000   -867.46462    11532.265     12835.52    3960.5649    8439.1645    307.59704    13938 
412000000   -935.10116    11404.405    12886.782    3970.4036    8369.1024    308.82552    13924 
413000000   -938.76731    11496.201    13007.621    3959.6425    8475.3256    311.72136    13919 
414000000   -853.08816     11506.98    12980.497    3933.6516    8426.4167    311.07134    13921 
415000000   -892.65743    11479.602    12928.406    3991.5387     8380.721      309.823    13918 
416000000   -878.47229    11644.406    12971.481    4068.7094    8454.1691    310.85528    13914 
417000000   -914.20686    11625.266     12939.84    4077.8181    8461.6547    310.09702    13928 
418000000   -965.74001    11340.223    12971.048    3873.5013    8432.4621    310.84491    13923 
419000000   -923.53221    11401.942    12898.968    3988.0693    8337.4049    309.11755    13914 
420000000   -879.56979    11371.963    12823.648     3915.884    8335.6484    307.31252    13935 
421000000   -854.65727    11629.538    13123.642     4002.341    8481.8545    314.50176    13911 
422000000   -881.05086    11674.904    12768.103      3982.28     8573.675    305.98144    13912 
423000000    -887.5546    11529.441    12936.976    4012.3004     8404.695    310.02838    13939 
424000000   -898.36548    11505.514    12764.885    4056.0958    8347.7838     305.9043    13924 
425000000   -874.14215    11648.481    12879.998    4014.2381     8508.385    308.66294    13925 
426000000   -924.73236    11551.062    12929.417    4041.1508    8434.6436    309.84725    13941 
427000000   -903.73078    11512.392     12950.55    3937.1482    8478.9744    310.35368    13952 
428000000   -926.49609    11507.518    12813.663    3879.1571    8554.8565    307.07324    13946 
429000000   -872.71164    11579.319    12994.661    4023.0209    8429.0092    311.41079    13906 
430000000   -950.35089    11545.308    13032.635    3998.6897    8496.9695    312.32081    13940 
431000000   -886.10181    11344.243    12809.942    3922.6493    8307.6953    306.98409    13932 
432000000   -896.71374    11528.959      12997.8    4041.9523    8383.7203    311.48601    13916 
433000000   -954.59605    11450.387     12907.63    3962.9202    8442.0631    309.32513    13959 
434000000   -955.73222    11241.455    13006.561    3868.3842    8328.8026    311.69595    13949 
435000000   -902.80496    11419.234    12984.129    3877.2099    8444.8294    311.15838    13942 
436000000   -920.74048    11406.373     12788.57    3874.5738      8452.54     306.4719    13926 
437000000   -940.33007    11559.991    13014.334    3956.4422    8543.8793    311.88222    13947 
438000000   -926.71348    11548.238     12981.48    4017.7064    8457.2453    311.09491    13915 
439000000   -954.48748    11434.677     12812.92    4041.7321    8347.4321    307.05543    13937 
440000000   -948.49129    11532.023     12902.69    3979.7821    8500.7317    309.20674    13929 
441000000   -858.79645    11576.929    12832.867    4036.9745    8398.7505    307.53346    13926 
442000000   -919.00981    11373.265    13076.383    3889.9394    8402.3352     313.3692    13944 
443000000   -926.00467    11522.957     12983.43    4008.2333    8440.7281    311.14163    13935 
444000000   -999.60892    11414.544    12908.872    3966.3411    8447.8113    309.35488    13936 
445000000   -918.78442    11498.335    12853.915    3948.7441    8468.3749    308.03786    13922 
446000000   -977.61902    11348.935    12972.084     3988.803    8337.7514    310.86974    13953 
447000000   -952.83327    11429.779    12847.764    3943.6365    8438.9759    307.89047    13931 
448000000   -948.07257    11329.341    12920.365    3910.5552    8366.8587     309.6303    13964 
449000000   -973.87217    11525.887    12918.933    4022.0538    8477.7055    309.59599    13939 
450000000   -920.75363    11502.763     13078.08    3939.2311    8484.2857    313.40988    13921 
451000000   -939.61043    11546.826    13044.796    4040.1863      8446.25    312.61223    13922 
452000000   -953.96528    11580.954    12816.657    3961.9833    8572.9357    307.14499    13909 
453000000   -913.15473    11548.498    12967.269    3962.0827    8499.5697    310.75434    13930 
454000000   -935.37173    11486.653    12853.603    3947.6922    8474.3329    308.03039    13929 
455000000   -944.76919    11386.102    12896.426    4023.5521    8307.3194    309.05663    13937 
456000000   -919.55458    11452.921    12803.614    3985.4341    8387.0412    306.83243    13939 
457000000    -990.9696    11371.233    12830.943     3990.319    8371.8833    307.48735    13935 
458000000   -979.80843    11427.853    12927.798    4017.9569    8389.7046    309.80844    13943 
459000000   -925.94641    11492.941    13002.661    4081.3838    8337.5034    311.60249    13929 
460000000    -946.7824    11467.025    12939.187    3992.0812    8421.7259    310.08137    13937 
461000000   -956.51653    11391.061    12886.448    3945.5417    8402.0363    308.81752    13937 
462000000   -975.05444    11237.622     12973.07    3902.3245    8310.3523    310.89337    13937 
463000000   -943.96278    11520.514    12824.799    3911.4876    8552.9894    307.34011    13944 
464000000   -928.87068    11495.996    12895.157    4012.5393    8412.3275    309.02622    13918 
465000000   -884.31934    11426.107    12833.159    3928.7119    8381.7145    307.54047    13929 
466000000   -892.48526    11478.391    13060.067    4054.9836    8315.8929    312.97821    13936 
467000000   -934.71799    11571.977    12939.666    4042.3205    8464.3747    310.09284    13935 
468000000   -885.02735    11332.349    13001.136    3936.5486    8280.8275    311.56594    13926 
469000000   -902.81797    11350.159    12744.736    3889.6234    8363.3538    305.42145    13937 
470000000   -917.26825    11490.771    12963.496    3956.6621    8451.3767    310.66393    13933 
471000000   -880.67245    11465.009    12954.538    3895.7882    8449.8933    310.44924    13918 
472000000   -806.01007    11546.224    12764.665    3993.5665    8358.6677    305.89904    13924 
473000000   -878.79617    11637.931    12951.584     4022.334    8494.3934    310.37847    13928 
474000000   -789.17924    11614.621    12905.664    3993.6034    8410.1972    309.27801    13899 
475000000   -906.69568    11543.563    12840.296    3950.0517    8500.2067    307.71148    13904 
476000000    -897.9114    11440.318    13130.652    3972.7664    8365.4629    314.66975    13906 
477000000   -935.81997    11514.464    12930.439    3936.2839    8514.0003    309.87172    13929 
478000000   -919.39598    11530.647    12949.812    4034.4502    8415.5932    310.33599    13940 
479000000   -919.32439    11430.901    13094.445    3974.2872    8375.9382    313.80206    13910 
480000000   -897.82921    11571.754    12959.238    3977.5897    8491.9937    310.56188    13941 
481000000   -859.64709    11687.628    12946.495    4067.0873    8480.1878    310.25651    13913 
482000000   -909.16108    11495.982    12880.247    4008.0814    8397.0618    308.66889    13930 
483000000   -911.73456    11433.607    12924.414    4052.8011    8292.5403    309.72735    13936 
484000000   -920.18288    11429.625    12859.836    3979.3106    8370.4973    308.17976    13937 
485000000   -901.58044    11498.273    12984.997    3952.2873    8447.5665    311.17918    13944 
486000000   -938.73724    11344.333    12939.002    3954.1304    8328.9396    310.07694    13948 
487000000   -905.26402    11525.136    12909.243    3895.5549    8534.8453    309.36377    13925 
488000000   -916.08186    11525.992    12921.953    4047.5125    8394.5616    309.66838    13939 
489000000   -920.85598    11469.572    12918.485     4003.989    8386.4393    309.58525    13948 
490000000   -919.32528     11495.13    12825.005    3961.9464    8452.5086    307.34506    13917 
491000000   -906.26448    11443.828    12923.357    3946.4356    8403.6564    309.70201    13931 
492000000   -894.74698    11359.236    12951.697    3923.9072    8330.0763    310.38118    13913 
493000000   -899.84555     11570.58    12787.869    3983.7996    8486.6263    306.45512    13926 
494000000   -876.53403    11600.563    12898.318    4044.5177    8432.5793    309.10197    13911 
495000000   -887.48719    11421.193    12823.539     3932.479    8376.2011    307.30992    13939 
496000000   -944.21163    11550.114    13129.255    4036.1959    8458.1297    314.63626    13918 
497000000   -878.59274    11593.515    12807.684    4049.1728    8422.9351    306.92995    13934 
498000000    -896.5715    11470.406    12960.029     4011.863    8355.1149    310.58083    13916 
499000000   -931.05341    11314.338    12955.611    3937.0413      8308.35    310.47495    13935 
500000000   -979.55351    11577.041    13003.143    4085.2936    8471.3004    311.61405    13935 
Loop time of 111508 on 28 procs for 500000000 steps with 14000 atoms

Performance: 9685.428 ns/day, 0.002 hours/ns, 4483.994 timesteps/s
99.5% CPU use with 28 MPI tasks x no OpenMP threads

MPI task timing breakdown:
Section |  min time  |  avg time  |  max time  |%varavg| %total
---------------------------------------------------------------
Pair    | 7980.1     | 8872.2     | 10191      | 497.9 |  7.96
Bond    | 5769.1     | 6087.2     | 9226.8     |1069.4 |  5.46
Neigh   | 27436      | 27653      | 27987      |  84.6 | 24.80
Comm    | 34286      | 39558      | 41443      | 692.4 | 35.48
Output  | 0.62033    | 0.62146    | 0.62217    |   0.0 |  0.00
Modify  | 21841      | 21939      | 22519      |  92.1 | 19.67
Other   |            | 7398       |            |       |  6.63

Nlocal:    500 ave 529 max 464 min
Histogram: 1 1 3 2 4 6 2 4 1 4
Nghost:    429.571 ave 660 max 276 min
Histogram: 1 3 6 4 6 3 3 1 0 1
Neighs:    2279.46 ave 2964 max 1810 min
Histogram: 4 2 2 6 7 0 3 2 0 2

Total # of neighbors = 63825
Ave neighs/atom = 4.55893
Ave special neighs/atom = 6.07771
Neighbor list builds = 100018562
Dangerous builds = 0
System init for write_restart ...
Total wall time: 30:58:31
