LAMMPS (5 Jun 2019)
Reading data file ...
  orthogonal box = (-420 -420 -420) to (420 420 420)
  2 by 2 by 7 MPI processor grid
  reading atoms ...
  14000 atoms
  scanning bonds ...
  51 = max bonds/atom
  scanning angles ...
  1 = max angles/atom
  reading bonds ...
  13800 bonds
  reading angles ...
  13600 angles
Finding 1-2 1-3 1-4 neighbors ...
  special bond factors lj:   0          0          0         
  special bond factors coul: 0          0          0         
  2 = max # of 1-2 neighbors
  2 = max # of 1-3 neighbors
  4 = max # of 1-4 neighbors
  56 = max # of special neighbors
  special bonds CPU = 1.32543 secs
  read_data CPU = 1.74502 secs
Finding 1-2 1-3 1-4 neighbors ...
  special bond factors lj:   1          1          1         
  special bond factors coul: 0          0          0         
  2 = max # of 1-2 neighbors
  2 = max # of 1-3 neighbors
  4 = max # of 1-4 neighbors
  56 = max # of special neighbors
  special bonds CPU = 0.000631124 secs
WARNING: Using 'neigh_modify every 1 delay 0 check yes' setting during minimization (../min.cpp:168)
Neighbor list info ...
  update every 1 steps, delay 0 steps, check yes
  max neighbors/atom: 2000, page size: 100000
  master list distance cutoff = 26.9
  ghost atom cutoff = 26.9
  binsize = 13.45, bins = 63 63 63
  1 neighbor lists, perpetual/occasional/extra = 1 0 0
  (1) pair lj/cut, perpetual
      attributes: half, newton on
      pair build: half/bin/newton
      stencil: half/bin/3d/newton
      bin: standard
Setting up cg style minimization ...
  Unit style    : real
  Current step  : 0
Per MPI rank memory allocation (min/avg/max) = 1.164 | 13.81 | 17.68 Mbytes
Step Temp E_pair E_mol TotEng Press 
       0            0 2.4262116e+12      2649600 2.4262142e+12 1.1227655e+09 
    7035            0   -6144.0854    5742.4468   -401.63854  -0.02117856 
Loop time of 3.11937 on 28 procs for 7035 steps with 14000 atoms

99.5% CPU use with 28 MPI tasks x no OpenMP threads

Minimization stats:
  Stopping criterion = energy tolerance
  Energy initial, next-to-last, final = 
     2.42621421633e+12     -401.614938723     -401.638544729
  Force two-norm initial, final = 2.10957e+10 0.584999
  Force max component initial, final = 1.04817e+09 0.0848794
  Final line search alpha, max atom move = 0.948135 0.0804771
  Iterations, force evaluations = 7035 9919

MPI task timing breakdown:
Section |  min time  |  avg time  |  max time  |%varavg| %total
---------------------------------------------------------------
Pair    | 0.20988    | 0.59022    | 1.0526     |  32.6 | 18.92
Bond    | 0.060489   | 0.14639    | 0.21923    |  12.4 |  4.69
Neigh   | 0.30543    | 0.31197    | 0.31958    |   0.5 | 10.00
Comm    | 0.51888    | 1.0535     | 1.4845     |  28.1 | 33.77
Output  | 0          | 0          | 0          |   0.0 |  0.00
Modify  | 0          | 0          | 0          |   0.0 |  0.00
Other   |            | 1.017      |            |       | 32.61

Nlocal:    500 ave 824 max 176 min
Histogram: 2 2 4 3 3 2 5 4 0 3
Nghost:    338.464 ave 536 max 168 min
Histogram: 3 4 2 2 3 6 2 2 2 2
Neighs:    5465.89 ave 9884 max 1749 min
Histogram: 2 7 2 3 1 3 2 3 3 2

Total # of neighbors = 153045
Ave neighs/atom = 10.9318
Ave special neighs/atom = 5.82857
Neighbor list builds = 571
Dangerous builds = 0
Setting up Verlet run ...
  Unit style    : real
  Current step  : 7035
  Time step     : 0.1
Per MPI rank memory allocation (min/avg/max) = 1.128 | 14 | 16.55 Mbytes
Step Temp E_pair E_mol TotEng Press 
    7035            0   -6144.0854    5742.4468   -401.63854  -0.02117856 
   17035    213.95409   -4866.1872    9352.3552    13414.121   -1.0836287 
Loop time of 2.05188 on 28 procs for 10000 steps with 14000 atoms

Performance: 42.108 ns/day, 0.570 hours/ns, 4873.571 timesteps/s
99.5% CPU use with 28 MPI tasks x no OpenMP threads

MPI task timing breakdown:
Section |  min time  |  avg time  |  max time  |%varavg| %total
---------------------------------------------------------------
Pair    | 0.087343   | 0.3211     | 0.63531    |  30.1 | 15.65
Bond    | 0.038201   | 0.10898    | 0.17682    |  11.8 |  5.31
Neigh   | 0.0022098  | 0.0023044  | 0.0024187  |   0.1 |  0.11
Comm    | 0.61378    | 0.95217    | 1.2936     |  19.9 | 46.40
Output  | 0.00010972 | 0.00013482 | 0.00017316 |   0.0 |  0.01
Modify  | 0.089497   | 0.25347    | 0.40927    |  17.5 | 12.35
Other   |            | 0.4137     |            |       | 20.16

Nlocal:    500 ave 827 max 175 min
Histogram: 2 2 4 3 3 2 5 4 0 3
Nghost:    339.893 ave 538 max 167 min
Histogram: 3 4 1 4 1 7 2 2 2 2
Neighs:    5459.96 ave 9815 max 1767 min
Histogram: 2 7 2 3 1 3 2 3 3 2

Total # of neighbors = 152879
Ave neighs/atom = 10.9199
Ave special neighs/atom = 5.82857
Neighbor list builds = 4
Dangerous builds = 0
4000 atoms in group rxnSites
Neighbor list info ...
  update every 1 steps, delay 1 steps, check yes
  max neighbors/atom: 2000, page size: 100000
  master list distance cutoff = 26.9
  ghost atom cutoff = 26.9
  binsize = 13.45, bins = 63 63 63
  2 neighbor lists, perpetual/occasional/extra = 1 1 0
  (1) pair lj/cut, perpetual
      attributes: half, newton on
      pair build: half/bin/newton
      stencil: half/bin/3d/newton
      bin: standard
  (2) fix bond/create/random, occasional, copy from (1)
      attributes: half, newton on
      pair build: copy
      stencil: none
      bin: none
Setting up Verlet run ...
  Unit style    : real
  Current step  : 0
  Time step     : 25
Per MPI rank memory allocation (min/avg/max) = 17.88 | 18.28 | 18.78 Mbytes
Step E_pair PotEng KinEng E_bond E_angle Temp Bonds 
       0   -4866.1872    4486.1681    8927.9531    3021.1066    6331.2486    213.95409    13800 
 1000000   -844.63441    11563.877    13027.198    4017.6595    8390.8515    312.19052    13899 
 2000000   -847.87889    11491.512    12831.211     3994.725    8344.6662    307.49379    13909 
 3000000   -906.37774    11613.897    12711.005    4056.4957    8463.7792     304.6131    13930 
 4000000   -890.16668     11431.76    12952.708    3935.1096    8386.8175     310.4054    13920 
 5000000   -896.86888    11452.054    12992.311    3982.0265    8366.8967    311.35447    13934 
 6000000    -931.4843    11366.127    12952.148     3922.106     8375.505    310.39196    13923 
 7000000   -908.31775    11471.584    12987.525    4017.8418    8362.0595    311.23976    13918 
 8000000   -906.36073    11512.017    12884.364    3971.7525    8446.6253    308.76757    13916 
 9000000   -979.34035    11431.454    12893.841     3939.999    8470.7958    308.99468    13936 
10000000   -912.35746     11460.21    12921.793    3969.1571    8403.4102    309.66454    13931 
11000000   -964.74171     11519.63    13042.916    4002.6369    8481.7347    312.56719    13947 
12000000    -972.5697    11365.453    12974.864    3946.0736    8391.9495    310.93634    13958 
13000000   -936.04222    11412.716    12991.672    3944.9676    8403.7909    311.33915    13943 
14000000   -854.52106    11440.102    12701.854    3931.6125    8363.0106    304.39381    13917 
15000000      -997.54    11499.763    13016.159    3979.7032    8517.5995    311.92596    13935 
16000000   -931.09093    11346.814    12861.077    3875.7843    8402.1208    308.20951    13940 
17000000    -1045.226    11406.019    12793.636     3995.765    8455.4803    306.59332    13963 
18000000   -901.79858     11481.77    12937.256    4042.7158    8340.8524     310.0351    13927 
19000000   -1022.1017    11382.924    13021.592    3995.6155    8409.4102    312.05616    13949 
20000000   -971.29422    11416.959    13036.314    4045.3765    8342.8769    312.40898    13946 
21000000   -976.96535    11327.671    12917.069    3900.7022    8403.9339    309.55131    13945 
22000000   -977.81475    11288.475    12995.877     3916.212    8350.0774    311.43992    13925 
23000000   -945.85918    11493.008    12875.219    3947.9171    8490.9501    308.54841    13946 
24000000   -949.64773     11372.35    12739.653    3886.2275    8435.7701    305.29964    13953 
25000000   -918.84948    11427.442    12920.251    3950.9961    8395.2955    309.62757    13923 
26000000   -894.24895    11406.402    12885.263    3937.3221    8363.3283     308.7891    13931 
27000000   -921.97784    11464.235    12901.845    4027.7335    8358.4795     309.1865    13909 
28000000   -919.53771    11378.347    12908.586    3952.2449      8345.64    309.34803    13940 
29000000    -993.6941    11388.652    12933.684    3998.6656     8383.681     309.9495    13954 
30000000    -965.0308    11343.935     12921.34    3871.6808    8437.2853    309.65368    13923 
31000000   -953.63092    11536.084    12942.134    4033.5203    8456.1945    310.15199    13944 
32000000   -953.89884    11538.754    12920.657    3975.3142    8517.3387    309.63732    13936 
33000000   -902.79517    11549.311    12780.459    4026.7812    8425.3246    306.27754    13927 
34000000   -930.68483    11373.797    12853.221     3943.913    8360.5691    308.02123    13935 
35000000   -967.12305    11362.805    12850.034     3853.726    8476.2022    307.94487    13937 
36000000   -1024.0995    11243.501    12939.325    3852.5822    8415.0178    310.08467    13955 
37000000   -956.86932     11392.75    12922.634    4031.8878    8317.7316    309.68468    13947 
38000000   -933.72225    11331.543    12912.875    3940.9016    8324.3637    309.45082    13938 
39000000   -976.77147     11283.27    12881.629    3905.9563    8354.0849    308.70202    13957 
40000000    -962.6122     11478.92    12801.433    3963.3116     8478.221    306.78016    13948 
41000000   -950.79269    11401.926    12972.688    4008.1702    8344.5484    310.88421    13929 
42000000   -886.04481    11551.918    13002.609    3990.2437    8447.7193    311.60124    13917 
43000000   -964.25173     11502.29     13003.04    3965.7371    8500.8047    311.61158    13936 
44000000   -929.13578    11453.281    12948.496      3976.14    8406.2772    310.30445    13936 
45000000   -940.25607    11506.072    13047.329    4010.9589    8435.3687    312.67294    13933 
46000000   -958.82012    11588.269    12933.913     4015.271     8531.818    309.95498    13937 
47000000   -900.14157    11575.266    12870.958    3983.1248    8492.2826    308.44631    13919 
48000000   -901.38512    11497.617    12923.313     3997.712    8401.2899    309.70096    13931 
49000000   -974.77043    11524.111    12790.688    4013.8879    8484.9935    306.52265    13938 
50000000   -946.27499    11395.503    12801.114    3943.7914     8397.987    306.77252    13938 
51000000   -939.87926    11371.889     12902.94     3925.427    8386.3417    309.21273    13920 
52000000   -971.87909    11411.867    12963.274    3934.3918    8449.3547     310.6586    13947 
53000000   -958.69319    11484.088    12909.472    3984.3935    8458.3876    309.36927    13953 
54000000   -950.15954    11445.793     12923.29    3870.4996    8525.4526    309.70039    13928 
55000000   -920.08647      11426.4    13056.457    3967.4319    8379.0546    312.89168    13933 
56000000   -949.26832    11406.309    12894.468    3960.0492    8395.5282     309.0097    13939 
57000000   -879.09813    11556.954    12983.384    4014.3071    8421.7447    311.14054    13916 
58000000   -937.29525    11588.773    12960.083    3962.4247    8563.6434    310.58212    13941 
59000000   -916.25666    11414.319    12828.182    3867.6344    8462.9409    307.42118    13915 
60000000   -881.41197    11520.483    12991.806    3961.6042    8440.2904    311.34235    13939 
61000000   -890.22828    11599.394    13104.699    4056.1404    8433.4816    314.04779    13933 
62000000   -879.82729    11502.698    12894.946    3939.7734     8442.752    309.02117    13939 
63000000   -895.04168    11515.383    12991.935    3912.8942    8497.5303    311.34544    13917 
64000000   -954.57557    11240.179    13025.733    3904.5816    8290.1734    312.15541    13941 
65000000   -965.78548    11174.672    13009.655    3909.6991    8230.7586    311.77011    13946 
66000000    -880.2914    11445.774    13023.311     3957.957    8368.1084    312.09737    13923 
67000000   -909.88841     11445.22    12966.164    3925.1773    8429.9306    310.72787    13930 
68000000   -887.62655    11575.555    12986.604    4035.7409    8427.4411     311.2177    13913 
69000000   -930.40894    11450.136    13184.093    3963.6911    8416.8538    315.95042    13927 
70000000   -895.05725    11598.442    12980.309    3909.7902    8583.7087    311.06684    13921 
71000000   -933.46324    11537.714    12855.945    3989.5355    8481.6415    308.08652    13919 
72000000   -938.23959    11523.924    12905.448    4013.7372    8448.4263    309.27283    13935 
73000000    -935.8482    11606.725    12804.381    4012.5158    8530.0579    306.85081    13931 
74000000   -868.24342    11646.286    12857.192    4079.5039    8435.0258    308.11639    13927 
75000000   -905.00472    11625.371    13000.824    3978.5247     8551.851    311.55848    13929 
76000000    -929.5961    11491.131    12960.209    3971.4977     8449.229    310.58514    13936 
77000000   -880.22248    11697.705    13010.075    4024.2053    8553.7218    311.78017    13925 
78000000   -909.50859    11589.484    12985.991    3985.0824    8513.9103      311.203    13919 
79000000   -891.99602     11543.87    12978.364    3929.4839    8506.3821    311.02022    13919 
80000000   -904.80679    11502.723     12996.27    3972.9036    8434.6257    311.44934    13936 
81000000   -828.80875    11695.141    12968.707    4016.8851    8507.0644    310.78881    13915 
82000000    -920.8626    11527.348    12993.843    4010.6411    8437.5697    311.39118    13934 
83000000   -928.45091    11432.829    12917.723    4021.5542    8339.7254      309.567    13943 
84000000    -834.0388    11483.667    12857.052    4002.4985    8315.2068    308.11304    13908 
85000000    -908.8213     11508.99    12864.409    3992.7284    8425.0832    308.28935    13920 
86000000   -944.04539    11515.098    13098.929    3954.9469    8504.1962     313.9095    13940 
87000000   -945.25814    11419.842    12897.458    4034.3651    8330.7355    309.08136    13917 
88000000    -899.9179    11620.525    12958.171    3994.1653    8526.2774    310.53631    13913 
89000000   -918.58165    11421.929    12962.129    3969.9991    8370.5115    310.63117    13932 
90000000   -913.25471     11502.83    12772.106    3958.0574     8458.027    306.07735    13937 
91000000   -915.67685    11518.199    12985.692    4067.3621    8366.5136    311.19583    13941 
92000000   -894.30248    11592.353    12924.567    4005.9892    8480.6666    309.73102    13910 
93000000   -854.39676     11616.26    12864.546    4025.2719    8445.3847    308.29263    13934 
94000000   -897.73719    11606.732    13042.838    4000.9358    8503.5329    312.56532    13920 
95000000   -929.90106    11668.085    12820.296    4014.1971    8583.7894    307.23221    13942 
96000000   -859.79398    11514.917    12928.472    3970.6872    8404.0242    309.82459    13933 
97000000   -916.95471     11456.66    13017.026    3971.8939    8401.7208    311.94675    13910 
98000000   -890.86546    11611.633    12917.182    4090.7568    8411.7414    309.55402    13935 
99000000    -949.5927    11433.025    12807.129    3981.8841    8400.7339    306.91666    13958 
100000000   -901.35631    11470.783    12930.554    3989.1615    8382.9777    309.87448    13929 
101000000   -936.29757    11401.669    12953.449    3931.4568    8406.5101    310.42314    13932 
102000000   -945.98088    11397.764    12997.329    4002.2396     8341.505    311.47471    13932 
103000000   -867.88159    11567.986    12934.521    3975.0485    8460.8187    309.96955    13917 
104000000   -903.84043    11389.274    12856.097    3910.6236    8382.4911    308.09015    13931 
105000000   -913.31024    11426.623    13010.439    3999.3799    8340.5529    311.78888    13926 
106000000   -891.28287    11484.471    13101.995    3970.1355    8405.6183    313.98297    13913 
107000000   -897.90303    11467.814    12941.273    4006.1104    8359.6069    310.13137    13909 
108000000   -851.24121    11477.927    13019.941    3884.1402    8445.0282    312.01659    13928 
109000000   -878.22965    11614.614    12903.515    4034.3526    8458.4907    309.22651    13922 
110000000   -908.19654    11651.745    12924.707    4018.7665    8541.1753    309.73436    13927 
111000000   -920.29019    11580.257    13054.144    4042.8073    8457.7403    312.83626    13928 
112000000   -929.26966    11378.926    13006.474    3931.6894    8376.5062    311.69388    13939 
113000000   -883.15115    11515.956    12938.451     4001.038    8398.0692    310.06372    13919 
114000000   -903.81506    11708.872    12879.161    4005.5611    8607.1256    308.64288    13919 
115000000   -937.99811    11516.512     12998.01    3938.3987    8516.1114    311.49104    13938 
116000000   -887.73929    11380.162    12940.689     3916.187     8351.714    310.11735    13932 
117000000   -885.97074    11577.814    13020.576    3967.4104    8496.3741    312.03182    13926 
118000000   -908.43622    11528.493    12743.283    4029.9216    8407.0076    305.38663    13923 
119000000   -874.65418    11438.642    12792.905    3904.4219    8408.8747    306.57578    13927 
120000000   -944.91262    11478.911    13085.379    3984.5838    8439.2401    313.58479    13945 
121000000   -926.82357    11494.693    13045.526    4013.3509    8408.1655    312.62973    13935 
122000000   -934.11105    11459.031    12872.461    4005.8049    8387.3373     308.4823    13927 
123000000   -876.72394    11445.349    12896.402    4011.6957    8310.3775    309.05604    13911 
124000000   -916.92396    11417.411    12958.544    3997.4268    8336.9085    310.54526    13911 
125000000   -916.26136    11300.129    13018.855    3924.1334     8292.257    311.99058    13930 
126000000   -906.38934    11722.091    13028.717    3974.5589    8653.9211    312.22692    13903 
127000000   -903.42655    11501.787    13075.032    4019.5318    8385.6822    313.33683    13927 
128000000    -934.8647    11396.897     12872.18    3925.5631    8406.1986    308.47558    13933 
129000000   -912.47769    11494.631    12802.981    4045.1644    8361.9443    306.81726    13933 
130000000     -970.072    11454.427    12952.261    3936.4697    8488.0294    310.39469    13934 
131000000   -911.22995    11593.977    12993.574     4027.215    8477.9923    311.38472    13905 
132000000   -936.39754    11444.201    12966.075    3933.2194    8447.3794    310.72573    13933 
133000000   -909.63997    11290.194    12889.313    3885.0518    8314.7824    308.88615    13955 
134000000   -902.00055    11653.796    12847.268    4054.3489    8501.4481    307.87858    13926 
135000000   -933.97137    11428.721    12952.809    3973.2482    8389.4444    310.40783    13928 
136000000   -933.75417    11437.468    12838.639    4015.0721    8356.1504    307.67178    13937 
137000000   -894.02005    11534.898     12851.72    3990.3865    8438.5312    307.98527    13920 
138000000   -920.07463    11574.167    12918.064    4026.3986    8467.8427    309.57517    13930 
139000000   -932.24126    11539.797    12838.753    4057.9355    8414.1025    307.67451    13937 
140000000   -969.76538     11463.22    13029.341    4035.7068    8397.2781    312.24186    13929 
141000000   -969.87995    11390.961     12913.16    3907.6431    8453.1977    309.45765    13960 
142000000   -962.73518     11422.02    12976.147    3957.9689    8426.7862     310.9671    13951 
143000000   -950.96857    11335.655    12959.029     3962.551    8324.0724    310.55688    13938 
144000000   -930.66905    11408.719    12974.146    3995.5465    8343.8411    310.91916    13935 
145000000   -931.74606    11505.523    12967.634    3987.0094    8450.2599    310.76308    13922 
146000000   -951.26556    11359.774     12895.51    3976.0677    8334.9716    309.03466    13942 
147000000   -976.94726    11378.198    12756.428    4012.5398    8342.6056    305.70163    13931 
148000000    -954.7108    11256.858     13086.29    3935.3795    8276.1888    313.60663    13939 
149000000   -1034.5923    11291.858    12815.422    3961.5828    8364.8671     307.1154    13963 
150000000   -1033.1276    11409.232    12930.895    3981.5647    8460.7953    309.88265    13945 
151000000   -999.78689    11496.558    12944.409    3971.0745      8525.27    310.20651    13940 
152000000   -1028.1559    11273.299    12954.826    3954.1647    8347.2903    310.45616    13990 
153000000   -997.10388    11415.188    12984.639    3973.0437    8439.2486    311.17062    13954 
154000000   -979.24187    11504.363    12953.663    4047.3002    8436.3043    310.42828    13951 
155000000   -962.83413    11428.444    12877.267    3939.0175    8452.2608    308.59748    13933 
156000000   -966.30874    11430.266    13074.277    3991.4617    8405.1127    313.31873    13933 
157000000   -953.84632    11363.732    12972.642    3954.8898     8362.689     310.8831    13931 
158000000   -1008.3437    11385.983    12935.818    3981.9049    8412.4215    310.00064    13947 
159000000   -986.26026    11385.676    12914.436      3915.41    8456.5264    309.48821    13968 
160000000   -1013.0518    11497.694    12940.615    4023.2277     8487.518     310.1156    13949 
161000000   -936.78393    11390.697    12891.424    4080.4268    8247.0542    308.93676    13950 
162000000   -951.09616    11376.876    13035.301    3893.2888    8434.6838     312.3847    13937 
163000000   -983.50075    11486.738     12982.31    4000.2594    8469.9791     311.1148    13938 
164000000   -940.98318    11489.132    12885.838    3901.1043    8529.0111    308.80289    13945 
165000000   -938.92091    11467.512     12882.42     3915.288    8491.1448    308.72097    13932 
166000000   -963.66105    11473.562     13038.78    3923.0571    8514.1662    312.46806    13932 
167000000   -955.64721    11638.898    12860.019    4088.0815    8506.4637    308.18416    13934 
168000000   -946.52485    11351.623    12928.571    3955.1169    8343.0312    309.82696    13941 
169000000   -952.25028    11504.423    12932.911    3972.2128    8484.4604    309.93097    13940 
170000000   -970.85846    11534.132     12819.56    3965.6041    8539.3866    307.21456    13933 
171000000   -925.77266    11595.286     13077.16    4012.7343    8508.3239    313.38782    13923 
172000000   -887.52325     11587.27    13001.582    4021.9862    8452.8072    311.57663    13916 
173000000   -847.08365    11542.457    13089.888    4057.9529    8331.5878    313.69284    13930 
174000000   -924.76213    11481.308    13067.054    4003.9727    8402.0979    313.14563    13940 
175000000   -893.74091    11422.461    12743.117    3911.7118    8404.4899    305.38265    13934 
176000000   -879.88299     11637.72    12835.437    3987.2732    8530.3298    307.59505    13928 
177000000   -936.35576    11515.965    12788.634    3990.8205    8461.4998    306.47344    13925 
178000000   -876.61063    11428.386    12825.468     3889.086    8415.9107    307.35614    13911 
179000000   -908.54511    11455.761    12968.107    3915.0513    8449.2552    310.77443    13917 
180000000   -900.05156    11434.191    13003.607    3985.4997    8348.7433    311.62515    13908 
181000000   -901.31444    11452.501    12989.792    3954.5884    8399.2266    311.29411    13933 
182000000   -882.38913    11438.299    13019.096     3915.248    8405.4398    311.99635    13919 
183000000   -926.85041    11414.044    12967.314    3871.3873    8469.5069    310.75542    13933 
184000000   -952.86977    11532.397    12659.234    3963.4417    8521.8254    303.37243    13953 
185000000   -883.91807    11502.199    12886.565    3947.6407    8438.4767    308.82032    13920 
186000000   -946.79984    11616.166    13012.352    3993.0744     8569.891    311.83472    13938 
187000000   -934.22133    11528.641    12971.627    3977.2559    8485.6063    310.85877    13934 
188000000   -898.22797    11459.941    12852.725    3965.9092    8392.2596    308.00934    13923 
189000000    -951.0932    11449.187     12829.48    4007.8513    8392.4291    307.45228    13940 
190000000   -952.04725    11408.948    12837.573    3943.9941    8417.0016    307.64623    13957 
191000000   -953.35196    11473.641    12910.591    3947.8529    8479.1397    309.39607    13928 
192000000   -958.26477    11488.949    13033.877    3979.0681    8468.1458    312.35056    13940 
193000000   -962.58549    11407.931    12900.552    3989.3267    8381.1899    309.15549    13947 
194000000   -962.03506    11443.118    13117.051    3872.9256    8532.2274    314.34379    13925 
195000000   -1000.0017    11416.338    13039.509    3998.1313    8418.2088    312.48554    13958 
196000000   -939.49071    11440.817    12815.245    3965.0332    8415.2741    307.11116    13926 
197000000   -890.26506    11540.452    12993.427     3980.544    8450.1733     311.3812    13916 
198000000   -851.08212    11716.256    12776.178    4096.6925    8470.6453    306.17493    13907 
199000000   -872.57294    11594.951    12824.863    3929.7418    8537.7822    307.34165    13916 
200000000   -934.29582    11497.632    13000.535    4034.5663    8397.3612    311.55156    13932 
201000000    -954.9056    11316.384    13051.598    3895.0913    8376.1982    312.77525    13928 
202000000   -963.15735    11388.454    12870.901    3973.5551    8378.0559    308.44494    13944 
203000000   -974.18269    11445.605    12905.116    3964.1563    8455.6314    309.26487    13949 
204000000   -987.27453    11322.981    12878.993    3929.7408    8380.5144    308.63884    13962 
205000000   -869.50413    11419.008    12952.642    3960.6023    8327.9101    310.40382    13915 
206000000   -939.50621    11441.401    13003.338    3957.3369    8423.5699    311.61872    13943 
207000000   -989.59338    11501.928     13136.02    4013.3433    8478.1786    314.79837    13952 
208000000   -968.55042    11529.247    12907.876    4033.7332    8464.0646    309.33102    13919 
209000000   -935.75036    11504.471    13002.651     4028.948     8411.273    311.60226    13942 
210000000   -921.45526    11507.753    12941.305    3996.9219    8432.2863    310.13213    13918 
211000000   -956.01043    11445.668    12892.847    3938.7359    8462.9421    308.97085    13948 
212000000   -926.94397    11535.944    12996.981     3967.215    8495.6731    311.46638    13911 
213000000   -984.09208    11447.161    13023.638    3957.0786    8474.1741    312.10519    13928 
214000000   -952.43283    11592.591    13065.911    4097.2919    8447.7316    313.11825    13934 
215000000   -973.94389    11508.487    12982.685    3992.4774    8489.9539    311.12379    13954 
216000000   -952.40342    11372.166    12906.606    4015.3824     8309.187    309.30059    13969 
217000000   -907.57572    11539.913     12793.87    3936.1974    8511.2914    306.59891    13920 
218000000   -861.79221    11651.277     12854.23    3980.2415    8532.8279    308.04542    13928 
219000000   -931.41349    11405.378    13065.189    3937.3011    8399.4906    313.10095    13942 
220000000   -936.63209    11497.076    12727.262    4005.6183    8428.0901    305.00268    13935 
221000000   -929.03753    11555.054     12845.51    4018.7466    8465.3452    307.83644    13928 
222000000    -944.1857    11502.789    13027.692    3995.5026    8451.4721    312.20236    13941 
223000000    -908.8987    11512.184    13005.409    3978.3795    8442.7029    311.66835    13919 
224000000   -882.42946     11500.63    12837.984    4002.8355    8380.2242    307.65608    13922 
225000000   -924.17609    11423.209    12839.004    3997.8859    8349.4989    307.68053    13924 
226000000    -889.1498    11504.103    12948.493    4018.7296    8374.5234    310.30438    13921 
227000000   -965.88421    11419.483    12945.046    4015.0548    8370.3127    310.22178    13934 
228000000    -944.6439    11559.221    12943.888    4044.6931    8459.1716    310.19403    13926 
229000000   -897.94646    11608.272     13002.05    4034.8655    8471.3529    311.58785    13918 
230000000   -924.90146    11462.749    12880.764     3956.661    8430.9899     308.6813    13940 
231000000   -957.04776    11529.862    12911.762     3951.218    8535.6915    309.42414    13921 
232000000   -877.75946    11390.005    12810.074    3879.2387    8388.5257    306.98724    13918 
233000000   -944.93092    11367.305    12923.881    3965.7189    8346.5172    309.71457    13927 
234000000   -827.44582     11455.98    12757.093    3939.4746    8343.9511    305.71757    13928 
235000000   -999.74176    11360.421    12900.393    3930.4766    8429.6861    309.15168    13955 
236000000   -973.00523     11455.72    12933.675    3996.6953      8432.03    309.94927    13944 
237000000   -945.64434    11448.008    12971.578    4035.5288    8358.1232    310.85761    13923 
238000000   -931.98452    11427.411    12939.144    3982.6711    8376.7247    310.08034    13918 
239000000   -918.52332    11569.176    13096.549     4030.647    8457.0528    313.85246    13918 
240000000   -987.23917     11397.01    13084.604     3956.509    8427.7406    313.56621    13945 
241000000   -988.26879    11381.553    12881.557    3979.4591    8390.3623    308.70029    13950 
242000000   -997.51996    11416.748    13010.248    3933.2318    8481.0363    311.78431    13942 
243000000   -962.35899    11495.498     12879.17    3984.3216    8473.5356     308.6431    13941 
244000000   -901.96473    11452.667    12918.315    3951.0673     8403.565    309.58118    13943 
245000000   -968.59997    11353.175    12930.904    3940.2244    8381.5511    309.88288    13960 
246000000   -979.42117    11558.492    12920.062    3964.2812    8573.6317    309.62305    13939 
247000000   -878.25969    11570.035    12866.016    3923.7825    8524.5121    308.32787    13936 
248000000   -918.05807    11500.677    12988.001    3989.9089    8428.8266    311.25118    13924 
249000000   -938.23953    11457.607    13017.405    3947.3532    8448.4937    311.95582    13934 
250000000   -910.18098     11519.28    13089.063    3944.1372    8485.3238    313.67308    13913 
251000000   -982.73173    11370.963    12804.358    3964.6185    8389.0762    306.85026    13935 
252000000   -924.45396    11447.353    12986.478    3977.5535    8394.2536    311.21467    13943 
253000000   -960.64031    11443.758    13002.925    4057.4993     8346.899    311.60882    13939 
254000000   -917.58531    11358.578    12792.411    3974.4051    8301.7578    306.56395    13931 
255000000   -963.12746     11520.47    13109.001    4071.0459    8412.5513    314.15087    13927 
256000000   -959.15681     11354.21    12725.071    3929.4905    8383.8766    304.95019    13935 
257000000   -927.40642    11508.498    12819.758    3910.9808    8524.9233    307.21931    13935 
258000000   -906.68898    11465.789     12957.96    4020.6578    8351.8201    310.53127    13920 
259000000   -929.76655    11422.417     13005.03    3902.4429    8449.7409    311.65927    13923 
260000000   -927.45653    11529.515    12983.466    3945.3817    8511.5899    311.14249    13918 
261000000   -914.69633     11523.94    12797.733    4016.3244    8422.3115     306.6915    13917 
262000000   -911.48364    11477.887    12962.833    4065.9963    8323.3743    310.64803    13923 
263000000   -938.95689    11467.839    12878.353    3936.8335    8469.9621    308.62351    13955 
264000000   -902.10397    11533.725    13001.965    3940.0839    8495.7452    311.58581    13928 
265000000   -859.74171    11434.392    13112.685    3998.2775    8295.8564    314.23917    13911 
266000000   -871.85664    11486.728    12980.489    3945.1801    8413.4046    311.07114    13946 
267000000   -929.03865    11505.964    12859.053    4062.3443    8372.6582      308.161    13935 
268000000   -916.84438    11497.774    13077.925    3993.4559    8421.1621    313.40615    13921 
269000000   -939.71895    11445.365    12998.105    3891.5833     8493.501    311.49332    13940 
270000000   -899.57405    11570.272    12948.442    3953.4715    8516.3746    310.30315    13936 
271000000   -943.37716     11278.76     12962.56     3875.156     8346.981    310.64148    13936 
272000000   -915.91423    11435.872     13047.49    3938.8346    8412.9513     312.6768    13942 
273000000   -874.07802    11634.275     12921.35    4021.0324    8487.3204    309.65391    13926 
274000000    -900.8973    11625.869    13002.148    4006.1432    8520.6235    311.59021    13942 
275000000   -944.78827    11504.361    12797.065      3978.98    8470.1694    306.67547    13939 
276000000   -888.63207    11612.327    13007.478    3957.2059    8543.7532    311.71792    13931 
277000000   -864.12033    11476.425    13027.255    3989.5243     8351.021    312.19187    13910 
278000000   -927.15505     11517.05    12764.092    3950.1201    8494.0847    305.88531    13921 
279000000   -934.33718     11489.89    12988.575    3976.3875    8447.8396    311.26494    13925 
280000000   -884.76271    11440.908    13188.304    3953.5343    8372.1363    316.05134    13934 
281000000   -851.72403    11611.057     13076.14    3949.1914    8513.5894    313.36337    13934 
282000000   -876.46162    11572.453    12859.445    3986.7715    8462.1432    308.17039    13935 
283000000    -866.5242     11436.78    12878.051    3949.0566     8354.248    308.61627    13923 
284000000   -896.97413    11667.604    13035.038    4076.6249    8487.9528     312.3784    13916 
285000000   -895.87149    11494.347    12838.898     3970.641     8419.578    307.67799    13913 
286000000   -926.00943    11314.278    12795.525    3973.2916    8266.9954    306.63858    13935 
287000000   -918.12308    11415.256    12830.765    3919.3638    8414.0156    307.48309    13928 
288000000   -904.97275    11433.889    12925.926    4003.0972    8335.7646    309.76357    13933 
289000000   -946.70317    11500.359    12941.995    4046.5712    8400.4913    310.14867    13931 
290000000   -983.63814    11361.395    12932.675    3900.3394    8444.6938    309.92532    13965 
291000000   -921.39754    11450.704    12950.954    3953.9678    8418.1332    310.36337    13922 
292000000    -973.2834    11300.103     12922.56    3945.6063    8327.7798    309.68291    13925 
293000000    -990.2391    11362.488    12898.909    3928.4449    8424.2821    309.11612    13940 
294000000   -1001.9583     11439.27     12926.46    3980.4192    8460.8091    309.77638    13938 
295000000   -957.82243    11360.904    13009.236    3956.8317     8361.895    311.76006    13925 
296000000   -909.83369    11425.935    13011.951    3937.4146    8398.3541    311.82512    13928 
297000000   -916.59669    11487.078    12871.046    3966.2955    8437.3794    308.44841    13922 
298000000   -922.75395    11352.524    12963.024    3870.7424    8404.5357    310.65261    13950 
299000000   -888.89928    11504.083    12931.256    3947.7619    8445.2202    309.89131    13932 
300000000   -929.11399    11374.462    12962.307    3944.8798    8358.6962    310.63543    13937 
301000000   -954.32937      11427.3    12820.512    3937.3032    8444.3259    307.23739    13922 
302000000   -948.39501    11420.619    13005.496    3912.0639    8456.9498    311.67043    13937 
303000000   -919.90255    11483.291    12794.771    3959.3766    8443.8169     306.6205    13927 
304000000   -939.25515    11358.024      13090.8    3980.9521    8316.3274    313.71469    13941 
305000000   -976.27892     11416.62    12948.731    3949.9875    8442.9114     310.3101    13943 
306000000   -921.15857    11520.903    13098.581    4008.5043    8433.5576    313.90118    13938 
307000000   -880.00447    11295.359    12912.122    3844.0726    8331.2908    309.43276    13939 
308000000   -926.36432    11466.709    12997.487    3966.2578    8426.8159     311.4785    13916 
309000000   -941.08759    11490.805    12935.438    3941.6904    8490.2018    309.99153    13921 
310000000   -939.94464    11387.314    13002.543    3930.1746    8397.0845    311.59966    13940 
311000000   -947.53886    11340.445    13173.529    3946.8539    8341.1298    315.69726    13928 
312000000   -876.07585    11509.283    12829.415    3967.9244    8417.4348    307.45074    13925 
313000000   -892.99062    11440.442    12780.286    3974.1393    8359.2929    306.27339    13944 
314000000    -929.4626    11478.303    12960.023     3925.723    8482.0429    310.58069    13944 
315000000   -840.93574    11566.585    12956.948    3974.5267    8432.9938    310.50701    13916 
316000000   -844.51251    11539.418    13050.525    3996.8547    8387.0763    312.74952    13919 
317000000   -927.41252    11513.348    12916.931    3997.3152    8443.4457    309.54802    13936 
318000000   -899.39934     11547.29    12905.414     4081.924    8364.7656    309.27202    13919 
319000000   -841.71254    11562.869    12924.598    3970.7592    8433.8226    309.73176    13918 
320000000   -889.17835    11587.527    13053.122    4052.4315    8424.2737    312.81177    13916 
321000000   -937.67985    11384.506    12888.111    4003.9277    8318.2577    308.85735    13937 
322000000   -872.38358    11560.569     13135.53    4017.2655    8415.6874    314.78663    13927 
323000000   -932.83759    11477.134    12925.211    3976.0246    8433.9465    309.74645    13939 
324000000   -844.03418    11405.016    13131.337     3925.806    8323.2445    314.68616    13952 
325000000   -877.44016    11507.807    12855.586    3963.7087    8421.5383    308.07792    13921 
326000000   -917.14767    11363.596    12793.128    3922.0263    8358.7175    306.58113    13935 
327000000   -944.47151    11453.333    12819.491    4018.5768    8379.2275    307.21292    13932 
328000000   -938.10589    11564.649    12949.526    4024.2948    8478.4597    310.32915    13941 
329000000   -898.56711    11455.722    12711.913    3876.8103    8477.4786    304.63487    13924 
330000000   -939.85891    11516.205    12979.792    3994.7302    8461.3338    311.05445    13946 
331000000   -890.69826    11519.429    12988.441    3945.6406    8464.4871    311.26171    13926 
332000000   -921.29066     11505.32    12831.338    3988.1185    8438.4923    307.49682    13938 
333000000   -876.71038    11442.256    12771.825    4014.3278    8304.6384    306.07061    13929 
334000000   -828.53127    11552.189      12960.8    3969.0022    8411.7184    310.59931    13911 
335000000   -852.43914    11635.913    12988.109     4022.704    8465.6478    311.25376    13928 
336000000   -847.97271    11537.799    13209.031    4026.6925    8359.0787    316.54806    13920 
337000000   -921.13841    11679.515    13038.426     4059.209    8541.4443    312.45959    13907 
338000000    -930.7274    11541.594    13059.292    3973.0147    8499.3067    312.95963    13922 
339000000   -944.98539    11535.261    12994.732    3983.0271    8497.2194    311.41249    13925 
340000000   -948.46441    11454.844    12951.404    3992.6276    8410.6809    310.37413    13947 
341000000   -948.43654    11411.461    13025.228    3974.7098    8385.1877    312.14331    13965 
342000000   -961.54399    11410.263    12942.755     3949.683    8422.1242    310.16688    13962 
343000000   -961.68352    11473.598    12959.431    4052.2549    8383.0263    310.56652    13932 
344000000   -948.04649    11417.771     12978.43    3943.5114    8422.3058    311.02182    13931 
345000000   -939.51341    11299.808    13081.927    3985.4765    8253.8448    313.50207    13911 
346000000   -932.41798    11336.614    12902.481     3940.429    8328.6033    309.20172    13943 
347000000   -979.18086    11441.715    12783.105     3998.543    8422.3526    306.34093    13950 
348000000   -902.10487    11571.696      12898.8    4023.7921     8450.009    309.11351    13925 
349000000   -918.03635    11516.492    12987.039    4028.6623    8405.8664    311.22811    13912 
350000000    -843.2228    11433.701    12894.116    3949.3975    8327.5266    309.00126    13907 
351000000   -900.49443    11571.715     12887.11    3976.7643    8495.4453    308.83337    13944 
352000000   -908.70485    11517.293     13051.46    3978.7708    8447.2274    312.77193    13935 
353000000   -927.72356    11552.973     12804.04    4060.2255    8420.4706    306.84263    13936 
354000000   -912.40462    11392.598    12935.483    3979.1643    8325.8388    309.99261    13924 
355000000   -899.58097    11595.816    12807.927    4076.9984    8418.3983    306.93579    13913 
356000000   -925.65693    11399.788    13007.206    3970.1454    8355.2997    311.71142    13951 
357000000   -985.22933     11447.45    12901.449    3971.9421    8460.7367    309.17699    13930 
358000000   -892.13749    11495.735    13017.249    4017.9889    8369.8833    311.95208    13925 
359000000   -953.10782    11370.565    12935.096    3917.7384    8405.9345    309.98333    13950 
360000000   -1002.9394    11313.473    12912.233    3938.2045    8378.2082    309.43543    13959 
361000000   -952.87398    11450.154     12818.57    3953.4184    8449.6091    307.19084    13955 
362000000   -908.04999    11478.799    13017.083     3916.955    8469.8945     311.9481    13956 
363000000   -957.19879    11324.687    12886.784    3946.4233     8335.462    308.82555    13944 
364000000   -947.13983    11413.877    13108.218    3971.2193    8389.7975    314.13212    13945 
365000000   -959.00778    11538.263    12949.442     4022.654    8474.6171    310.32713    13932 
366000000   -958.79741    11401.731    12900.958     3997.573    8362.9552    309.16523    13950 
367000000    -1006.379    11361.544    12857.072    3920.1072     8447.816    308.11352    13945 
368000000   -945.51118    11340.647    12898.873    3980.6876    8305.4709    309.11525    13938 
369000000   -930.20272     11473.08    13095.613    3944.3691    8458.9136    313.83005    13949 
370000000   -942.49815    11398.264    12901.117    3960.1196    8380.6425    309.16903    13941 
371000000   -971.33871    11465.958    13010.664     4031.007    8406.2898    311.79427    13941 
372000000    -966.9442     11494.71      12834.1    3965.5832    8496.0711    307.56301    13945 
373000000   -1003.3492    11411.273    12939.892    3965.0172    8449.6048    310.09826    13940 
374000000    -974.4629    11396.193    12927.292    3907.3582    8463.2977    309.79631    13913 
375000000   -896.50666    11524.298    12917.956    4000.6808    8420.1241    309.57258    13889 
376000000   -902.50871    11495.329    12937.669    3994.4905    8403.3469    310.04498    13908 
377000000   -858.74041     11408.41    12944.591    3973.6863    8293.4645    310.21088    13914 
378000000   -887.21105    11481.865    12957.455    3921.8385    8447.2379    310.51915    13910 
379000000   -894.82341    11480.742    13026.842    3928.7025    8446.8625    312.18197    13928 
380000000   -976.03739    11270.692    13020.419    3942.5671    8304.1623    312.02806    13935 
381000000   -950.55176    11389.304     12903.61    3920.2792    8419.5762    309.22878    13957 
382000000   -931.73898    11389.979    12870.354    3983.5459    8338.1718    308.43181    13944 
383000000   -858.39066    11654.582    12949.609    3993.0973    8519.8758    310.33112    13939 
384000000   -875.85042    11470.017    12890.136    4001.6973    8344.1698    308.90589    13923 
385000000    -923.4648    11473.673    12766.196    4014.4764     8382.661    305.93573    13914 
386000000   -930.38878    11472.833    13061.858    3979.1817    8424.0399    313.02111    13917 
387000000   -902.77719    11587.491    12960.453    4039.0077    8451.2609    310.59099    13929 
388000000    -919.9307    11516.564    12914.725    4033.8478    8402.6466    309.49515    13903 
389000000   -928.19214    11584.687    12741.624    3969.4068    8543.4726    305.34686    13942 
390000000   -967.73016    11540.574    13083.499    4071.1409    8437.1632    313.53974    13922 
391000000   -916.82561    11439.833    13013.022    3925.2965    8431.3617    311.85078    13956 
392000000   -932.65314    11447.167    13066.778    3999.3878    8380.4324    313.13903    13937 
393000000   -931.99542    11379.434    12949.407    3926.5181    8384.9116    310.32628    13953 
394000000   -937.91797    11466.664    12968.391    4011.3711    8393.2106    310.78123    13916 
395000000   -908.76944    11416.867    12996.952    3961.6931    8363.9436    311.46567    13931 
396000000    -939.7246    11550.563    12924.434    4029.1433    8461.1442    309.72781    13945 
397000000   -914.95179    11351.677    12952.023    3832.1411    8434.4875    310.38899    13948 
398000000   -907.49746    11530.166    12946.499    3990.7289    8446.9347    310.25661    13940 
399000000   -860.47332    11528.927    12878.157    3975.2782    8414.1225    308.61882    13928 
400000000   -927.11744    11609.749     12766.13    4019.9344    8516.9323    305.93414    13904 
401000000   -935.15347    11372.805    12975.183    3893.7093    8414.2496    310.94401    13936 
402000000    -879.6348    11419.776    12889.939    3919.5809    8379.8297    308.90117    13925 
403000000   -922.93586    11620.859    12860.577    4067.1797    8476.6155    308.19753    13932 
404000000   -976.09673    11492.569    12921.794    4020.5968    8448.0686    309.66456    13917 
405000000    -945.0517    11450.348    12975.601    3998.4839    8396.9154      310.954    13936 
406000000   -939.00679    11543.675    12780.818    4039.1074    8443.5744    306.28612    13923 
407000000   -868.05914    11507.313    12963.023    3968.0848    8407.2872     310.6526    13939 
408000000   -888.52325    11728.846    12990.843    4082.5453    8534.8241    311.31928    13927 
409000000   -866.75511    11564.335    12991.369    4063.6348    8367.4551    311.33188    13908 
410000000   -910.08509    11478.937    12913.785    4025.0901    8363.9315    309.47262    13930 
411000000   -909.88211     11495.53     13028.39    4007.9478    8397.4645    312.21909    13924 
412000000   -950.68793    11383.613    13050.464    3974.9831    8359.3178    312.74808    13936 
413000000   -977.49177    11433.121    13064.371    3908.8779    8501.7347    313.08135    13944 
414000000   -936.79139    11425.967    13036.302    3925.5284      8437.23    312.40869    13942 
415000000   -948.98171    11417.311    12862.954    3902.8516    8463.4409    308.25447    13954 
416000000   -847.02498    11615.206    12816.054    3971.4168    8490.8142    307.13056    13919 
417000000   -905.08052    11543.697    12930.558    3978.3534    8470.4237    309.87459    13915 
418000000   -870.08221    11449.905    13076.352    4034.0978    8285.8893    313.36846    13912 
419000000    -853.3257    11535.953      12875.7    4055.5021    8333.7761    308.55993    13913 
420000000   -870.06268    11474.936    12830.104    3935.8299    8409.1689    307.46724    13912 
421000000   -852.52002    11451.038    12983.471    3949.2795    8354.2781    311.14261    13927 
422000000   -905.58119    11623.101    12956.259    4088.5782    8440.1044    310.49049    13907 
423000000   -845.83513    11588.148    13044.275    4067.7934    8366.1895    312.59976    13930 
424000000    -926.4687    11614.403    13023.841      4087.56    8453.3117    312.11005    13915 
425000000   -885.56649    11663.709    12934.155    4025.6373     8523.638    309.96077    13914 
426000000    -860.7569     11398.79    12980.392    3966.1122    8293.4352    311.06882    13926 
427000000   -869.18395    11598.531     12981.75    4010.4303     8457.285    311.10138    13923 
428000000   -934.33266    11376.716    12838.845    3821.3857    8489.6634    307.67672    13941 
429000000   -882.89342    11641.955    13000.616    3971.4025    8553.4457    311.55349    13926 
430000000   -892.70679    11443.718     12756.25    3946.3946    8390.0298    305.69737    13911 
431000000   -920.29074    11336.055    12864.963    3900.4719    8355.8733    308.30263    13932 
432000000   -933.68222    11511.052    12992.647     3989.756    8454.9785     311.3625    13920 
433000000   -934.75974     11638.88     12789.49    4024.0208    8549.6187    306.49395    13908 
434000000   -893.04067    11630.133    12721.311    4093.0912     8430.082    304.86008    13918 
435000000   -869.53311    11577.307    12976.491    4076.5844    8370.2552    310.97533    13925 
436000000   -909.63005    11591.938    12812.951    3948.6264    8552.9416    307.05617    13921 
437000000   -863.61473    11588.832    12804.408    4044.3436    8408.1034    306.85144    13908 
438000000   -942.06972    11465.343    12781.455    3997.7134    8409.6992    306.30139    13932 
439000000   -941.94342    11479.013    12818.857    3912.8158    8508.1406    307.19772    13950 
440000000   -927.09164    11605.076    12972.112    3954.0901     8578.077    310.87039    13930 
441000000   -870.53952     11481.35    12812.626    3917.9689    8433.9206     307.0484    13940 
442000000   -899.35999     11530.15    12900.665    3976.6513    8452.8587     309.1582    13918 
443000000   -902.14017    11517.434     12908.23    3999.1326    8420.4411    309.33949    13931 
444000000   -834.27364    11489.863    12865.389    3959.5173    8364.6188    308.31283    13903 
445000000   -795.45059    11694.815    12838.407     4071.161    8419.1044    307.66623    13904 
446000000   -927.81832    11703.189    12797.278    4092.2981    8538.7088     306.6806    13928 
447000000   -953.96831    11406.785    12930.039    3916.5627    8444.1902    309.86214    13954 
448000000   -931.31255    11403.853    12925.374    3888.8536    8446.3124    309.75035    13926 
449000000   -940.83821    11358.001    12856.209    3901.8503    8396.9893    308.09285    13933 
450000000   -945.16573    11528.629    13050.884    4035.4562    8438.3381    312.75814    13908 
451000000   -903.36282    11479.836    13033.819    3964.7391    8418.4602    312.34917    13929 
452000000   -925.34498    11443.561    12936.855    4014.0659    8354.8403    310.02548    13919 
453000000   -1002.3511    11425.544    12885.135    3908.5294    8519.3661    308.78605    13950 
454000000   -951.30011    11344.389    12933.699     3972.982    8322.7067    309.94985    13944 
455000000   -992.28985    11338.374    12895.297    3917.2923    8413.3711    309.02956    13949 
456000000   -961.30913    11436.944    13029.843    3976.5032    8421.7499    312.25389    13932 
457000000   -868.59859    11538.292    13031.597    3958.9919    8447.8992    312.29593    13930 
458000000   -905.24287    11514.795    12892.989    3944.4426    8475.5955    308.97425    13923 
459000000    -905.9721    11530.994     12919.59     3969.716    8467.2504    309.61173    13947 
460000000   -977.11573    11304.165    12874.495    3932.0306    8349.2502    308.53105    13947 
461000000   -920.54304    11436.503    12906.841    3941.2189    8415.8274    309.30622    13932 
462000000   -898.33117     11504.65    13033.778    3936.0597    8466.9213     312.3482    13927 
463000000   -926.05174    11573.909    12901.706    3941.1796    8558.7813    309.18316    13933 
464000000    -934.0795     11422.19    12796.263     3955.557    8400.7129    306.65628    13921 
465000000   -879.25742    11603.717    13022.553    4069.2845    8413.6896    312.07919    13913 
466000000   -944.49536    11456.328    12870.285    3991.2781    8409.5454    308.43017    13941 
467000000   -833.73582    11505.979    12691.334    4022.4042    8317.3102    304.14168    13907 
468000000   -921.74095    11540.959    12925.045    4033.7218    8428.9785    309.74246    13935 
469000000   -941.85778    11496.685    12941.366    4022.4557    8416.0872    310.13359    13927 
470000000   -939.07475    11376.449    12815.791    3989.5057    8326.0176    307.12425    13932 
471000000   -967.78975    11423.938    13074.645    3953.9799    8437.7481    313.32756    13935 
472000000   -950.26255    11482.128    13139.151    3976.2377    8456.1533    314.87341    13946 
473000000   -908.19687    11440.624    12935.876    4005.8734    8342.9477    310.00203    13918 
474000000   -979.99885    11372.982    12909.238    3909.5372     8443.444    309.36365    13954 
475000000   -936.70099    11451.863     12989.28    3968.8125    8419.7513    311.28183    13949 
476000000   -897.18575    11519.967    12994.819    3992.2327    8424.9203    311.41457    13931 
477000000   -962.82327    11457.627    12982.532    3954.1873    8466.2625    311.12012    13935 
478000000   -967.12884    11419.567    12916.951    3987.2852    8399.4107     309.5485    13926 
479000000   -953.29587    11481.762    13071.123    4011.0117     8424.046    313.24314    13938 
480000000   -933.14953    11571.456    12902.982    4056.9684    8447.6376    309.21373    13940 
481000000      -900.38    11389.137    13048.733    3960.8319    8328.6855     312.7066    13921 
482000000    -891.9974    11498.921    12929.583    4036.9283    8353.9898    309.85122    13916 
483000000   -841.92715    11659.304    12921.193    4018.6617    8482.5699    309.65015    13912 
484000000   -847.16258     11563.58    13037.995    3982.6378    8428.1047    312.44925    13933 
485000000   -891.56309    11526.834    13002.577    4038.1231    8380.2738    311.60048    13911 
486000000   -881.09838     11534.42    12865.215    4055.3348    8360.1839    308.30868    13924 
487000000   -907.17014    11422.773    12813.284    4033.9241    8296.0188    307.06416    13928 
488000000   -852.63212    11612.764    13030.191    3962.8509    8502.5448    312.26224    13922 
489000000    -882.3505    11390.453    12896.308    3886.1455    8386.6579    309.05381    13918 
490000000   -901.99235    11476.354    12897.136    3983.0989    8395.2476    309.07364    13919 
491000000   -962.97292    11416.002    12929.552    3877.7842    8501.1906    309.85048    13955 
492000000    -968.9459    11330.169    12957.755     3954.459    8344.6563    310.52633    13935 
493000000    -917.0516    11451.607    12839.312    3962.7222    8405.9368    307.68791    13930 
494000000    -913.1033    11519.352    12982.358    3968.5226     8463.933    311.11595    13932 
495000000   -901.28698     11380.97    12945.853    3955.0385     8327.219    310.24113    13936 
496000000   -932.62981    11440.332    12961.435     3947.995    8424.9663    310.61454    13924 
497000000   -917.37433    11609.232    12918.129    3966.5743    8560.0324    309.57672    13925 
498000000   -886.43538    11489.648    13010.612    3958.7137    8417.3695    311.79303    13923 
499000000   -900.00061    11584.338    13068.786    4031.1011     8453.238    313.18714    13920 
500000000   -959.23797    11407.448    12883.192    3895.0379    8471.6477    308.73947    13924 
Loop time of 147414 on 28 procs for 500000000 steps with 14000 atoms

Performance: 7326.281 ns/day, 0.003 hours/ns, 3391.797 timesteps/s
99.5% CPU use with 28 MPI tasks x no OpenMP threads

MPI task timing breakdown:
Section |  min time  |  avg time  |  max time  |%varavg| %total
---------------------------------------------------------------
Pair    | 7952.1     | 8932.9     | 11982      | 804.5 |  6.06
Bond    | 5680.2     | 6247.3     | 12396      |1844.7 |  4.24
Neigh   | 28641      | 28947      | 29302      | 111.8 | 19.64
Comm    | 50215      | 57330      | 60591      | 974.6 | 38.89
Output  | 0.67244    | 0.6741     | 0.67582    |   0.1 |  0.00
Modify  | 27045      | 27370      | 27955      | 154.1 | 18.57
Other   |            | 1.859e+04  |            |       | 12.61

Nlocal:    500 ave 533 max 457 min
Histogram: 4 0 0 4 2 4 3 5 2 4
Nghost:    403.5 ave 595 max 191 min
Histogram: 1 1 2 1 7 4 9 1 1 1
Neighs:    2268.36 ave 2923 max 1751 min
Histogram: 1 3 8 2 3 6 1 1 1 2

Total # of neighbors = 63514
Ave neighs/atom = 4.53671
Ave special neighs/atom = 6.05643
Neighbor list builds = 100018348
Dangerous builds = 0
System init for write_restart ...
Total wall time: 40:57:02
