LAMMPS (5 Jun 2019)
Reading restart file ...
  restart file = 5 Jun 2019, LAMMPS = 5 Jun 2019
  restoring atom style full from restart
  orthogonal box = (-420 -420 -420) to (420 420 420)
  2 by 2 by 7 MPI processor grid
  restoring pair style lj/cut from restart
  restoring bond style hybrid from restart
  restoring angle style cosine from restart
  14000 atoms
  15634 bonds
  13600 angles
Finding 1-2 1-3 1-4 neighbors ...
  special bond factors lj:   0          1          1         
  special bond factors coul: 0          0          0         
  3 = max # of 1-2 neighbors
  6 = max # of 1-3 neighbors
  18 = max # of 1-4 neighbors
  56 = max # of special neighbors
  special bonds CPU = 0.0573441 secs
  read_restart CPU = 0.281989 secs
Finding 1-2 1-3 1-4 neighbors ...
  special bond factors lj:   0          1          1         
  special bond factors coul: 0          0          0         
  3 = max # of 1-2 neighbors
  6 = max # of 1-3 neighbors
  18 = max # of 1-4 neighbors
  38612 = # of 1-3 neighbors before angle trim
  27200 = # of 1-3 neighbors after angle trim
  56 = max # of special neighbors
  special bonds CPU = 0.00306575 secs
Neighbor list info ...
  update every 1 steps, delay 1 steps, check yes
  max neighbors/atom: 2000, page size: 100000
  master list distance cutoff = 26.9
  ghost atom cutoff = 26.9
  binsize = 13.45, bins = 63 63 63
  1 neighbor lists, perpetual/occasional/extra = 1 0 0
  (1) pair lj/cut, perpetual
      attributes: half, newton on
      pair build: half/bin/newton
      stencil: half/bin/3d/newton
      bin: standard
Setting up Verlet run ...
  Unit style    : real
  Current step  : 400000000
  Time step     : 0.1
Per MPI rank memory allocation (min/avg/max) = 1.103 | 9.849 | 16.63 Mbytes
Step Temp E_pair E_mol TotEng Press 
400000000    308.75635   -1817.1094     6379.901    17446.688 0.0023967182 
400010000    308.81987   -1753.2936    6372.7366     17505.99  0.041799617 
Loop time of 3.55296 on 28 procs for 10000 steps with 14000 atoms

Performance: 24.318 ns/day, 0.987 hours/ns, 2814.556 timesteps/s
99.6% CPU use with 28 MPI tasks x no OpenMP threads

MPI task timing breakdown:
Section |  min time  |  avg time  |  max time  |%varavg| %total
---------------------------------------------------------------
Pair    | 0.00032947 | 0.35657    | 1.6393     |  77.0 | 10.04
Bond    | 0.00054022 | 0.11242    | 0.40906    |  34.3 |  3.16
Neigh   | 0.0035083  | 0.0036747  | 0.0042138  |   0.4 |  0.10
Comm    | 0.0013134  | 1.2562     | 2.3579     |  59.9 | 35.36
Output  | 8.2396e-05 | 0.00026182 | 0.00055056 |   0.0 |  0.01
Modify  | 0.00099117 | 0.24709    | 0.88769    |  50.6 |  6.95
Other   |            | 1.577      |            |       | 44.38

Nlocal:    500 ave 1751 max 0 min
Histogram: 12 2 1 3 2 4 1 1 1 1
Nghost:    477.107 ave 1147 max 0 min
Histogram: 9 3 0 2 0 4 3 3 0 4
Neighs:    5042.14 ave 19610 max 0 min
Histogram: 13 2 3 1 4 1 1 0 2 1

Total # of neighbors = 141180
Ave neighs/atom = 10.0843
Ave special neighs/atom = 7.654
Neighbor list builds = 2
Dangerous builds = 0
4000 atoms in group rxnSites
Neighbor list info ...
  update every 1 steps, delay 1 steps, check yes
  max neighbors/atom: 2000, page size: 100000
  master list distance cutoff = 26.9
  ghost atom cutoff = 26.9
  binsize = 13.45, bins = 63 63 63
  2 neighbor lists, perpetual/occasional/extra = 1 1 0
  (1) pair lj/cut, perpetual
      attributes: half, newton on
      pair build: half/bin/newton
      stencil: half/bin/3d/newton
      bin: standard
  (2) fix bond/create/random, occasional, copy from (1)
      attributes: half, newton on
      pair build: copy
      stencil: none
      bin: none
Setting up Verlet run ...
  Unit style    : real
  Current step  : 0
  Time step     : 30
Per MPI rank memory allocation (min/avg/max) = 17.8 | 18.28 | 18.97 Mbytes
Step E_pair PotEng KinEng E_bond E_angle Temp Bonds 
       0   -1753.2936    4619.4429    12886.547   -1799.4754     8172.212    308.81987    15634 
 1000000   -1488.8887    4713.6048      12938.8   -1779.7791    7982.2726     310.0721    15618 
 2000000   -1401.7178    5014.1278    12855.199   -1642.1887    8058.0342    308.06864    15612 
 3000000   -1415.5293    4970.0646     12844.47   -1711.2208    8096.8147    307.81153    15614 
 4000000   -1365.5207    4813.0941    12878.654    -1764.998    7943.6128    308.63072    15618 
 5000000   -1366.7293    5003.7151    12982.097   -1647.2471    8017.6915    311.10969    15612 
 6000000   -1358.5441    4970.3141    12950.309   -1647.2874    7976.1456     310.3479    15620 
 7000000   -1334.7643    4957.6232     13044.18   -1763.5083    8055.8958    312.59748    15621 
 8000000   -1345.2656     4864.241    12865.306   -1707.7917    7917.2983    308.31084    15618 
 9000000   -1340.9452    4913.8815    13120.273   -1725.9168    7980.7435      314.421    15617 
10000000   -1320.4301    4991.6262    13078.714   -1738.0837      8050.14    313.42506    15596 
11000000   -1296.7893    5022.7914    12966.059   -1682.8334    8002.4141    310.72534    15616 
12000000   -1325.1691    4982.8653    12895.193   -1718.0086     8026.043    309.02708    15606 
13000000   -1325.5898     4882.715    13046.432   -1713.1062     7921.411    312.65144    15600 
14000000   -1350.6291    4995.6932    13004.599   -1689.7737    8036.0961    311.64894    15612 
15000000   -1317.5629    4936.0754    12957.002   -1721.2418    7974.8802    310.50831    15617 
16000000   -1323.3141    4954.8507     12806.56   -1765.6815    8043.8464    306.90303    15612 
17000000   -1256.8545    4939.8752    13067.269   -1832.9923     8029.722    313.15079    15625 
18000000    -1268.535      4898.78    13112.629   -1781.9181    7949.2332    314.23782    15614 
19000000   -1262.2504    5119.6866    13027.798    -1642.302     8024.239    312.20489    15614 
20000000    -1247.513    5031.4584    12899.776   -1653.6578    7932.6292    309.13691    15613 
21000000   -1253.0044    5123.1947    12931.622   -1622.6187    7998.8179    309.90008    15601 
22000000   -1262.2952    5085.6645    13103.141   -1683.6764    8031.6362    314.01046    15599 
23000000   -1238.1758    4988.8225    12799.471   -1698.0184    7925.0168    306.73314    15607 
24000000   -1249.0165     4917.009    13001.029   -1738.7929    7904.8185    311.56337    15617 
25000000   -1250.6967    4956.0339    12896.124   -1680.4066    7887.1371    309.04938    15606 
26000000   -1239.9644      5094.76    12851.107    -1686.508    8021.2324    307.97059    15598 
27000000   -1220.2262    5004.8991    13088.251   -1827.2016    8052.3269    313.65361    15623 
28000000   -1250.8955     4806.706    13028.028   -1793.3628    7850.9643     312.2104    15613 
29000000   -1192.4471    5102.1984    12986.123   -1646.5545    7941.1999    311.20617    15613 
30000000   -1210.8921     5151.493      13056.2   -1601.4574    7963.8424    312.88552    15612 
31000000   -1217.7438    5044.2791    12750.971   -1671.0833    7933.1061    305.57087    15605 
32000000    -1238.969    5000.3259    12761.906   -1641.0384    7880.3333    305.83291    15604 
33000000   -1238.5124    5070.7812    12946.727   -1659.9348    7969.2284    310.26206    15599 
34000000   -1252.6992    4913.9254     13040.66   -1708.8336    7875.4581    312.51311    15613 
35000000   -1225.2924    5061.6129     12949.81   -1695.7148    7982.6201    310.33595    15597 
36000000   -1213.5185    4922.4589    12829.429   -1749.4134    7885.3908    307.45106    15616 
37000000   -1183.3629    5074.6451    12953.084   -1654.0375    7912.0456     310.4144    15615 
38000000    -1190.499    5127.5496    13027.093   -1680.5791    7998.6277    312.18799    15617 
39000000   -1194.1172    5157.1392     12970.46   -1600.6295     7951.886    310.83082    15595 
40000000   -1216.0264    5185.8419    12910.463   -1730.6686    8132.5369    309.39302    15613 
41000000   -1192.8108    4887.4867    12948.606    -1748.859    7829.1566     310.3071    15609 
42000000   -1216.5182    5047.3448    12812.281   -1698.4782    7962.3412    307.04013    15625 
43000000   -1232.7869    4892.1604    12946.083   -1772.7619    7897.7093    310.24663    15611 
44000000   -1190.0842       5185.5    12928.357   -1727.7053    8103.2895    309.82183    15604 
45000000   -1214.8937    5096.7918    12860.462   -1724.8054    8036.4909    308.19477    15615 
46000000   -1217.8743    5091.1359    13004.789    -1713.498    8022.5082     311.6535    15599 
47000000   -1221.9109    5116.0436    12887.019   -1699.5475    8037.5019    308.83118    15596 
48000000   -1214.7991    5088.1823    12902.207   -1723.2397    8026.2211    309.19515    15613 
49000000   -1218.1973    5018.8442    12953.812   -1662.0953    7899.1368    310.43186    15599 
50000000   -1200.6087    5102.3496    12978.655   -1706.0623    8009.0206    311.02721    15614 
51000000   -1174.2191    5086.3463    13084.217   -1737.8144    7998.3799    313.55694    15615 
52000000   -1214.6515    4921.1342    12920.094     -1803.07    7938.8557    309.62382    15625 
53000000    -1171.247     5190.183    12878.119   -1589.9066    7951.3366    308.61791    15605 
54000000    -1219.186    5056.2792    13067.923   -1815.5526    8091.0179    313.16646    15609 
55000000   -1196.0888    4997.1771    13132.703   -1736.5192    7929.7852    314.71889    15614 
56000000   -1226.9879      5072.66    13040.029   -1603.6081     7903.256    312.49799    15600 
57000000   -1186.0084     5098.989    12974.076   -1658.0467    7943.0441    310.91748    15600 
58000000   -1147.9225    5308.1849    12879.793   -1582.6196     8038.727    308.65803    15603 
59000000   -1191.4396    5198.5331    12964.568   -1704.5938    8094.5664    310.68962    15607 
60000000   -1139.9556    5056.5299    12836.562   -1797.8848    7994.3703    307.62201    15618 
61000000   -1198.5865    5212.3585    12994.972   -1702.1803    8113.1253    311.41823    15609 
62000000   -1178.9371    5173.3913    12866.916   -1652.7384    8005.0669    308.34942    15614 
63000000   -1197.3135    5208.8486    13032.108   -1640.0441    8046.2062    312.30818    15601 
64000000   -1153.0319    5067.6271    13003.127   -1727.7349     7948.394    311.61365    15615 
65000000   -1143.5212    5210.4369    12940.677   -1596.6619      7950.62    310.11708    15619 
66000000   -1163.4784     5184.711    12944.383   -1610.9771    7959.1666     310.2059    15594 
67000000   -1147.7959    5102.4656     12984.32   -1731.9468    7982.2083    311.16295    15617 
68000000    -1147.055    5139.1522    12891.107    -1721.248    8007.4551    308.92917    15618 
69000000   -1155.8231    5174.9014    12919.866   -1785.9731    8116.6976    309.61836    15617 
70000000   -1138.6931    5122.5585    12805.297   -1721.1127    7982.3643    306.87277    15619 
71000000   -1157.5517    5120.1445    12819.808   -1620.7224    7898.4186    307.22051    15585 
72000000   -1123.8754    5196.8448    13044.436   -1697.5626    8018.2828    312.60361    15612 
73000000   -1112.9923    5114.8782    12937.669   -1703.4383    7931.3088      310.045    15609 
74000000     -1153.83    5140.0204    12872.844   -1677.8887    7971.7392     308.4915    15626 
75000000   -1139.5671    5179.7118    12861.153   -1609.9922    7929.2711    308.21133    15612 
76000000   -1142.9112    4979.9744    12840.105   -1883.9806    8006.8663    307.70692    15626 
77000000   -1151.2881    5028.6391    13032.517   -1721.0182    7900.9453    312.31798    15607 
78000000   -1119.4393    5109.4954    12871.617   -1667.4699    7896.4046    308.46209    15600 
79000000   -1105.2773    5154.6593    12794.288   -1576.9062    7836.8428    306.60894    15594 
80000000   -1086.5847    5209.3793    12692.503   -1634.5536    7930.5176    304.16972    15611 
81000000   -1097.7134    5174.3007    13099.557   -1692.9839     7964.998    313.92457    15616 
82000000   -1104.8464    5166.6161    12902.453   -1654.1846     7925.647    309.20105    15611 
83000000   -1060.4378    5077.2399    12778.809   -1715.9083     7853.586    306.23798    15605 
84000000   -1077.7972    5223.1576    12894.649   -1611.4542    7912.4089    309.01404    15610 
85000000   -1112.0287    5104.5918    12823.435   -1679.2966    7895.9171    307.30743    15606 
86000000   -1088.1412    5260.6216    13023.322    -1700.449    8049.2119    312.09764    15601 
87000000   -1089.5834    5264.5781     12929.76   -1689.7643    8043.9258    309.85546    15602 
88000000    -1071.824    5192.4279    13036.347   -1701.8859    7966.1379    312.40975    15610 
89000000    -1078.602    5206.4243    12850.988   -1629.1324    7914.1588    307.96773    15606 
90000000   -1080.7052    5110.4333    12898.233    -1737.984    7929.1225    309.09992    15594 
91000000    -1061.739     5238.499    12910.827   -1689.8772    7990.1152    309.40173    15604 
92000000   -1051.0885    5169.7844    12876.011   -1635.0173    7855.8901    308.56739    15603 
93000000   -1042.4951    5231.2503    12997.893   -1670.3325     7944.078    311.48824    15599 
94000000   -1051.9048    5247.9964    12959.173   -1675.8756    7975.7768    310.56032    15602 
95000000   -1064.3786    5002.7314    12854.292   -1766.0945    7833.2045    308.04691    15618 
96000000   -1076.4683     5089.563    12965.946   -1706.2145    7872.2458    310.72263    15619 
97000000   -1060.7926    4959.8254    12964.058   -1880.5864    7901.2044    310.67738    15614 
98000000    -1067.243     5182.456    12873.848   -1636.6799    7886.3788    308.51555    15602 
99000000   -1061.9947    5096.5981    12858.087   -1807.5547    7966.1475    308.13785    15607 
100000000   -1031.8751    5102.2672    13065.386   -1756.7564    7890.8987    313.10566    15610 
101000000   -1048.5331    5154.9473    13011.807   -1726.2524    7929.7328    311.82167    15619 
102000000   -1017.9435    5236.1741    12971.463   -1647.0688    7901.1864    310.85485    15605 
103000000    -1056.014    5052.4087    13020.736   -1727.5331    7835.9559    312.03565    15606 
104000000   -1021.2612    5176.0953    13031.383   -1662.0802    7859.4367     312.2908    15600 
105000000   -1016.5093    5154.5331    12914.726   -1767.0985    7938.1408    309.49517    15624 
106000000   -1049.5421    5091.9156    13023.814   -1700.5245    7841.9822    312.10941    15629 
107000000   -1050.6744     5265.897    12962.801   -1652.5041    7969.0755    310.64728    15605 
108000000    -1049.386     5160.392    12814.439   -1740.2075    7949.9855    307.09184    15604 
109000000   -1034.7483    5304.5502    13018.872   -1649.8475    7989.1461    311.99099    15610 
110000000   -1036.5841    5237.5241    12995.932   -1646.0253    7920.1334    311.44124    15599 
111000000   -1029.4802    5163.4231    12671.621   -1736.8377    7929.7409    303.66928    15613 
112000000   -1057.4879    5153.7115    12920.188   -1671.4786    7882.6779    309.62608    15602 
113000000   -1043.6793    5303.5324    12951.652   -1600.3848    7947.5964    310.38008    15599 
114000000   -1034.8003    5141.5084    12910.676   -1724.7364    7901.0451    309.39813    15610 
115000000   -1060.5687    5106.2215    13032.427    -1666.001    7832.7911    312.31583    15608 
116000000   -1043.6844    5104.4629    12847.612    -1789.358    7937.5053    307.88682    15621 
117000000    -1027.801    5178.8742    12933.201   -1722.3389    7929.0141    309.93793    15609 
118000000    -1047.019    5143.6359    13054.085   -1726.4683    7917.1232    312.83485    15622 
119000000   -1008.3424    5218.7869    12985.697   -1689.6793    7916.8086    311.19596    15611 
120000000   -1024.4736    5218.1221    12871.357   -1670.8732     7913.469    308.45586    15612 
121000000   -1006.8063    5172.8699    12878.721   -1681.0946    7860.7708    308.63232    15609 
122000000   -1010.7269    5270.8215    12886.679   -1641.9681    7923.5165    308.82305    15605 
123000000   -1042.5107    5144.5952    12894.961    -1785.706    7972.8119    309.02151    15623 
124000000   -1015.6302    5145.4431    13001.353   -1756.7284    7917.8017    311.57116    15612 
125000000   -968.97064    5185.6368    13085.882    -1689.944    7844.5514    313.59685    15600 
126000000   -1013.6508    5077.1392    12914.148     -1746.93      7837.72    309.48133    15607 
127000000   -1019.4729    5362.1117    12826.298   -1633.4109    8014.9955    307.37604    15607 
128000000    -1007.184    5181.9844    12893.865   -1675.5317    7864.7001    308.99524    15605 
129000000   -1029.4305    5136.6442     12812.77   -1702.3922    7868.4669    307.05185    15626 
130000000   -1063.2416    5228.1684    12743.189   -1624.4817    7915.8916    305.38438    15619 
131000000   -1022.0694    5094.8367    13002.149   -1707.8677    7824.7738    311.59021    15619 
132000000    -1026.968    5123.3851    13066.278   -1792.7845    7943.1376    313.12705    15637 
133000000   -1003.1299    5199.0922    12939.023   -1767.4365    7969.6586    310.07743    15623 
134000000   -1032.0925    5132.5709    12951.226   -1726.4631    7891.1266    310.36989    15618 
135000000    -1024.085    5024.0442    12808.743   -1726.9576    7775.0868    306.95534    15613 
136000000   -1025.2112    5183.6044    12944.591   -1673.2622    7882.0778    310.21088    15602 
137000000   -1011.7583    5171.5343    12834.001   -1740.2847    7923.5773    307.56065    15607 
138000000   -1019.8507    5339.3471    13006.575   -1631.6227    7990.8205     311.6963    15602 
139000000   -1012.9627    5016.2194    13091.959   -1754.4706    7783.6527    313.74247    15626 
140000000   -985.95657    5224.8076    13003.434   -1683.6834    7894.4476    311.62102    15613 
141000000   -999.45429    5201.6706    12970.946   -1745.6391     7946.764    310.84245    15627 
142000000   -986.12702     5252.938     12919.16    -1713.162    7952.2271    309.60143    15606 
143000000   -978.32687    5145.1929    12903.111   -1729.1713     7852.691    309.21683    15604 
144000000   -1006.4967    5155.9336    12977.446   -1803.0498    7965.4801    310.99822    15637 
145000000   -983.64374    5038.1604    13088.453    -1797.503    7819.3071    313.65845    15624 
146000000   -998.30652    5101.9595        12959   -1702.6012    7802.8672    310.55617    15617 
147000000   -994.55724     5315.724    12917.374   -1631.5374    7941.8186    309.55863    15608 
148000000   -1027.6662    5155.5071    13025.697   -1752.8235    7935.9967    312.15453    15613 
149000000   -1024.1003    5224.9308    12913.949   -1659.4461    7908.4772    309.47656    15618 
150000000   -1027.2605    5119.6616    12869.504   -1764.7299     7911.652    308.41144    15610 
151000000   -1010.5474    5181.2608    12890.081   -1664.1494    7855.9575    308.90456    15603 
152000000   -1023.4004    5167.9975    12885.005   -1670.9055    7862.3034    308.78292    15615 
153000000   -1034.7523    5092.5693    12829.188   -1747.5074     7874.829     307.4453    15607 
154000000   -1010.2872    5083.9213     12953.96   -1778.3527    7872.5611     310.4354    15609 
155000000   -1002.3885    5252.0473    12983.882   -1653.3448    7907.7806    311.15247    15594 
156000000   -988.97072    5193.4478    12949.057   -1714.5653    7896.9838     310.3179    15604 
157000000   -996.14374    5228.9553    12960.088    -1708.061      7933.16    310.58225    15599 
158000000   -1023.1632    5149.4775    12981.649   -1762.3584    7934.9991    311.09895    15610 
159000000   -969.27543    5378.7887    12894.081   -1642.5042    7990.5684    309.00042    15596 
160000000   -1016.1365    5295.9282    12884.396   -1674.6058    7986.6704    308.76833    15629 
161000000   -989.35036    5144.5396    13033.636   -1725.7214    7859.6114    312.34478    15612 
162000000   -1010.3249    5176.0097    12847.625   -1672.0057    7858.3404    307.88713    15614 
163000000   -961.98008    5253.2217    12898.297   -1697.5453    7912.7471    309.10146    15605 
164000000   -982.09708    5256.4008    12925.183   -1593.3568    7831.8547    309.74576    15589 
165000000    -1010.559    5284.8749    12830.028   -1634.4587    7929.8927    307.46544    15603 
166000000   -1031.7266    5138.6281     12946.79   -1729.5504    7899.9051    310.26357    15612 
167000000   -983.31948    5308.5904    13123.734   -1640.9354    7932.8453    314.50395    15605 
168000000   -1007.0486    5388.3233    12927.196   -1608.9482    8004.3201    309.79402    15598 
169000000   -1016.4482    5212.9475    12976.092   -1787.0801    8016.4759    310.96577    15628 
170000000   -985.86669    5275.8654     12802.37   -1652.2318    7913.9639    306.80261    15608 
171000000   -1010.2154    5405.7772    12815.547   -1610.5449    8026.5375    307.11839    15613 
172000000    -1005.065    5309.0499     12968.62   -1649.1846    7963.2995    310.78673    15606 
173000000   -1008.9178    5109.9856    12873.215    -1739.188    7858.0914    308.50037    15616 
174000000   -963.28891    5125.6154    13088.542   -1713.0315    7801.9358     313.6606    15622 
175000000   -976.27807    4914.9193    12998.302   -1909.6344    7800.8318    311.49803    15637 
176000000   -981.61989    5252.4636    13004.595   -1686.1381    7920.2215    311.64884    15606 
177000000   -982.33612    5046.0814    12980.836   -1708.4867    7736.9042    311.07948    15604 
178000000   -981.30499    5258.4243    12852.154    -1563.361    7803.0903    307.99566    15598 
179000000   -1012.9634    5035.2482    12890.326   -1795.8041    7844.0156    308.91044    15612 
180000000   -966.56693    5139.9376    12905.691    -1752.543    7859.0476    309.27865    15608 
181000000   -985.40784    5227.6378    12907.311   -1720.8203    7933.8659    309.31747    15613 
182000000   -977.29288    5222.0091    13027.303   -1624.4295    7823.7315    312.19303    15611 
183000000   -967.15972    5096.6776    12861.138   -1744.6603    7808.4975    308.21096    15622 
184000000   -959.46024    5171.5147    13106.002   -1712.5258    7843.5008      314.079    15613 
185000000   -976.02095    5310.2375    12915.601   -1674.5529    7960.8114    309.51614    15621 
186000000   -960.64807    5177.8252    12831.839   -1665.5101    7803.9833    307.50883    15623 
187000000    -928.2666    5294.8598    12860.124   -1729.8501    7952.9766    308.18667    15604 
188000000   -945.69949    5380.2125    12948.559   -1698.3883    8024.3003    310.30598    15617 
189000000   -948.05203    5193.0705    12995.475   -1669.9004    7811.0229    311.43029    15603 
190000000   -969.55456    5114.6751    12893.134     -1730.45    7814.6797    308.97773    15617 
191000000   -951.48572    5047.7168    13067.502   -1794.9121    7794.1146    313.15637    15628 
192000000   -951.91894    5080.2553    13011.734   -1842.6049    7874.7792    311.81993    15633 
193000000   -979.15642    5015.6139    12872.411   -1853.9465    7848.7169    308.48113    15607 
194000000   -935.64486    5099.9926    12965.931   -1755.3385     7790.976    310.72227    15629 
195000000   -964.61195    5166.0445    12850.241   -1773.9199    7904.5763    307.94982    15631 
196000000   -973.62804    5159.2422    13095.457   -1739.1147    7871.9849     313.8263    15606 
197000000   -978.67656    5203.2196    12843.451    -1708.654    7890.5501    307.78709    15622 
198000000   -954.20868    5150.1824    12877.839   -1791.3313    7895.7224     308.6112    15626 
199000000   -946.40114    5142.6915    13013.127   -1818.6859    7907.7786     311.8533    15628 
200000000    -937.6849    5201.9127    12878.054    -1663.904    7803.5017    308.61634    15604 
201000000   -944.04427    4961.2335    12964.081   -1850.9957    7756.2735    310.67794    15623 
202000000      -886.91     5164.884     12880.46   -1708.8915    7760.6856    308.67401    15608 
203000000   -926.76018    5184.9126    12884.903   -1675.4514    7787.1242    308.78049    15617 
204000000   -949.46624    5203.6524    12928.109   -1766.8427    7919.9613    309.81589    15622 
205000000   -948.37481    5260.4711    13011.326   -1740.3339    7949.1798    311.81015    15621 
206000000   -940.61679    5283.7115    13025.405   -1731.5274    7955.8558    312.14755    15625 
207000000    -946.2053    5182.4486    12907.075   -1718.0258    7846.6797    309.31182    15620 
208000000   -940.40235    5181.3408    12860.439   -1724.5519    7846.2951    308.19421    15623 
209000000   -940.11181    5106.2142    13039.677   -1809.4738    7855.7998    312.48955    15626 
210000000    -969.5403    5209.7495    12851.045   -1759.0997    7938.3895    307.96909    15611 
211000000   -970.33233    5278.9196    12943.251   -1720.7403    7969.9922    310.17876    15621 
212000000   -947.96036    4992.1754    12852.072   -1808.7681    7748.9039    307.99371    15628 
213000000   -922.97727     5136.217    12808.519   -1815.9297     7875.124    306.94996    15628 
214000000   -961.65809    5205.7119    12984.262   -1708.9992    7876.3692    311.16158    15618 
215000000   -936.87648     5118.526    12960.397   -1694.1494    7749.5519    310.58966    15611 
216000000   -917.17877    5272.6204    12846.938   -1765.7217    7955.5209    307.87068    15626 
217000000   -938.98416    5208.5789    12797.701   -1699.6061    7847.1692    306.69074    15616 
218000000   -921.52724    5174.4308    12957.977    -1712.881     7808.839    310.53165    15608 
219000000   -938.21052    5210.9004    12950.916   -1699.8486    7848.9595    310.36246    15617 
220000000   -948.97216    5383.2029     12973.59    -1585.229    7917.4041    310.90582    15606 
221000000   -942.21169    5339.5668    12952.237   -1576.9032    7858.6816    310.39411    15613 
222000000   -938.13507    5247.3408    12879.611   -1699.6488    7885.1247    308.65367    15614 
223000000   -973.48964    5038.7571    13058.786   -1770.6544    7782.9011     312.9475    15626 
224000000   -936.73122    5203.2536    12967.996   -1737.9973    7877.9821    310.77177    15626 
225000000   -955.03328    5067.8923    12998.752   -1716.4654     7739.391    311.50882    15622 
226000000   -946.28025    5228.6071    13047.387   -1724.5705    7899.4578    312.67433    15625 
227000000   -964.30601    5130.8535    12792.429    -1757.047    7852.2066     306.5644    15623 
228000000   -972.83216      5273.12    12838.115   -1754.9769    8000.9291    307.65922    15614 
229000000   -941.63711    5296.3138    12977.625   -1678.6261     7916.577    311.00251    15611 
230000000   -933.52159    5331.5106    12918.488   -1645.3572    7910.3894    309.58533    15607 
231000000   -958.70645    5323.8723    12880.952   -1637.5898    7920.1686    308.68579    15594 
232000000   -951.63648    5215.9655    13146.397   -1750.4813    7918.0833    315.04706    15619 
233000000    -926.6775    5184.0373      13016.9   -1814.9706    7925.6854    311.94373    15621 
234000000   -937.97669    5082.9626    13155.876   -1793.4287     7814.368    315.27423    15613 
235000000   -942.60898    5220.4356    12878.816    -1749.041    7912.0856    308.63461    15620 
236000000   -934.46635    5254.6347    12775.629    -1687.921     7877.022    306.16179    15623 
237000000   -957.62228    5123.6443    12892.401   -1865.5117    7946.7782    308.96018    15628 
238000000   -955.81831     5159.455    12977.864   -1722.3324    7837.6057    311.00824    15624 
239000000    -947.3931    5093.9556    12919.615    -1753.856    7795.2046    309.61234    15616 
240000000   -959.56907    5254.2141    12939.505   -1663.7492    7877.5324    310.08899    15607 
241000000   -927.30744    5226.8334    12926.927   -1734.0078    7888.1487    309.78756    15605 
242000000    -949.4092    5121.3779     13005.48   -1791.2238    7862.0109    311.67004    15619 
243000000   -934.78472    5123.0095    12852.467   -1798.3989    7856.1932    308.00316    15632 
244000000   -909.10048    5211.9068    12939.261   -1763.7956    7884.8029    310.08315    15609 
245000000   -911.76754    5220.8335    12900.462   -1679.1823    7811.7834    309.15334    15605 
246000000    -948.6426     5306.939    12949.559   -1676.1813    7931.7629    310.32993    15615 
247000000   -953.52807    5192.8764    12756.217   -1681.8298    7828.2343    305.69657    15634 
248000000    -953.3395    5110.6104    13026.566   -1767.5885    7831.5385    312.17538    15612 
249000000   -923.40381    5208.0725    12909.064   -1755.0019    7886.4781    309.35949    15617 
250000000   -905.33904     5358.364    12936.511   -1669.2096    7932.9126    310.01723    15629 
251000000    -927.6498    5159.0287    12852.043   -1716.6129    7803.2915      307.993    15626 
252000000   -945.77507    5114.1906    12841.088   -1767.6365    7827.6022    307.73047    15621 
253000000   -929.27268    5202.3233     12978.13   -1725.0214    7856.6174    311.01463    15616 
254000000   -918.64169    5071.2785    12969.296   -1848.4419    7838.3621    310.80291    15641 
255000000   -953.65566    5085.5911    12734.257   -1829.9933      7869.24    305.17032    15626 
256000000   -947.67855    5461.0518    12859.321   -1656.9922    8065.7225    308.16742    15622 
257000000   -926.41414    5074.8236    13115.509   -1828.0841    7829.3219    314.30683    15625 
258000000    -932.1357    5106.5012    12908.736   -1903.7626    7942.3995    309.35162    15629 
259000000   -922.78842    5279.0301    12939.019   -1679.2259    7881.0444    310.07735    15620 
260000000   -937.16894    5082.8523    12786.663   -1844.4305    7864.4517    306.42622    15638 
261000000   -926.00511      5021.64    12998.232   -1870.0631    7817.7082    311.49635    15634 
262000000   -910.53361    5167.0313    12836.545    -1779.858    7857.4229     307.6216    15640 
263000000   -926.74466    5179.5878    12885.876   -1722.8298    7829.1623    308.80379    15633 
264000000   -910.94812    5211.7904    13007.975   -1746.2978    7869.0363    311.72984    15624 
265000000   -921.86786    5211.4738    12928.021   -1766.8641    7900.2058    309.81379    15628 
266000000    -895.2633    5281.9002    12956.517   -1723.9193    7901.0828    310.49668    15616 
267000000    -895.4354     5354.754    12905.582   -1707.8847    7958.0741    309.27604    15605 
268000000   -899.12624    5235.0819    13120.392   -1737.1853    7871.3935    314.42386    15616 
269000000     -897.871    5271.0437    12910.976   -1699.2323     7868.147    309.40531    15632 
270000000   -899.14461    5078.7209    12913.198   -1777.6616    7755.5271    309.45855    15617 
271000000   -910.64271    5209.3079    12832.166   -1804.3846    7924.3352    307.51666    15618 
272000000   -909.63962     5228.572    12902.478    -1705.026    7843.2376    309.20165    15605 
273000000   -887.77633    5246.7143    13012.919   -1726.5441    7861.0347    311.84833    15617 
274000000   -927.04427    5279.5527    13075.116   -1670.4337    7877.0306    313.33884    15612 
275000000   -928.96435    5025.7834    13036.501   -1883.1967    7837.9444    312.41344    15632 
276000000   -907.74472    5292.4317    12864.653   -1741.0635    7941.2399     308.2952    15613 
277000000   -944.78702    5203.3758    12974.356   -1767.0015    7915.1643    310.92419    15615 
278000000   -912.67629    5337.2111    12968.743   -1623.6443    7873.5316    310.78967    15613 
279000000   -865.01743    5298.6582    12996.438   -1680.4749    7844.1505    311.45337    15628 
280000000   -867.39758     5176.882    12944.829   -1767.8881    7812.1676    310.21657    15630 
281000000   -905.38998    5026.9266    12946.541   -1833.6587    7765.9753     310.2576    15631 
282000000   -908.38646    5031.9395    12788.352    -1778.046    7718.3719    306.46669    15629 
283000000   -905.33113    5154.8022    12812.684   -1793.3519    7853.4852    307.04978    15628 
284000000    -878.5645    5283.9199    12825.543   -1715.1822    7877.6665    307.35795    15607 
285000000   -904.84747    5153.1417     12847.65   -1711.1505    7769.1397    307.88773    15624 
286000000   -934.35765    5286.3173    12970.527   -1730.2754    7950.9503    310.83242    15623 
287000000   -904.55796    5278.9283    12949.643   -1699.9907     7883.477    310.33195    15626 
288000000   -903.30269    5258.1853     12830.01   -1673.5328    7835.0209    307.46499    15626 
289000000   -924.80079    5306.2875    13015.904   -1680.0092    7911.0975    311.91986    15612 
290000000   -900.49135    5452.7717    13048.346   -1608.0862    7961.3492    312.69731    15605 
291000000   -929.97046    5153.1012     13054.22   -1730.0454    7813.1171    312.83807    15620 
292000000   -885.64593    5060.8757    13140.949   -1743.8552    7690.3769     314.9165    15612 
293000000   -910.59001    5325.0135    13004.347   -1735.3332    7970.9367     311.6429    15616 
294000000   -882.82233    5326.9697    12996.606   -1708.0942    7917.8862     311.4574    15608 
295000000    -896.4687     5216.843    12809.666   -1732.9977    7846.3095    306.97746    15614 
296000000   -896.48559    5356.4381    12969.744   -1637.5126    7890.4363    310.81366    15622 
297000000   -882.43935    5222.7381     12789.87   -1717.4371    7822.6145    306.50305    15624 
298000000   -885.40435     5181.387    12856.973   -1723.4364    7790.2278    308.11115    15614 
299000000   -882.63851    5141.5326    12928.641   -1746.1639    7770.3351    309.82864    15622 
300000000   -894.17789    5364.7532    12962.152   -1658.9245    7917.8556    310.63171    15623 
301000000   -849.80066    5250.5339    12960.074   -1663.7082    7764.0428    310.58192    15614 
302000000    -886.3651    5288.5148    13101.029   -1656.9233    7831.8032    313.95983    15614 
303000000   -910.33361    5206.9868    12827.589   -1753.8102    7871.1307    307.40699    15609 
304000000   -878.34781    5193.8996    12865.984   -1758.3902    7830.6376     308.3271    15617 
305000000   -860.60242    5381.8362    13036.108   -1738.1521    7980.5907    312.40402    15622 
306000000   -899.04297    5383.9686    12958.784   -1636.6045    7919.6161      310.551    15601 
307000000   -904.13435    5352.7526     13054.71   -1667.4683    7924.3552    312.84983    15614 
308000000   -864.08602    5265.3042    13169.927   -1725.1826    7854.5728    315.61095    15613 
309000000   -889.97083     5198.338    12889.039   -1791.6562    7879.9651    308.87959    15630 
310000000   -861.64189    5311.2931    12815.617    -1681.822     7854.757    307.12007    15616 
311000000   -874.12418    5179.1808    12860.615   -1797.5649    7850.8699    308.19844    15622 
312000000   -885.30161    5099.7195    12992.431   -1867.9346    7852.9556    311.35735    15629 
313000000   -836.65417     4987.209    12837.823   -1946.5347    7770.3979    307.65223    15638 
314000000   -850.39553    5202.8351    12903.397   -1703.5549    7756.7855    309.22368    15625 
315000000   -884.26982    5402.2851    12973.154   -1717.2232    8003.7782    310.89538    15618 
316000000   -857.80649    5359.2904    12958.013   -1687.8448    7904.9417    310.53252    15628 
317000000   -863.09667    5217.1821    13018.953   -1791.7881    7872.0668    311.99292    15634 
318000000   -881.80279    5417.8167    12833.602   -1622.2988    7921.9182    307.55107    15609 
319000000   -887.50646     5346.869    12950.876   -1706.9648    7941.3403     310.3615    15608 
320000000   -882.07657    5321.2051    12835.185   -1729.8404    7933.1221    307.58901    15626 
321000000   -892.14727    5277.7478    13001.601   -1733.6237    7903.5187    311.57709    15627 
322000000   -869.48479    5422.3982    12933.249   -1645.9782    7937.8611    309.93908    15610 
323000000    -865.5198    5290.5212    12942.375   -1754.5158    7910.5568    310.15776    15628 
324000000   -848.58327    5088.9389    12883.577   -1808.1034    7745.6256     308.7487    15602 
325000000   -884.82116    5374.5542    13041.972   -1697.4693    7956.8446    312.54455    15606 
326000000   -862.60828    5336.6958    12819.742   -1721.8785    7921.1826    307.21893    15632 
327000000    -878.3503    5424.1904    13093.441   -1661.7676    7964.3084      313.778    15604 
328000000   -873.96257    5292.9422    12806.447    -1763.264    7930.1688    306.90033    15611 
329000000   -895.92032     5276.243    12936.158   -1818.6648    7990.8281    310.00879    15629 
330000000      -884.16    5163.6953    13095.549    -1760.197    7808.0523    313.82851    15627 
331000000   -885.32756    5186.2572    12801.453   -1783.8717    7855.4564    306.78065    15626 
332000000   -881.67573    5221.8205    12842.941   -1711.6775    7815.1738    307.77488    15628 
333000000   -885.70972    5279.7456     12912.49   -1788.2792    7953.7345    309.44158    15642 
334000000   -857.44002    5119.9202     12885.89   -1771.5396    7748.8998    308.80413    15615 
335000000   -882.93678    5306.5921    13018.875   -1720.6181     7910.147    311.99104    15605 
336000000   -867.86906    5235.0453    13047.065   -1710.6577    7813.5721    312.66662    15607 
337000000   -865.30352    5305.4953    13066.431   -1746.4859    7917.2846    313.13071    15613 
338000000   -865.69741    5219.0491    12889.243   -1761.6508    7846.3973    308.88448    15614 
339000000   -925.40011     5200.997    12864.888   -1740.0928      7866.49    308.30082    15629 
340000000   -854.81296    5313.9378    12860.353   -1706.4675    7875.2183    308.19214    15627 
341000000   -895.49969    5190.1094    12871.316   -1766.5752    7852.1843    308.45488    15639 
342000000    -903.9257    5229.3081    12907.425   -1722.9144    7856.1482    309.32021    15621 
343000000   -884.13769     5192.347    12887.535   -1755.7058    7832.1905    308.84356    15631 
344000000    -880.7965    5206.1212    12934.052   -1712.3555    7799.2732     309.9583    15636 
345000000   -865.48055    5145.3414    13041.678   -1815.5856    7826.4076    312.53751    15619 
346000000   -898.85975     5223.686    12850.326   -1742.3755    7864.9212    307.95186    15624 
347000000   -872.53402       5196.8    12916.772   -1734.0829    7803.4169     309.5442    15625 
348000000   -846.85781      5219.34    12890.815   -1826.0372    7892.2351    308.92217    15626 
349000000   -864.97588    5230.9092    12961.417   -1702.5293    7798.4144    310.61411    15630 
350000000   -864.65322    5199.4047    12921.757   -1693.9749    7758.0329    309.66368    15639 
351000000   -872.75447    5161.6776    12759.929   -1794.7331    7829.1652    305.78553    15636 
352000000   -855.81081    5216.6427    12903.347   -1750.1548    7822.6083    309.22247    15636 
353000000   -853.97219    5316.4582    12972.276    -1764.031    7934.4614    310.87433    15628 
354000000   -845.84355    5421.4377    12868.203   -1704.2915    7971.5728    308.38028    15618 
355000000   -828.33554    5351.3002    12862.108   -1680.6779    7860.3136     308.2342    15624 
356000000   -867.69065    5373.3677      12839.8   -1693.5507    7934.6091    307.69961    15609 
357000000   -863.12219    5261.2889     13049.27   -1790.3333    7914.7444    312.71947    15628 
358000000   -869.76579    5166.8637    12938.614     -1804.23    7840.8595    310.06763    15641 
359000000   -863.52437    5281.1481    12987.936   -1713.2198    7857.8923    311.24961    15614 
360000000   -865.68414    5343.1251    13002.813   -1695.9303    7904.7395    311.60613    15602 
361000000   -856.12543    5343.0131    12837.888   -1757.5371    7956.6756     307.6538    15613 
362000000   -879.02216    5187.1168    12886.093   -1764.4167    7830.5557    308.80901    15633 
363000000   -874.86207    5006.5445    13112.965   -1825.9034    7707.3099    314.24589    15632 
364000000   -872.37177    5306.3457     12834.55   -1748.1263    7926.8437    307.57378    15618 
365000000   -867.67681    5295.7508    12911.143   -1729.7732    7893.2008    309.40931    15613 
366000000   -852.52521     5342.698    12876.153   -1662.4704    7857.6936     308.5708    15612 
367000000    -856.6962    5401.1891    12941.507   -1674.9888    7932.8741    310.13696    15607 
368000000   -878.85535    5148.2091    13024.786   -1826.4482    7853.5127    312.13271    15617 
369000000      -860.63    5369.5165    12960.478   -1692.1395    7922.2861     310.5916    15619 
370000000   -865.98265    5190.4757    13010.313   -1798.9858    7855.4442    311.78588    15635 
371000000   -865.43701    5266.6244    12904.702   -1685.1789    7817.2404    309.25496    15611 
372000000   -879.51756    5164.7956    12905.742   -1767.2715    7811.5847    309.27988    15622 
373000000   -865.14232      5259.55    12904.125   -1693.7212    7818.4135    309.24112    15611 
374000000   -873.87972    5261.6943    13020.709   -1765.7144    7901.2885      312.035    15639 
375000000   -894.67056    5231.7414    13060.297   -1654.7259    7781.1378     312.9837    15620 
376000000   -864.56845    5265.4934    12976.634   -1792.2058    7922.2677    310.97878    15637 
377000000   -846.72534    5294.6842    12830.048   -1728.8953    7870.3049     307.4659    15627 
378000000   -834.53665     5319.296    12945.583   -1813.7498    7967.5825    310.23464    15641 
379000000   -844.19997    5353.7695    12839.306   -1652.1516    7850.1211    307.68777    15609 
380000000   -840.21058    5230.4041    12694.515    -1720.571    7791.1856    304.21793    15634 
381000000   -864.34507    5285.6753    13038.317   -1751.1898    7901.2102    312.45697    15635 
382000000   -873.86473     5203.434    12860.054   -1752.2283     7829.527    308.18498    15630 
383000000   -876.69176    5244.2129    13062.638   -1798.5488    7919.4534    313.03982    15619 
384000000   -875.50675    5124.6939    13041.944   -1784.5071    7784.7078    312.54388    15629 
385000000   -831.82872     5105.369     13062.83   -1837.4276    7774.6253    313.04443    15629 
386000000   -828.74451    5245.5221    13118.487    -1753.516    7827.7827    314.37822    15619 
387000000   -845.82728    5144.2453    12971.145   -1796.0658    7786.1385    310.84722    15622 
388000000   -848.74865    5133.4897    13090.806   -1828.3884    7810.6267    313.71483    15634 
389000000   -861.48695    5031.7502    12922.206   -1845.9783    7739.2154    309.67443    15637 
390000000    -821.5632    5135.9777    12855.098   -1798.8305    7756.3714    308.06622    15634 
391000000   -825.10073     5125.719    12930.785   -1750.4303    7701.2501    309.88003    15623 
392000000    -847.1102    5315.5607     12990.65   -1761.3613    7924.0322    311.31465    15618 
393000000   -849.49087    5321.9772    12851.169   -1721.8987    7893.3668    307.97206    15628 
394000000   -843.45211    5364.7462    12812.781   -1711.1603    7919.3586    307.05211    15635 
395000000   -847.18278    5230.3963    13124.118   -1737.0637    7814.6428    314.51316    15634 
396000000   -834.52995    5161.0902    13069.326   -1778.2293    7773.8494     313.2001    15632 
397000000   -843.74463    5196.2653     12934.35   -1804.3634    7844.3733    309.96545    15639 
398000000   -838.62728    5466.7856    12905.254   -1596.6768    7902.0897    309.26818    15603 
399000000   -843.67605     5224.557    13094.465   -1753.3683    7821.6014    313.80254    15632 
400000000   -873.00053       5273.7     12959.97    -1816.377    7963.0774    310.57943    15639 
Loop time of 84962.3 on 28 procs for 400000000 steps with 14000 atoms

Performance: 12203.054 ns/day, 0.002 hours/ns, 4707.969 timesteps/s
99.6% CPU use with 28 MPI tasks x no OpenMP threads

MPI task timing breakdown:
Section |  min time  |  avg time  |  max time  |%varavg| %total
---------------------------------------------------------------
Pair    | 5565.5     | 8360.3     | 13560      |1536.9 |  9.84
Bond    | 4416.4     | 4702.3     | 9046.3     |1223.9 |  5.53
Neigh   | 15659      | 15851      | 16161      |  91.9 | 18.66
Comm    | 21572      | 31163      | 34671      |1213.2 | 36.68
Output  | 0.67482    | 0.6756     | 0.67646    |   0.1 |  0.00
Modify  | 17403      | 17635      | 18122      | 147.1 | 20.76
Other   |            | 7250       |            |       |  8.53

Nlocal:    500 ave 544 max 453 min
Histogram: 2 1 2 5 2 2 8 4 1 1
Nghost:    472.036 ave 702 max 268 min
Histogram: 1 2 4 3 5 5 5 1 0 2
Neighs:    2482.79 ave 3349 max 1801 min
Histogram: 6 3 1 4 2 4 0 3 1 4

Total # of neighbors = 69518
Ave neighs/atom = 4.96557
Ave special neighs/atom = 7.59529
Neighbor list builds = 36756821
Dangerous builds = 0
System init for write_restart ...
Total wall time: 23:36:07
